%%MatrixMarket matrix coordinate real symmetric
% equilateral_p1_n8 stiffness A[int,int], mesh=equilateral_8 p=1, interior-restricted
% lower triangle only (row >= col); mirror for the full matrix
21 21 66
1 1 3.4641016151377548
2 1 -0.57735026918962562
7 1 -0.57735026918962584
2 2 3.4641016151377548
3 2 -0.57735026918962562
7 2 -0.57735026918962584
8 2 -0.57735026918962584
3 3 3.4641016151377548
4 3 -0.57735026918962562
8 3 -0.57735026918962584
9 3 -0.57735026918962584
4 4 3.4641016151377548
5 4 -0.57735026918962562
9 4 -0.57735026918962584
10 4 -0.57735026918962584
5 5 3.4641016151377548
6 5 -0.57735026918962562
10 5 -0.57735026918962584
11 5 -0.57735026918962584
6 6 3.4641016151377548
11 6 -0.57735026918962584
7 7 3.4641016151377548
8 7 -0.57735026918962584
12 7 -0.57735026918962551
8 8 3.4641016151377548
9 8 -0.57735026918962584
12 8 -0.57735026918962551
13 8 -0.57735026918962551
9 9 3.4641016151377548
10 9 -0.57735026918962584
13 9 -0.57735026918962551
14 9 -0.57735026918962551
10 10 3.4641016151377548
11 10 -0.57735026918962584
14 10 -0.57735026918962551
15 10 -0.57735026918962551
11 11 3.4641016151377548
15 11 -0.57735026918962551
12 12 3.4641016151377539
13 12 -0.57735026918962573
16 12 -0.57735026918962595
13 13 3.4641016151377539
14 13 -0.57735026918962573
16 13 -0.57735026918962595
17 13 -0.57735026918962595
14 14 3.4641016151377539
15 14 -0.57735026918962573
17 14 -0.57735026918962595
18 14 -0.57735026918962595
15 15 3.4641016151377539
18 15 -0.57735026918962595
16 16 3.4641016151377548
17 16 -0.57735026918962551
19 16 -0.57735026918962595
17 17 3.4641016151377548
18 17 -0.57735026918962551
19 17 -0.57735026918962595
20 17 -0.57735026918962595
18 18 3.4641016151377548
20 18 -0.57735026918962595
19 19 3.4641016151377553
20 19 -0.57735026918962595
21 19 -0.57735026918962551
20 20 3.4641016151377553
21 20 -0.57735026918962551
21 21 3.4641016151377548
