%%MatrixMarket matrix coordinate real symmetric
% equilateral_p1_n8 mass M[int,int], mesh=equilateral_8 p=1, interior-restricted
% lower triangle only (row >= col); mirror for the full matrix
21 21 66
1 1 0.0067658234670659265
2 1 0.0011276372445109878
7 1 0.0011276372445109878
2 2 0.0067658234670659265
3 2 0.0011276372445109878
7 2 0.0011276372445109878
8 2 0.0011276372445109878
3 3 0.0067658234670659265
4 3 0.0011276372445109878
8 3 0.0011276372445109878
9 3 0.0011276372445109878
4 4 0.0067658234670659265
5 4 0.0011276372445109878
9 4 0.0011276372445109878
10 4 0.0011276372445109878
5 5 0.0067658234670659265
6 5 0.0011276372445109878
10 5 0.0011276372445109878
11 5 0.0011276372445109878
6 6 0.0067658234670659265
11 6 0.0011276372445109878
7 7 0.0067658234670659265
8 7 0.0011276372445109878
12 7 0.001127637244510988
8 8 0.0067658234670659265
9 8 0.0011276372445109878
12 8 0.001127637244510988
13 8 0.001127637244510988
9 9 0.0067658234670659265
10 9 0.0011276372445109878
13 9 0.001127637244510988
14 9 0.001127637244510988
10 10 0.0067658234670659265
11 10 0.0011276372445109878
14 10 0.001127637244510988
15 10 0.001127637244510988
11 11 0.0067658234670659265
15 11 0.001127637244510988
12 12 0.0067658234670659248
13 12 0.0011276372445109878
16 12 0.0011276372445109873
13 13 0.0067658234670659248
14 13 0.0011276372445109878
16 13 0.0011276372445109873
17 13 0.0011276372445109873
14 14 0.0067658234670659248
15 14 0.0011276372445109878
17 14 0.0011276372445109873
18 14 0.0011276372445109873
15 15 0.0067658234670659248
18 15 0.0011276372445109873
16 16 0.0067658234670659231
17 16 0.0011276372445109873
19 16 0.0011276372445109873
17 17 0.0067658234670659231
18 17 0.0011276372445109873
19 17 0.0011276372445109873
20 17 0.0011276372445109873
18 18 0.0067658234670659231
20 18 0.0011276372445109873
19 19 0.0067658234670659283
20 19 0.001127637244510988
21 19 0.0011276372445109886
20 20 0.0067658234670659283
21 20 0.0011276372445109886
21 21 0.0067658234670659265
