%%MatrixMarket matrix coordinate real symmetric
% lshape_graded_p1_n16 stiffness A[int,int], mesh=lshape_graded_16 p=1, interior-restricted
% lower triangle only (row >= col); mirror for the full matrix
705 705 2697
1 1 5.2894627387962538
2 1 -1.9777556771485481
16 1 -1.9777556771485481
17 1 0.3219028931114869
2 2 5.2464579803188611
3 2 -1.9347509186711558
17 2 -0.9885034681031617
18 2 0.31040636121464815
3 3 5.1619335203675796
4 3 -1.8932312171972658
18 3 -0.9655104043094842
19 3 0.28741329742097066
4 4 5.0803791744232862
5 4 -1.8531965727268624
19 4 -0.94251734051580671
20 4 0.26442023362729306
5 5 5.0017949424859793
6 5 -1.8146469852599574
20 5 -0.91952427672212911
21 5 0.2414271698336149
6 6 4.9261808245556669
7 6 -1.7775824547965509
21 6 -0.89653121292845106
22 6 0.21843410603993735
7 7 4.8535368206323408
8 7 -1.7420029813366313
22 7 -0.87353814913477379
23 7 0.1954410422462601
8 8 4.7838629307160012
9 8 -1.7079085648802113
23 8 -0.85054508534109607
24 8 0.17244797845258222
9 9 4.7171591548066534
10 9 -1.6752992054272839
24 9 -0.82755202154741814
25 9 0.14945491465890476
10 10 4.653425492904292
11 10 -1.6441749029778499
25 10 -0.80455895775374087
26 10 0.12646185086522688
11 11 4.5926619450089214
12 11 -1.6145356575319134
26 11 -0.78156589396006315
27 11 0.10346878707154916
12 12 4.5348685111205418
13 12 -1.5863814690894698
27 12 -0.75857283016638544
28 12 0.080475723277871766
13 13 4.4800451912391477
14 13 -1.5597123376505198
28 13 -0.73557976637270794
29 13 0.057482659484194142
14 14 4.4281919853647436
15 14 -1.5345282632150656
29 14 -0.71258670257903045
30 14 0.034489595690516447
15 15 4.3793088934973294
30 15 -0.68959363878535274
16 16 5.2464579803188611
17 16 -0.9885034681031617
31 16 -1.9347509186711558
32 16 0.31040636121464815
17 17 5.2863696327919474
18 17 -1.9761633356876627
32 17 -1.9761633356876627
33 17 0.32106108167821479
18 18 5.2404001557695921
19 18 -1.9301938586653078
33 18 -0.98765149685852993
34 18 0.30871257853674539
19 19 5.150166595615759
20 19 -1.88592977553383
34 19 -0.96295449057559002
35 19 0.28401557225380558
20 20 5.0633438232436951
21 20 -1.8433710862932444
35 20 -0.93825748429265043
36 20 0.25931856597086578
21 21 4.9799318386534006
22 21 -1.8025177909435355
36 21 -0.91356047800971041
37 21 0.23462155968792603
22 22 4.8999306418448754
23 22 -1.7633698894847192
37 22 -0.88886347172677116
38 22 0.20992455340498628
23 23 4.823340232818123
24 23 -1.7259273819167835
38 23 -0.86416646544383124
39 23 0.18522754712204681
24 24 4.7501606115731381
25 24 -1.6901902682397343
39 24 -0.839469459160892
40 24 0.16053054083910745
25 25 4.6803917781099242
26 25 -1.656158548453569
40 25 -0.81477245287795252
41 25 0.13583353455616798
26 26 4.6140337324284779
27 26 -1.6238322225582871
41 26 -0.79007544659501294
42 26 0.1111365282732282
27 27 4.5510864745288009
28 27 -1.5932112905538927
42 27 -0.76537844031207314
43 27 0.086439521990288648
28 28 4.4915500044108949
29 28 -1.5642957524403815
43 28 -0.74068143402913367
44 28 0.061742515707349038
29 29 4.4354243220747582
30 29 -1.5370856082177555
44 29 -0.71598442774619409
45 29 0.037045509424409415
30 30 4.3827094275203917
45 30 -0.6912874214632545
31 31 5.1619335203675796
32 31 -0.9655104043094842
46 31 -1.8932312171972658
47 31 0.28741329742097066
32 32 5.2404001557695921
33 32 -0.98765149685852993
47 32 -1.9301938586653078
48 32 0.30871257853674539
33 33 5.2828067949396527
34 33 -1.9743251365873311
48 33 -1.9743251365873311
49 33 0.32008539027385541
34 34 5.23343372199807
35 34 -1.9249520636457498
49 34 -0.98666310873858964
50 34 0.30674849901244505
35 35 5.1366663056956474
36 35 -1.8775577202849079
50 35 -0.95998932621576905
51 35 0.28007471648962451
36 36 5.043856348554705
37 36 -1.8321421065048071
51 36 -0.93331554369294822
52 36 0.25340093396680363
37 37 4.9550038505752401
38 37 -1.7887052223054436
52 37 -0.90664176117012696
53 37 0.22672715144398192
38 38 4.8701088117572588
39 38 -1.7472470676868253
53 38 -0.87996797864730536
54 38 0.20005336892116032
39 39 4.7891712321007587
40 39 -1.7077676426489434
54 39 -0.85329419612448354
55 39 0.17337958639833867
40 40 4.7121911116057413
41 40 -1.6702669471918066
55 40 -0.82662041360166238
56 40 0.14670580387551735
41 41 4.6391684502722033
42 41 -1.6347449813154067
56 41 -0.79994663107884101
57 41 0.12003202135269625
42 42 4.5701032481001445
43 42 -1.6012017450197484
57 42 -0.77327284855601963
58 42 0.093358238829874596
43 43 4.5049955050895694
44 43 -1.5696372383048314
58 43 -0.74659906603319803
59 43 0.066684456307053303
44 44 4.4438452212404753
45 44 -1.5400514611706542
59 44 -0.71992528351037688
60 44 0.040010673784232023
45 45 4.3866523965528605
60 45 -0.69325150098755539
46 46 5.0803791744232862
47 46 -0.94251734051580671
61 46 -1.8531965727268624
62 46 0.26442023362729306
47 47 5.150166595615759
48 47 -0.96295449057559002
62 47 -1.88592977553383
63 47 0.28401557225380558
48 48 5.23343372199807
49 48 -0.98666310873858964
63 48 -1.9249520636457498
64 48 0.30674849901244505
49 49 5.2786582904486226
50 49 -1.9721792880158016
64 49 -1.9721792880158016
65 49 0.31894111278630527
50 50 5.2253375618567581
51 50 -1.918858559423938
65 50 -0.9855026766915318
66 50 0.30444378947783701
51 51 5.1210196611937322
52 51 -1.8678613873527756
66 51 -0.95650803007459484
67 51 0.27544914286090039
52 52 5.0213488735721041
53 52 -1.8191877718023108
67 52 -0.92751338345765744
68 52 0.24645449624396332
53 53 4.9263251989918739
54 53 -1.7728377127725459
68 53 -0.89851873684072037
69 53 0.21745984962702633
54 54 4.8359486374530443
55 54 -1.7288112102634818
69 54 -0.86952409022378374
70 54 0.18846520301008962
55 55 4.750219188955616
56 55 -1.6871082642751158
70 55 -0.84052944360684756
71 55 0.159470556393153
56 56 4.6691368534995874
57 56 -1.6477288748074537
71 56 -0.81153479698991027
72 56 0.13047590977621593
57 57 4.5927016310849611
58 57 -1.6106730418604898
72 57 -0.7825401503729732
73 57 0.10148126315927899
58 58 4.5209135217117336
59 58 -1.575940765434225
73 58 -0.75354550375603657
74 58 0.072486616542342175
59 59 4.4537725253799048
60 59 -1.5435320455286621
74 59 -0.72455085713909972
75 59 0.043491969925405251
60 60 4.3912786420894792
75 60 -0.69555621052216265
61 61 5.0017949424859793
62 61 -0.91952427672212911
76 61 -1.8146469852599574
77 61 0.2414271698336149
62 62 5.0633438232436951
63 62 -0.93825748429265043
77 62 -1.8433710862932444
78 62 0.25931856597086578
63 63 5.1366663056956474
64 63 -0.95998932621576905
78 63 -1.8775577202849079
79 63 0.28007471648962451
64 64 5.2253375618567581
65 64 -0.9855026766915318
79 64 -1.918858559423938
80 64 0.30444378947783701
65 65 5.2737665541392502
66 65 -1.96964136097515
80 65 -1.96964136097515
81 65 0.31758040840780793
66 66 5.2158124310148555
67 66 -1.9116872378507566
81 66 -0.98412097957960931
82 66 0.30170138798741786
67 67 5.1026713958505301
68 67 -1.8565003258108255
82 67 -0.95236293873882816
83 67 0.26994334714663748
68 68 4.9950647828551338
69 68 -1.8040806248553607
83 68 -0.92060489789804734
84 68 0.23818530630585671
69 69 4.892992592028671
70 69 -1.7544281349843618
84 69 -0.88884685705726685
85 69 0.20642726546507589
70 70 4.7964548233711417
71 70 -1.707542856197831
85 70 -0.85708881621648592
86 70 0.17466922462429468
71 71 4.7054514768825477
72 71 -1.6634247884957687
86 71 -0.82533077537570476
87 71 0.14291118378351381
72 72 4.6199825525628881
73 72 -1.6220739318781709
87 72 -0.79357273453492394
88 72 0.11115314294273312
73 73 4.5400480504121603
74 73 -1.5834902863450406
88 73 -0.76181469369414323
89 73 0.079395102101952247
74 74 4.4656479704303669
75 74 -1.5476738518963773
89 74 -0.7300566528533623
90 74 0.047637061261171287
75 75 4.3967823126175061
90 75 -0.69829861201258159
76 76 4.926180824555666
77 76 -0.89653121292845106
91 76 -1.7775824547965509
92 76 0.21843410603993735
77 77 4.9799318386534006
78 77 -0.91356047800971041
92 77 -1.8025177909435355
93 77 0.23462155968792603
78 78 5.043856348554705
79 78 -0.93331554369294822
93 78 -1.8321421065048071
94 78 0.25340093396680363
79 79 5.1210196611937322
80 79 -0.95650803007459484
94 79 -1.8678613873527756
95 79 0.27544914286090039
80 80 5.2158124310148555
81 80 -0.98412097957960931
95 80 -1.9116872378507566
96 80 0.30170138798741786
81 81 5.2679118274077625
82 81 -1.9665928563640684
96 81 -1.9665928563640684
97 81 0.31593543607178493
82 82 5.2044430856144404
83 82 -1.9031241145707467
97 82 -0.98244803132934488
98 82 0.29838346740113042
83 83 5.0808570937111703
84 83 -1.8430068644607984
98 83 -0.94734409398803565
99 83 0.26327953005982119
84 84 4.9639740851746481
85 84 -1.7862411060342245
99 84 -0.91224015664672642
100 84 0.22817559271851157
85 85 4.8537940600048808
86 85 -1.7328268392910311
100 85 -0.87713621930541663
101 85 0.19307165537720208
86 86 4.7503170182018675
87 86 -1.6827640642312107
101 86 -0.84203228196410707
102 86 0.15796771803589271
87 87 4.6535429597656046
88 87 -1.6360527808547687
102 87 -0.80692834462279761
103 87 0.12286378069458312
88 88 4.5634718846960975
89 88 -1.5926929891617034
103 88 -0.77182440728148805
104 88 0.087759843353273609
89 89 4.4801037929933418
90 89 -1.5526846891520143
104 89 -0.7367204699401787
105 89 0.052655906011964203
90 90 4.403438684657341
105 90 -0.70161653259886925
91 91 4.8535368206323408
92 91 -0.87353814913477379
106 91 -1.7420029813366313
107 91 0.1954410422462601
92 92 4.8999306418448763
93 92 -0.88886347172677116
107 92 -1.7633698894847192
108 92 0.20992455340498628
93 93 4.9550038505752401
94 93 -0.90664176117012696
108 93 -1.7887052223054436
109 93 0.22672715144398192
94 94 5.0213488735721032
95 94 -0.92751338345765744
109 94 -1.8191877718023108
110 94 0.24645449624396332
95 95 5.1026713958505292
96 95 -0.95236293873882816
110 95 -1.8565003258108255
111 95 0.26994334714663748
96 96 5.2044430856144404
97 96 -0.98244803132934488
111 96 -1.9031241145707467
112 96 0.29838346740113042
97 97 5.2607780437828655
98 97 -1.9628620473216927
112 97 -1.9628620473216927
113 97 0.31390667744742562
98 98 5.1906359993773741
99 98 -1.8927200029162017
113 98 -0.98038083265953602
114 98 0.29428751010696175
99 99 5.0544948501383322
100 99 -1.8267208980826506
114 99 -0.94114249797860794
115 99 0.25504917542603345
100 100 4.9266395800431715
101 100 -1.7648647328210405
115 100 -0.90190416329767942
116 100 0.21581084074510512
101 101 4.8070701890918919
102 101 -1.7071515071313721
116 101 -0.86266582861675145
117 101 0.17657250606417701
102 102 4.6957866772844952
103 102 -1.6535812210136442
117 102 -0.82342749393582293
118 102 0.13733417138324866
103 103 4.5927890446209805
104 103 -1.6041538744678576
118 103 -0.78418915925489474
119 103 0.098095836702320444
104 104 4.4980772911013496
105 104 -1.5588694674940122
119 104 -0.74495082457396666
120 104 0.058857502021392318
105 105 4.4116514167255998
120 105 -0.70571248989303847
106 106 4.7838629307160021
107 106 -0.85054508534109607
121 106 -1.7079085648802113
122 106 0.17244797845258222
107 107 4.8233402328181239
108 107 -0.86416646544383124
122 107 -1.7259273819167835
123 107 0.18522754712204681
108 108 4.8701088117572588
109 108 -0.87996797864730536
123 108 -1.7472470676868253
124 108 0.20005336892116032
109 109 4.9263251989918739
110 109 -0.89851873684072037
124 109 -1.7728377127725459
125 109 0.21745984962702633
110 110 4.9950647828551329
111 110 -0.92060489789804734
125 110 -1.8040806248553607
126 110 0.23818530630585671
111 111 5.0808570937111703
112 111 -0.94734409398803565
126 111 -1.8430068644607984
127 111 0.26327953005982119
112 112 5.1906359993773741
113 112 -0.98038083265953602
127 112 -1.8927200029162017
128 112 0.29428751010696175
113 113 5.2518934298148219
114 113 -1.9581902167856846
128 113 -1.9581902167856846
129 113 0.31134199162819376
114 114 5.1735120937920485
115 114 -1.8798088807629116
129 114 -0.97776128631227155
130 114 0.28910327794046597
115 115 5.0220022295730322
116 115 -1.8066803525666688
130 115 -0.93328385893681576
131 115 0.24462585056500993
116 116 4.880997981007086
117 116 -1.7388046321969659
131 116 -0.88880643156135941
132 116 0.20014842318955361
117 117 4.7504993480942153
118 117 -1.676181719653798
132 117 -0.84432900418590306
133 117 0.15567099581409727
118 118 4.6305063308344154
119 118 -1.6188116149371652
133 118 -0.79985157681044683
134 118 0.11119356843864087
119 119 4.5210189292276874
120 119 -1.5666943180470698
134 119 -0.75537414943499037
135 119 0.06671614106318452
120 120 4.4220371432740322
135 120 -0.71089672205953414
121 121 4.7171591548066534
122 121 -0.82755202154741814
136 121 -1.6752992054272839
137 121 0.14945491465890476
122 122 4.7501606115731381
123 122 -0.839469459160892
137 122 -1.6901902682397343
138 122 0.16053054083910745
123 123 4.7891712321007587
124 123 -0.85329419612448354
138 123 -1.7077676426489434
139 123 0.17337958639833867
124 124 4.8359486374530443
125 124 -0.86952409022378374
139 124 -1.7288112102634818
140 124 0.18846520301008962
125 125 4.892992592028671
126 125 -0.88884685705726685
140 125 -1.7544281349843618
141 125 0.20642726546507589
126 126 4.9639740851746472
127 126 -0.91224015664672642
141 126 -1.7862411060342245
142 126 0.22817559271851157
127 127 5.0544948501383322
128 127 -0.94114249797860794
142 127 -1.8267208980826506
143 127 0.25504917542603345
128 128 5.1735120937920485
129 128 -0.97776128631227155
143 128 -1.8798088807629116
144 128 0.28910327794046597
129 129 5.2405207982938071
130 129 -1.9521683598674406
144 129 -1.9521683598674406
145 129 0.30799650243742371
130 130 5.1517113622606967
131 130 -1.8633589238343298
145 130 -0.97433362479688101
146 130 0.28233012723430501
131 131 4.9809712910322901
132 131 -1.7814282886390356
146 131 -0.92300087439064349
147 131 0.23099737682806754
132 132 4.8239888214795146
133 132 -1.7063764542815543
147 132 -0.87166812398440618
148 132 0.17966462642183056
133 133 4.6807639536023684
134 133 -1.6382034207618887
148 133 -0.8203353735781691
149 133 0.1283318760155932
134 134 4.5512966874008534
135 134 -1.5769091880800388
149 134 -0.7690026231719318
150 134 0.076999125609355901
135 135 4.4355870228749685
150 135 -0.71766987276569449
136 136 4.6534254929042929
137 136 -0.80455895775374087
151 136 -1.6441749029778499
152 136 0.12646185086522688
137 137 4.6803917781099242
138 137 -0.81477245287795252
152 137 -1.656158548453569
153 137 0.13583353455616798
138 138 4.7121911116057404
139 138 -0.82662041360166238
153 138 -1.6702669471918066
154 138 0.14670580387551735
139 139 4.750219188955616
140 139 -0.84052944360684756
154 139 -1.6871082642751158
155 139 0.159470556393153
140 140 4.7964548233711417
141 140 -0.85708881621648592
155 140 -1.707542856197831
156 140 0.17466922462429468
141 141 4.8537940600048799
142 141 -0.87713621930541663
156 141 -1.7328268392910311
157 141 0.19307165537720208
142 142 4.9266395800431715
143 142 -0.90190416329767942
157 142 -1.7648647328210405
158 142 0.21581084074510512
143 143 5.0220022295730322
144 143 -0.93328385893681576
158 143 -1.8066803525666688
159 143 0.24462585056500993
144 144 5.1517113622606967
145 144 -0.97433362479688101
159 144 -1.8633589238343298
160 144 0.28233012723430501
145 145 5.225439415444515
146 145 -1.9441089062580537
160 145 -1.9441089062580537
161 145 0.30344914422793101
146 146 5.1230115442793442
147 146 -1.8416810350928832
161 146 -0.96965508557720725
162 146 0.27310422980513782
147 147 4.9275566073917485
148 147 -1.7486539693704575
162 147 -0.90896525673162087
163 147 0.21241440095955155
148 148 4.7509032813896406
149 148 -1.665027709090775
163 148 -0.84827542788603472
164 148 0.15172457211396542
149 149 4.5930515662730169
150 149 -1.5908022542538343
164 149 -0.78758559904044856
165 149 0.091034743268379265
150 150 4.4540014620418775
165 150 -0.7268957701948624
151 151 4.5926619450089214
152 151 -0.78156589396006315
166 151 -1.6145356575319134
167 151 0.10346878707154916
152 152 4.6140337324284779
153 152 -0.79007544659501294
167 152 -1.6238322225582871
168 152 0.1111365282732282
153 153 4.6391684502722033
154 153 -0.79994663107884101
168 153 -1.6347449813154067
169 153 0.12003202135269625
154 154 4.6691368534995874
155 154 -0.81153479698991027
169 154 -1.6477288748074537
170 154 0.13047590977621593
155 155 4.7054514768825477
156 155 -0.82533077537570476
170 155 -1.6634247884957687
171 155 0.14291118378351381
156 156 4.7503170182018666
157 156 -0.84203228196410707
171 156 -1.6827640642312107
172 156 0.15796771803589271
157 157 4.8070701890918919
158 157 -0.86266582861675145
172 157 -1.7071515071313721
173 157 0.17657250606417701
158 158 4.880997981007086
159 158 -0.88880643156135941
173 158 -1.7388046321969659
174 158 0.20014842318955361
159 159 4.980971291032291
160 159 -0.92300087439064349
174 159 -1.7814282886390356
175 159 0.23099737682806754
160 160 5.1230115442793442
161 160 -0.96965508557720725
175 160 -1.8416810350928832
176 160 0.27310422980513782
161 161 5.2044679078652445
162 161 -1.9327579993218535
176 161 -1.9327579993218535
177 161 0.29690911770494582
162 162 5.0835155507286576
163 162 -1.8118056421852655
177 162 -0.96288636028688179
178 162 0.25979547799182751
163 163 4.8552397665430682
164 163 -1.704482215136264
178 163 -0.88865908086064538
179 163 0.18556819856559112
164 164 4.6542218425326505
165 164 -1.6107877181748491
179 164 -0.81443180143440896
180 164 0.1113409191393547
165 165 4.4804617786974079
180 165 -0.74020452200817255
166 166 4.5348685111205409
167 166 -0.75857283016638544
181 166 -1.5863814690894698
182 166 0.080475723277871766
167 167 4.5510864745288009
168 167 -0.76537844031207314
182 167 -1.5932112905538927
183 167 0.086439521990288648
168 168 4.5701032481001445
169 168 -0.77327284855601963
183 168 -1.6012017450197484
184 168 0.093358238829874596
169 169 4.5927016310849611
170 169 -0.7825401503729732
184 169 -1.6106730418604898
185 169 0.10148126315927899
170 170 4.6199825525628881
171 170 -0.79357273453492394
185 170 -1.6220739318781709
186 170 0.11115314294273312
171 171 4.6535429597656037
172 171 -0.80692834462279761
186 171 -1.6360527808547687
187 171 0.12286378069458312
172 172 4.6957866772844961
173 172 -0.82342749393582293
187 172 -1.6535812210136442
188 172 0.13733417138324866
173 173 4.7504993480942153
174 173 -0.84432900418590306
188 173 -1.676181719653798
189 173 0.15567099581409727
174 174 4.8239888214795146
175 174 -0.87166812398440618
189 174 -1.7063764542815543
190 174 0.17966462642183056
175 175 4.9275566073917485
176 175 -0.90896525673162087
190 175 -1.7486539693704575
191 175 0.21241440095955155
176 176 5.0835155507286567
177 176 -0.96288636028688179
191 176 -1.8118056421852655
192 176 0.25979547799182751
177 177 5.1732772478148341
178 177 -1.915554054291748
192 177 -1.915554054291748
193 177 0.28669446363747936
178 178 5.0257083551330179
179 178 -1.7679851616099318
193 178 -0.95221758939375356
194 178 0.23891205303123286
179 179 4.752135169968474
180 179 -1.6419808691272035
194 179 -0.85665276818126046
195 179 0.14334723181873973
180 180 4.5216911852021058
195 180 -0.76108794696876725
181 181 4.4800451912391477
182 181 -0.73557976637270794
196 181 -1.5597123376505198
197 181 0.057482659484194142
182 182 4.4915500044108949
183 182 -0.74068143402913367
197 182 -1.5642957524403815
198 182 0.061742515707349038
183 183 4.5049955050895703
184 183 -0.74659906603319803
198 183 -1.5696372383048314
199 183 0.066684456307053303
184 184 4.5209135217117336
185 184 -0.75354550375603657
199 184 -1.575940765434225
200 184 0.072486616542342175
185 185 4.5400480504121603
186 185 -0.76181469369414323
200 185 -1.5834902863450406
201 185 0.079395102101952247
186 186 4.5634718846960975
187 186 -0.77182440728148805
201 186 -1.5926929891617034
202 186 0.087759843353273609
187 187 4.5927890446209814
188 187 -0.78418915925489474
202 187 -1.6041538744678576
203 187 0.098095836702320444
188 188 4.6305063308344145
189 188 -0.79985157681044683
203 188 -1.6188116149371652
204 188 0.11119356843864087
189 189 4.6807639536023684
190 189 -0.8203353735781691
204 189 -1.6382034207618887
205 189 0.1283318760155932
190 190 4.7509032813896406
191 190 -0.84827542788603472
205 190 -1.665027709090775
206 190 0.15172457211396542
191 191 4.8552397665430673
192 191 -0.88865908086064538
206 191 -1.704482215136264
207 191 0.18556819856559112
192 192 5.0257083551330179
193 192 -0.95221758939375356
207 192 -1.7679851616099318
208 192 0.23891205303123286
193 193 5.1218316083012541
194 193 -1.8862828285343936
208 193 -1.8862828285343936
209 193 0.26847476391756014
194 194 4.9330211556512742
195 194 -1.6974723758844132
209 194 -0.93288130902061006
210 194 0.20135607293817009
195 195 4.594817198199749
210 195 -0.79864392706182974
196 196 4.4281919853647445
197 196 -0.71258670257903045
211 196 -1.5345282632150656
212 196 0.034489595690516447
197 197 4.4354243220747591
198 197 -0.71598442774619409
212 197 -1.5370856082177555
213 197 0.037045509424409415
198 198 4.4438452212404744
199 198 -0.71992528351037688
213 198 -1.5400514611706542
214 198 0.040010673784232023
199 199 4.4537725253799056
200 199 -0.72455085713909972
214 199 -1.5435320455286621
215 199 0.043491969925405251
200 200 4.4656479704303669
201 200 -0.7300566528533623
215 200 -1.5476738518963773
216 200 0.047637061261171287
201 201 4.4801037929933418
202 201 -0.7367204699401787
216 201 -1.5526846891520143
217 201 0.052655906011964203
202 202 4.4980772911013496
203 202 -0.74495082457396666
217 202 -1.5588694674940122
218 202 0.058857502021392318
203 203 4.5210189292276866
204 203 -0.75537414943499037
218 203 -1.5666943180470698
219 203 0.06671614106318452
204 204 4.5512966874008534
205 204 -0.7690026231719318
219 204 -1.5769091880800388
220 204 0.076999125609355901
205 205 4.5930515662730178
206 205 -0.78758559904044856
220 205 -1.5908022542538343
221 205 0.091034743268379265
206 206 4.6542218425326505
207 206 -0.81443180143440896
221 206 -1.6107877181748491
222 206 0.1113409191393547
207 207 4.752135169968474
208 207 -0.85665276818126046
222 207 -1.6419808691272035
223 207 0.14334723181873973
208 208 4.9330211556512742
209 208 -0.93288130902061006
223 208 -1.6974723758844132
224 208 0.20135607293817009
209 209 5.0199194027589842
210 209 -1.8245862341481551
224 209 -1.8245862341481551
225 209 0.22654091966098647
210 210 4.7611003576564626
225 210 -0.88672954016950678
211 211 4.3793088934973303
212 211 -0.68959363878535274
226 211 -1.5108292457831056
227 211 0.011496531896838816
212 212 4.3827094275203917
213 212 -0.6912874214632545
227 212 -1.5115808578860146
228 212 0.012348503141469796
213 213 4.3866523965528614
214 213 -0.69325150098755539
228 213 -1.5124444136172173
229 213 0.013336891261410683
214 214 4.3912786420894792
215 214 -0.69555621052216265
229 214 -1.5134468821437987
230 214 0.014497323308468427
215 215 4.3967823126175061
216 215 -0.69829861201258159
230 215 -1.5146246285321809
231 215 0.015879020420390445
216 216 4.4034386846573401
217 216 -0.70161653259886925
231 216 -1.5160278808257015
232 216 0.017551968670654738
217 217 4.4116514167255998
218 217 -0.70571248989303847
232 217 -1.5177280000921078
233 217 0.019619167340464112
218 218 4.4220371432740322
219 218 -0.71089672205953414
233 218 -1.5198298289835104
234 218 0.022238713687728166
219 219 4.4355870228749685
220 219 -0.71766987276569449
234 219 -1.5224937562360041
235 219 0.025666375203118638
220 220 4.4540014620418784
221 220 -0.7268957701948624
235 220 -1.5259776048596361
236 220 0.030344914422793089
221 221 4.4804617786974061
222 221 -0.74020452200817255
236 221 -1.5307221513010203
237 221 0.037113639713118221
222 222 4.5216911852021058
223 222 -0.76108794696876725
237 222 -1.5375411768435634
238 222 0.047782410606246585
223 223 4.594817198199749
224 223 -0.79864392706182974
238 223 -1.5480788710828688
239 223 0.067118690979389994
224 224 4.7611003576564626
225 224 -0.88672954016950678
239 224 -1.5657671890456346
240 224 0.11327045983049321
225 225 4.6957225264412576
240 225 -1.5744021828816155
226 226 4.3333959156369035
227 226 -0.66660057499167513
241 226 -1.4886152853546397
242 226 -0.011496531896838861
227 227 4.3334053207477936
228 227 -0.66659041518031481
242 227 -1.4877815014451583
243 227 -0.012348503141469822
228 228 4.3334170310267286
229 228 -0.66657771846473413
243 228 -1.4868160956445211
244 228 -0.013336891261410657
229 229 4.3334318718404523
230 229 -0.66656156390522592
244 229 -1.4856852752796355
245 229 -0.014497323308468398
230 230 4.3334510769735806
231 230 -0.66654057117180066
245 230 -1.4843426162524511
246 230 -0.015879020420390459
231 231 4.3334765596880924
232 231 -0.66651259525755968
246 231 -1.4827225641827657
247 231 -0.017551968670654727
232 232 4.333511421493732
233 232 -0.66647415521211018
247 232 -1.4807294722621445
248 232 -0.019619167340464146
233 233 4.3335609729734497
234 233 -0.66641929468407779
248 233 -1.4782181477464866
249 233 -0.022238713687728135
234 234 4.3336349600247148
235 234 -0.66633712235945719
249 234 -1.4749571252297851
250 234 -0.02566637520311869
235 235 4.3337529686962242
236 235 -0.66620594134927635
250 235 -1.4705537609081802
251 235 -0.030344914422793145
236 236 4.3339595750373352
237 236 -0.66597724258193614
251 236 -1.4642855145147777
252 236 -0.037113639713118166
237 237 4.3343764008339125
238 237 -0.66552312575627415
252 237 -1.4546660847590107
253 237 -0.047782410606246564
238 238 4.3354471364450964
239 238 -0.66440654510304964
253 238 -1.4381023141297606
254 238 -0.067118690979390022
239 239 4.3399837297481572
240 239 -0.66018862050852034
254 239 -1.4034696062398495
255 239 -0.11327045983049321
240 240 4.5355339059327378
255 240 -1.4142135623730951
241 241 4.2904530517834667
242 241 -0.64360751119799731
272 241 -1.4678863819296684
273 241 -0.034489595690516503
242 242 4.2875120017569657
243 242 -0.64189340889737512
273 242 -1.4656875388951864
274 242 -0.037045509424409331
243 243 4.2841391246620768
244 243 -0.63990393594191297
274 243 -1.4631665072525659
275 243 -0.040010673784232065
244 244 4.280232214632826
245 244 -0.63756691728828896
275 244 -1.4602472249361724
276 244 -0.043491969925405286
245 245 4.2756542634985877
246 245 -0.63478253033101972
276 245 -1.4568278150571885
277 245 -0.047637061261171301
246 246 4.270217418085597
247 246 -0.63140865791625034
277 246 -1.452768739223206
278 246 -0.052655906011964196
247 247 4.2636573054057463
248 247 -0.62723582053118199
278 247 -1.4478738840041223
279 247 -0.058857502021392359
248 248 4.2555904183259381
249 248 -0.62194186730862144
279 248 -1.4418592743359997
280 248 -0.06671614106318452
249 249 4.2454404988500913
250 249 -0.61500437195321989
280 249 -1.4342992950613809
281 249 -0.076999125609355956
250 250 4.232306086236056
251 250 -0.60551611250369008
281 250 -1.4245307223994674
282 250 -0.091034743268379265
251 251 4.2147152315524368
252 251 -0.59174996315569961
282 251 -1.4114778078161216
283 251 -0.11134091913935459
252 252 4.1901908168638951
253 252 -0.56995830454378082
283 252 -1.3933555928735459
284 252 -0.14334723181873971
253 253 4.1549109703873164
254 253 -0.53016916314426965
284 253 -1.3675427050250892
285 253 -0.20135607293817004
254 254 4.1133968321598449
255 254 -0.58876004907994894
285 254 -1.2850831976801282
286 254 -0.23879612503625849
255 255 4.2324881425670755
256 255 -1.4142135623730951
286 255 -0.58876004907994883
287 255 -0.11327045983049322
256 256 4.5355339059327378
257 256 -1.5744021828816155
287 256 -0.66018862050852034
288 256 0.11327045983049326
257 257 4.6957225264412568
258 257 -0.886729540169507
288 257 -0.886729540169507
289 257 0.22654091966098647
258 258 4.7611003576564643
259 258 -0.79864392706182974
289 258 -1.8245862341481556
290 258 0.20135607293817015
259 259 4.594817198199749
260 259 -0.76108794696876725
290 259 -1.697472375884413
291 259 0.14334723181873976
260 260 4.5216911852021058
261 260 -0.74020452200817255
291 260 -1.6419808691272035
292 260 0.11134091913935462
261 261 4.480461778697407
262 261 -0.72689577019486251
292 261 -1.6107877181748491
293 261 0.091034743268379209
262 262 4.4540014620418784
263 262 -0.71766987276569449
293 262 -1.590802254253834
294 262 0.076999125609355887
263 263 4.4355870228749685
264 263 -0.71089672205953391
294 263 -1.5769091880800388
295 263 0.066716141063184464
264 264 4.4220371432740322
265 264 -0.70571248989303836
295 264 -1.5666943180470698
296 264 0.058857502021392352
265 265 4.4116514167255998
266 265 -0.70161653259886925
296 265 -1.5588694674940125
297 265 0.052655906011964237
266 266 4.4034386846573401
267 266 -0.69829861201258148
297 266 -1.5526846891520143
298 266 0.047637061261171357
267 267 4.396782312617507
268 267 -0.69555621052216265
298 267 -1.5476738518963773
299 267 0.04349196992540532
268 268 4.3912786420894792
269 268 -0.6932515009875555
299 268 -1.5435320455286621
300 268 0.04001067378423203
269 269 4.3866523965528605
270 269 -0.6912874214632545
300 269 -1.5400514611706542
301 269 0.037045509424409422
270 270 4.3827094275203917
271 270 -0.68959363878535274
301 270 -1.5370856082177558
302 270 0.034489595690516475
271 271 4.3793088934973303
302 271 -1.5345282632150656
272 272 4.2504803019370172
273 272 -0.62061444740431981
303 272 -1.4486425355081911
304 272 -0.057482659484194107
273 273 4.245029470547907
274 273 -0.61719640261443565
304 273 -1.4452989702360992
305 273 -0.061742515707349066
274 274 4.2388186774589069
275 274 -0.61323015341909137
305 274 -1.4414956484413508
306 274 -0.06668445630705333
275 275 4.2316796704665993
276 275 -0.60857227067135211
306 275 -1.4371327311134086
307 275 -0.072486616542342258
276 276 4.2233918721925292
277 276 -0.60302448949023879
307 276 -1.4320802249463926
308 276 -0.079395102101952317
277 277 4.2136612598498537
278 277 -0.59630472057494077
308 277 -1.4261664059470234
309 277 -0.087759843353273595
278 278 4.2020890684616434
279 278 -0.5879974858502538
309 278 -1.4191612353180409
310 278 -0.098095836702320527
279 279 4.1881254793314993
280 279 -0.57746443993316499
310 279 -1.4107532087520482
311 279 -0.11119356843864087
280 280 4.1710036393510981
281 280 -0.56367162154698269
311 280 -1.4005202657307922
312 280 -0.12833187601559326
281 281 4.1496608146613729
282 281 -0.54482628365810393
312 281 -1.3879084893334974
313 281 -0.15172457211396537
282 282 4.1227287482427109
283 282 -0.5175226837294632
313 282 -1.3722990312050518
314 282 -0.18556819856559104
283 283 4.0891344332920534
284 283 -0.47439348333128784
314 283 -1.3536097011871688
315 283 -0.23891205303123281
284 284 4.0378903695239448
285 284 -0.51987359621189011
315 284 -1.2434041141293888
316 284 -0.2893292390075487
285 285 4.0126257336603768
286 285 -1.2850831976801282
316 285 -0.51987359621189011
317 285 -0.20135607293817004
286 286 4.1133968321598449
287 286 -1.4034696062398495
317 286 -0.53016916314426976
318 286 -0.067118690979390008
287 287 4.339983729748158
288 287 -1.5657671890456344
318 287 -0.66440654510304964
319 287 0.067118690979389994
288 288 4.7611003576564634
289 288 -1.8245862341481556
319 288 -0.79864392706182974
320 288 0.20135607293817015
289 289 5.0199194027589851
290 289 -0.93288130902061028
320 289 -0.93288130902061028
321 289 0.26847476391756009
290 290 4.9330211556512751
291 290 -0.85665276818126046
321 290 -1.8862828285343936
322 290 0.23891205303123286
291 291 4.752135169968474
292 291 -0.81443180143440908
322 291 -1.7679851616099318
323 291 0.18556819856559109
292 292 4.6542218425326514
293 292 -0.78758559904044856
323 292 -1.7044822151362644
324 292 0.15172457211396534
293 293 4.5930515662730169
294 293 -0.7690026231719318
324 293 -1.6650277090907752
325 293 0.12833187601559323
294 294 4.5512966874008534
295 294 -0.75537414943499037
325 294 -1.6382034207618887
326 294 0.11119356843864087
295 295 4.5210189292276866
296 295 -0.74495082457396644
326 295 -1.6188116149371652
327 295 0.098095836702320471
296 296 4.4980772911013496
297 296 -0.73672046994017859
327 296 -1.6041538744678576
328 296 0.087759843353273664
297 297 4.4801037929933427
298 297 -0.7300566528533623
328 297 -1.5926929891617037
329 297 0.079395102101952303
298 298 4.465647970430366
299 298 -0.72455085713909961
329 298 -1.5834902863450406
330 298 0.072486616542342217
299 299 4.4537725253799048
300 299 -0.71992528351037677
330 299 -1.575940765434225
331 299 0.066684456307053303
300 300 4.4438452212404744
301 300 -0.71598442774619397
331 300 -1.5696372383048312
332 300 0.061742515707349066
301 301 4.4354243220747582
302 301 -0.71258670257903045
332 301 -1.5642957524403818
333 301 0.057482659484194142
302 302 4.4281919853647445
333 302 -1.5597123376505198
303 303 4.2134776660975586
304 303 -0.5976213836106421
334 303 -1.4308837460902093
335 303 -0.080475723277871725
304 304 4.2059577271206177
305 304 -0.59249939633149595
335 304 -1.4266157954678973
336 304 -0.086439521990288648
305 305 4.1974556894172164
306 305 -0.58655637089627022
336 305 -1.421803519210876
337 305 -0.093358238829874707
306 306 4.1877742393417732
307 306 -0.57957762405441526
337 306 -1.4163417938113467
338 306 -0.10148126315927913
307 307 4.1766639030554042
308 307 -0.57126644864945786
338 307 -1.4100998459200631
339 307 -0.11115314294273315
308 308 4.1638080849808645
309 308 -0.56120078323363154
339 308 -1.4029155643542164
340 308 -0.12286378069458306
309 309 4.1488067106614217
310 309 -0.5487591511693255
340 309 -1.394591526203901
341 309 -0.13733417138324872
310 310 4.131166155990134
311 310 -0.53298701255770875
341 310 -1.3848999509946336
342 310 -0.15567099581409719
311 311 4.1103243815277368
312 311 -0.51233887114074539
342 311 -1.3736200372380192
343 311 -0.17966462642183056
312 312 4.0858171539721742
313 312 -0.48413645481251777
343 312 -1.3606870617102689
344 312 -0.21241440095955161
313 313 4.0580001251081574
314 313 -0.44329540430322678
344 313 -1.3467491846815682
345 313 -0.25979547799182745
314 314 4.008503467035645
315 314 -0.49049081869676237
345 314 -1.2231700911266752
346 314 -0.31236925315622122
315 315 3.9456139717147685
316 315 -1.2434041141293888
346 315 -0.49049081869676231
347 315 -0.23891205303123278
316 316 4.0378903695239448
317 316 -1.3675427050250892
347 316 -0.47439348333128784
348 316 -0.14334723181873971
317 317 4.1549109703873173
318 317 -1.4381023141297606
348 317 -0.56995830454378094
349 317 -0.047782410606246571
318 318 4.3354471364450964
319 318 -1.5480788710828688
349 318 -0.66552312575627415
350 318 0.047782410606246599
319 319 4.594817198199749
320 319 -1.697472375884413
350 319 -0.76108794696876725
351 319 0.14334723181873976
320 320 4.9330211556512742
321 320 -1.8862828285343936
351 320 -0.85665276818126046
352 320 0.23891205303123286
321 321 5.1218316083012549
322 321 -0.95221758939375345
352 321 -0.95221758939375345
353 321 0.2866944636374793
322 322 5.0257083551330179
323 322 -0.88865908086064538
353 322 -1.9155540542917477
354 322 0.25979547799182745
323 323 4.8552397665430673
324 323 -0.84827542788603472
354 323 -1.8118056421852655
355 323 0.2124144009595515
324 324 4.7509032813896406
325 324 -0.82033537357816932
355 324 -1.7486539693704575
356 324 0.17966462642183048
325 325 4.6807639536023684
326 325 -0.79985157681044683
356 325 -1.7063764542815543
357 325 0.15567099581409721
326 326 4.6305063308344154
327 326 -0.78418915925489463
357 326 -1.6761817196537978
358 326 0.13733417138324874
327 327 4.5927890446209805
328 327 -0.77182440728148816
358 327 -1.6535812210136442
359 327 0.12286378069458306
328 328 4.5634718846960967
329 328 -0.76181469369414323
359 328 -1.6360527808547687
360 328 0.1111531429427331
329 329 4.5400480504121603
330 329 -0.75354550375603657
360 329 -1.6220739318781709
361 329 0.10148126315927905
330 330 4.5209135217117336
331 330 -0.74659906603319826
361 330 -1.6106730418604895
362 330 0.093358238829874679
331 331 4.5049955050895694
332 331 -0.74068143402913378
362 331 -1.6012017450197487
363 331 0.086439521990288662
332 332 4.4915500044108949
333 332 -0.73557976637270794
363 332 -1.5932112905538931
364 332 0.080475723277871725
333 333 4.4800451912391477
364 333 -1.5863814690894698
334 334 4.1794451442650891
335 334 -0.57462831981696449
365 334 -1.4146100136757216
366 334 -0.10346878707154913
335 335 4.1702967714750985
336 335 -0.56780239004855648
366 335 -1.4096380145905796
367 335 -0.1111365282732282
336 336 4.1600501605370086
337 336 -0.55988258837344862
367 336 -1.4040901195611419
368 336 -0.12003202135269633
337 337 4.1485159212583484
338 337 -0.55058297743747819
368 337 -1.3978744130299843
369 337 -0.13047590977621595
338 338 4.1354703560872137
339 338 -0.53950840780867715
369 338 -1.3908866779782021
370 338 -0.14291118378351375
339 339 4.1206578934786284
340 339 -0.52609684589232197
370 339 -1.3830162144447868
371 339 -0.15796771803589263
340 340 4.103810232005082
341 340 -0.50952081648839731
371 340 -1.3741647566617019
372 340 -0.17657250606417707
341 341 4.0847124483018407
342 341 -0.48850958518225229
372 341 -1.3642995010637549
373 341 -0.20014842318955356
342 342 4.0634027253800058
343 342 -0.4610061207345082
373 342 -1.3535986095830619
374 342 -0.23099737682806759
343 343 4.0407751041684605
344 343 -0.42344662596693161
374 343 -1.3428664395297831
375 343 -0.27310422980513788
344 344 3.9936748070376979
345 344 -0.47415493477826443
375 344 -1.2112960688928189
376 344 -0.32561359175856336
345 345 3.9142410077935343
346 345 -1.2231700911266752
376 345 -0.47415493477826443
377 345 -0.25979547799182751
346 346 4.008503467035645
347 346 -1.3536097011871688
377 346 -0.44329540430322684
378 346 -0.18556819856559112
347 347 4.0891344332920534
348 347 -1.3933555928735459
378 347 -0.51752268372946331
379 347 -0.1113409191393547
348 348 4.1901908168638951
349 348 -1.4546660847590107
379 348 -0.59174996315569972
380 348 -0.037113639713118214
349 349 4.3343764008339125
350 349 -1.5375411768435634
380 349 -0.66597724258193614
381 349 0.037113639713118207
350 350 4.5216911852021058
351 350 -1.6419808691272035
381 350 -0.74020452200817255
382 350 0.11134091913935462
351 351 4.752135169968474
352 351 -1.7679851616099318
382 351 -0.81443180143440908
383 351 0.18556819856559109
352 352 5.0257083551330179
353 352 -1.9155540542917477
383 352 -0.88865908086064538
384 352 0.25979547799182745
353 353 5.1732772478148341
354 353 -0.96288636028688201
384 353 -0.96288636028688201
385 353 0.29690911770494571
354 354 5.0835155507286567
355 354 -0.9089652567316211
385 354 -1.9327579993218533
386 354 0.27310422980513782
355 355 4.9275566073917485
356 355 -0.87166812398440618
386 355 -1.8416810350928832
387 355 0.23099737682806754
356 356 4.8239888214795155
357 356 -0.84432900418590306
387 356 -1.7814282886390354
388 356 0.20014842318955353
357 357 4.7504993480942153
358 357 -0.82342749393582304
388 357 -1.7388046321969659
389 357 0.17657250606417696
358 358 4.6957866772844961
359 358 -0.80692834462279772
389 358 -1.7071515071313721
390 358 0.15796771803589268
359 359 4.6535429597656037
360 359 -0.79357273453492394
390 359 -1.6827640642312107
391 359 0.14291118378351375
360 360 4.6199825525628873
361 360 -0.7825401503729732
391 360 -1.6634247884957687
392 360 0.1304759097762159
361 361 4.5927016310849602
362 361 -0.77327284855601952
392 361 -1.6477288748074537
393 361 0.12003202135269631
362 362 4.5701032481001453
363 362 -0.76537844031207325
393 362 -1.6347449813154069
394 362 0.11113652827322829
363 363 4.5510864745288009
364 363 -0.75857283016638544
394 363 -1.6238322225582877
395 363 0.10346878707154913
364 364 4.5348685111205409
395 364 -1.6145356575319134
365 365 4.1483827364396069
366 365 -0.55163525602328711
396 365 -1.3998213382647267
397 365 -0.12646185086522685
366 366 4.1380466036113486
367 366 -0.54310538376561679
397 366 -1.3943656276041478
398 366 -0.13583353455616801
367 367 4.126602090818281
368 367 -0.53320880585062724
398 367 -1.3883554494921495
399 367 -0.1467058038755174
368 368 4.1139047162163225
369 368 -0.52158833082054146
399 368 -1.3817305887693201
400 368 -0.15947055639315294
369 369 4.0998112312879549
370 369 -0.50775036696789622
400 369 -1.3744407211208052
401 369 -0.17466922462429471
370 370 4.0842106853431455
371 370 -0.49099290855101241
401 370 -1.3664683562187347
402 370 -0.19307165537720211
371 371 4.0670996324926252
372 371 -0.47028248180746912
402 371 -1.357880926691444
403 371 -0.2158108407451052
372 372 4.0487643562666182
373 372 -0.444032157806796
403 372 -1.3489518589594107
404 372 -0.24462585056500999
373 373 4.0302386709079059
374 373 -0.40967337032827089
404 373 -1.3404559827659184
405 373 -0.28233012723430495
374 374 3.9850205087047046
375 374 -0.46374611185728282
405 374 -1.2035121611420985
406 374 -0.33422504901920136
375 375 3.8962928211104795
376 375 -1.2112960688928189
406 375 -0.46374611185728276
407 375 -0.27310422980513788
376 376 3.9936748070376979
377 376 -1.346749184681568
407 376 -0.42344662596693161
408 376 -0.21241440095955158
377 377 4.0580001251081574
378 377 -1.3722990312050516
408 377 -0.48413645481251782
409 377 -0.15172457211396545
378 378 4.1227287482427109
379 378 -1.4114778078161216
409 378 -0.54482628365810393
410 378 -0.091034743268379292
379 379 4.2147152315524368
380 379 -1.4642855145147777
410 379 -0.60551611250369008
411 379 -0.030344914422793086
380 380 4.3339595750373352
381 380 -1.5307221513010203
411 380 -0.66620594134927635
412 380 0.030344914422793062
381 381 4.480461778697407
382 381 -1.6107877181748491
412 381 -0.72689577019486251
413 381 0.091034743268379209
382 382 4.6542218425326514
383 382 -1.7044822151362644
413 382 -0.78758559904044856
414 382 0.15172457211396534
383 383 4.8552397665430682
384 383 -1.8118056421852655
414 383 -0.84827542788603472
415 383 0.2124144009595515
384 384 5.0835155507286576
385 384 -1.9327579993218533
415 384 -0.9089652567316211
416 384 0.27310422980513782
385 385 5.2044679078652436
386 385 -0.96965508557720703
416 385 -0.96965508557720703
417 385 0.3034491442279309
386 386 5.1230115442793442
387 386 -0.92300087439064349
417 386 -1.9441089062580534
418 386 0.28233012723430495
387 387 4.980971291032291
388 387 -0.88880643156135941
418 387 -1.8633589238343298
419 387 0.24462585056500991
388 388 4.880997981007086
389 388 -0.86266582861675123
419 388 -1.8066803525666686
420 388 0.21581084074510515
389 389 4.8070701890918928
390 389 -0.84203228196410718
420 389 -1.7648647328210409
421 389 0.19307165537720211
390 390 4.7503170182018666
391 390 -0.82533077537570465
421 390 -1.7328268392910311
422 390 0.17466922462429468
391 391 4.7054514768825477
392 391 -0.81153479698991027
422 391 -1.707542856197831
423 391 0.15947055639315294
392 392 4.6691368534995874
393 392 -0.79994663107884101
423 392 -1.6871082642751158
424 392 0.1467058038755174
393 393 4.6391684502722033
394 393 -0.79007544659501305
424 393 -1.6702669471918066
425 393 0.13583353455616803
394 394 4.6140337324284779
395 394 -0.78156589396006315
425 394 -1.6561585484535688
426 394 0.12646185086522682
395 395 4.5926619450089214
426 395 -1.6441749029778499
396 396 4.1202904426211138
397 396 -0.52864219222960929
427 396 -1.3865177198572289
428 396 -0.1494549146589047
397 397 4.109207223529368
398 397 -0.5184083774826771
428 397 -1.3807986345085999
429 397 -0.16053054083910745
398 398 4.0971114802610344
399 398 -0.50653502332780631
429 398 -1.3745995090038949
430 398 -0.17337958639833873
399 399 4.083940624215697
400 399 -0.49259368420360483
430 399 -1.3679103210293593
431 399 -0.18846520301008962
400 400 4.0696865286576305
401 400 -0.47599232612711545
431 400 -1.3607619753478764
432 400 -0.20642726546507589
401 401 4.0544664605744147
402 401 -0.45588897120970295
432 401 -1.3532719896760557
433 401 -0.22817559271851162
402 402 4.0386749121240504
403 402 -0.43104414712654077
433 402 -1.3457400362931271
434 402 -0.2550491754260335
403 403 4.0233218798844685
404 403 -0.39955473043133971
434 403 -1.3388570246816063
435 403 -0.28910327794046609
404 404 3.9794683352039373
405 404 -0.45653153577714412
435 404 -1.1980245540894636
436 404 -0.34027568157506161
405 405 3.8847476483070955
406 405 -1.2035121611420985
436 405 -0.45653153577714406
437 405 -0.28233012723430501
406 406 3.9850205087047041
407 406 -1.3428664395297831
437 406 -0.40967337032827089
438 406 -0.23099737682806762
407 407 4.0407751041684596
408 407 -1.3606870617102684
438 407 -0.4610061207345082
439 407 -0.17966462642183056
408 408 4.0858171539721733
409 408 -1.3879084893334972
439 408 -0.51233887114074539
440 408 -0.12833187601559332
409 409 4.149660814661372
410 409 -1.4245307223994672
440 409 -0.56367162154698258
441 409 -0.076999125609355928
410 410 4.232306086236056
411 410 -1.4705537609081802
441 410 -0.61500437195321989
442 410 -0.025666375203118638
411 411 4.3337529686962242
412 411 -1.5259776048596361
442 411 -0.66633712235945719
443 411 0.025666375203118593
412 412 4.4540014620418784
413 412 -1.590802254253834
443 412 -0.71766987276569449
444 412 0.076999125609355887
413 413 4.5930515662730169
414 413 -1.6650277090907752
444 413 -0.7690026231719318
445 413 0.12833187601559323
414 414 4.7509032813896406
415 414 -1.7486539693704575
445 414 -0.82033537357816932
446 414 0.17966462642183048
415 415 4.9275566073917485
416 415 -1.8416810350928832
446 415 -0.87166812398440618
447 415 0.23099737682806754
416 416 5.1230115442793442
417 416 -1.9441089062580534
447 416 -0.92300087439064349
448 416 0.28233012723430495
417 417 5.2254394154445141
418 417 -0.97433362479688079
448 417 -0.97433362479688079
449 417 0.30799650243742382
418 418 5.1517113622606958
419 418 -0.93328385893681554
449 418 -1.9521683598674411
450 418 0.28910327794046597
419 419 5.0220022295730313
420 419 -0.90190416329767953
450 419 -1.8798088807629112
451 419 0.25504917542603345
420 420 4.9266395800431715
421 420 -0.87713621930541663
451 420 -1.8267208980826508
452 420 0.22817559271851168
421 421 4.8537940600048808
422 421 -0.85708881621648603
452 421 -1.7862411060342245
453 421 0.20642726546507589
422 422 4.7964548233711408
423 422 -0.84052944360684734
453 422 -1.7544281349843618
454 422 0.18846520301008962
423 423 4.7502191889556151
424 423 -0.82662041360166227
454 423 -1.7288112102634821
455 423 0.17337958639833867
424 424 4.7121911116057396
425 424 -0.81477245287795252
455 424 -1.707767642648943
456 424 0.16053054083910745
425 425 4.6803917781099242
426 425 -0.80455895775374076
456 425 -1.6901902682397343
457 425 0.1494549146589047
426 426 4.6534254929042929
457 426 -1.6752992054272839
427 427 4.0951682628096107
428 427 -0.50564912843593135
458 427 -1.3746991584532244
459 427 -0.17244797845258225
428 428 4.0837786312291575
429 428 -0.49371137119973763
459 428 -1.3689370353039365
460 428 -0.18522754712204681
429 429 4.0715783288652689
430 429 -0.4798612408049846
460 429 -1.362822298096384
461 429 -0.20005336892116032
430 430 4.058623645256473
431 430 -0.46359903758666776
461 430 -1.356413609810097
462 430 -0.21745984962702633
431 431 4.0450962481962414
432 431 -0.44423428528633435
462 431 -1.3498504406594165
463 431 -0.23818530630585666
432 432 4.031425219172438
433 432 -0.42078503386839344
463 432 -1.3434271148167576
464 432 -0.26327953005982119
433 433 4.0185360708993576
434 433 -0.39180581244561252
464 433 -1.3377420854667512
465 433 -0.29428751010696186
434 434 3.9756601991512586
435 434 -0.45123558644385076
465 434 -1.1939516026173771
466 434 -0.34476099753677836
435 435 3.8767268369475607
436 435 -1.1980245540894634
466 435 -0.45123558644385076
467 435 -0.28910327794046597
436 436 3.9794683352039373
437 436 -1.3404559827659179
467 436 -0.39955473043133971
468 436 -0.24462585056500996
437 437 4.0302386709079059
438 437 -1.3535986095830619
468 437 -0.44403215780679595
469 437 -0.20014842318955356
438 438 4.0634027253800067
439 438 -1.3736200372380192
469 438 -0.48850958518225229
470 438 -0.15567099581409727
439 439 4.1103243815277377
440 439 -1.4005202657307927
470 439 -0.53298701255770875
471 439 -0.11119356843864092
440 440 4.171003639351099
441 440 -1.4342992950613809
471 440 -0.57746443993316499
472 440 -0.066716141063184506
441 441 4.2454404988500913
442 441 -1.4749571252297851
472 441 -0.62194186730862144
473 441 -0.02223871368772817
442 442 4.3336349600247148
443 442 -1.5224937562360041
473 442 -0.66641929468407779
474 442 0.022238713687728132
443 443 4.4355870228749694
444 443 -1.5769091880800388
474 443 -0.71089672205953391
475 443 0.066716141063184464
444 444 4.5512966874008534
445 444 -1.6382034207618887
475 444 -0.75537414943499037
476 444 0.11119356843864087
445 445 4.6807639536023693
446 445 -1.7063764542815543
476 445 -0.79985157681044683
477 445 0.15567099581409721
446 446 4.8239888214795155
447 446 -1.7814282886390354
477 446 -0.84432900418590306
478 446 0.20014842318955353
447 447 4.980971291032291
448 447 -1.8633589238343298
478 447 -0.88880643156135941
479 447 0.24462585056500991
448 448 5.1517113622606967
449 448 -1.9521683598674411
479 448 -0.93328385893681554
480 448 0.28910327794046597
449 449 5.240520798293808
450 449 -0.97776128631227155
480 449 -0.97776128631227155
481 449 0.31134199162819376
450 450 5.1735120937920476
451 450 -0.94114249797860794
481 450 -1.9581902167856844
482 450 0.29428751010696164
451 451 5.0544948501383322
452 451 -0.91224015664672631
482 451 -1.8927200029162017
483 451 0.26327953005982119
452 452 4.9639740851746481
453 452 -0.88884685705726696
483 452 -1.8430068644607984
484 452 0.23818530630585666
453 453 4.892992592028671
454 453 -0.86952409022378385
484 453 -1.8040806248553609
485 453 0.21745984962702622
454 454 4.835948637453046
455 454 -0.85329419612448376
485 454 -1.7728377127725459
486 454 0.20005336892116038
455 455 4.7891712321007587
456 455 -0.839469459160892
486 455 -1.7472470676868253
487 455 0.18522754712204687
456 456 4.7501606115731381
457 456 -0.82755202154741836
487 456 -1.7259273819167835
488 456 0.1724479784525822
457 457 4.7171591548066534
488 457 -1.7079085648802113
458 458 4.0730161970050958
459 458 -0.48265606464225386
489 458 -1.3643656540527132
490 458 -0.19544104224626013
459 459 4.0617608267107155
460 459 -0.46901436491679827
490 459 -1.3587808299901587
491 459 -0.20992455340498625
460 460 4.0500026366309845
461 460 -0.453187458282163
491 460 -1.3530238167696105
492 460 -0.22672715144398195
461 461 4.0379537793386486
462 461 -0.43460439096973075
492 461 -1.3472404551115347
493 461 -0.24645449624396332
462 462 4.0260403899037858
463 462 -0.4124762444455532
493 462 -1.3417061170554216
494 462 -0.26994334714663742
463 463 4.0150869611372162
464 463 -0.38568109652708382
494 463 -1.3369337316408343
495 463 -0.29838346740113042
464 464 3.9729149879500225
465 464 -0.44718238402438015
495 464 -1.1908105889361424
496 464 -0.34821930293584341
465 465 3.8708429934974382
466 465 -1.1939516026173771
496 465 -0.44718238402438015
497 465 -0.29428751010696186
466 466 3.9756601991512586
467 466 -1.3388570246816061
497 466 -0.39180581244561252
498 466 -0.25504917542603345
467 467 4.0233218798844685
468 467 -1.3489518589594107
498 467 -0.43104414712654082
499 467 -0.21581084074510515
468 468 4.0487643562666182
469 468 -1.3642995010637549
499 468 -0.47028248180746912
500 468 -0.17657250606417701
469 469 4.0847124483018407
470 469 -1.3848999509946336
500 469 -0.50952081648839731
501 469 -0.13733417138324872
470 470 4.131166155990134
471 470 -1.4107532087520482
501 470 -0.5487591511693255
502 470 -0.098095836702320471
471 471 4.1881254793314993
472 471 -1.4418592743359997
502 471 -0.5879974858502538
503 471 -0.058857502021392324
472 472 4.2555904183259381
473 472 -1.4782181477464866
503 472 -0.62723582053118188
504 472 -0.019619167340464108
473 473 4.3335609729734497
474 473 -1.5198298289835104
504 473 -0.66647415521211018
505 473 0.019619167340464101
474 474 4.4220371432740322
475 474 -1.5666943180470698
505 474 -0.70571248989303836
506 474 0.058857502021392352
475 475 4.5210189292276874
476 475 -1.6188116149371652
506 475 -0.74495082457396644
507 475 0.098095836702320471
476 476 4.6305063308344154
477 476 -1.6761817196537978
507 476 -0.78418915925489463
508 476 0.13733417138324874
477 477 4.7504993480942153
478 477 -1.7388046321969659
508 477 -0.82342749393582304
509 477 0.17657250606417696
478 478 4.8809979810070869
479 478 -1.8066803525666686
509 478 -0.86266582861675123
510 478 0.21581084074510515
479 479 5.0220022295730313
480 479 -1.8798088807629112
510 479 -0.90190416329767953
511 479 0.25504917542603345
480 480 5.1735120937920476
481 480 -1.9581902167856844
511 480 -0.94114249797860794
512 480 0.29428751010696164
481 481 5.2518934298148219
482 481 -0.98038083265953602
512 481 -0.98038083265953602
513 481 0.31390667744742567
482 482 5.1906359993773741
483 482 -0.94734409398803543
513 482 -1.9628620473216927
514 482 0.29838346740113031
483 483 5.0808570937111686
484 483 -0.920604897898047
514 483 -1.9031241145707469
515 483 0.26994334714663748
484 484 4.9950647828551329
485 484 -0.89851873684072014
515 484 -1.856500325810825
516 484 0.24645449624396326
485 485 4.9263251989918739
486 485 -0.87996797864730536
516 485 -1.8191877718023108
517 485 0.22672715144398198
486 486 4.8701088117572588
487 486 -0.86416646544383136
517 486 -1.7887052223054434
518 486 0.20992455340498628
487 487 4.823340232818123
488 487 -0.85054508534109619
518 487 -1.763369889484719
519 487 0.19544104224626008
488 488 4.7838629307160012
519 488 -1.7420029813366311
489 489 4.0538342452075717
490 489 -0.45966300084857625
520 489 -1.3555172066557004
521 489 -0.2184341060399374
490 490 4.0431538099740436
491 490 -0.44431735863385879
521 490 -1.3503300185672635
522 490 -0.23462155968792603
491 491 4.0323844035581811
492 491 -0.4265136757593414
522 491 -1.3452040650235806
523 491 -0.25340093396680352
492 492 4.0219310264622248
493 492 -0.40560974435279373
523 492 -1.3403908569336727
524 492 -0.27544914286090039
493 493 4.0125189537802637
494 493 -0.38071820360477276
524 493 -1.3363290045358935
525 493 -0.30170138798741786
494 494 3.9708583094235665
495 494 -0.44398026540450608
525 494 -1.1883154535922738
526 494 -0.35096730803454207
495 495 3.8663486434835579
496 495 -1.1908105889361424
526 495 -0.44398026540450614
527 495 -0.29838346740113042
496 496 3.9729149879500225
497 496 -1.3377420854667512
527 496 -0.38568109652708388
528 496 -0.26327953005982119
497 497 4.0185360708993576
498 497 -1.3457400362931271
528 497 -0.42078503386839344
529 497 -0.22817559271851162
498 498 4.0386749121240504
499 498 -1.3578809266914438
529 498 -0.45588897120970306
530 498 -0.19307165537720206
499 499 4.0670996324926252
500 499 -1.3741647566617019
530 499 -0.4909929085510123
531 499 -0.15796771803589266
500 500 4.103810232005082
501 500 -1.394591526203901
531 500 -0.52609684589232186
532 500 -0.12286378069458306
501 501 4.1488067106614217
502 501 -1.4191612353180409
532 501 -0.56120078323363143
533 501 -0.087759843353273609
502 502 4.2020890684616425
503 502 -1.4478738840041223
533 502 -0.59630472057494077
534 502 -0.052655906011964203
503 503 4.2636573054057463
504 503 -1.4807294722621445
534 503 -0.63140865791625034
535 503 -0.017551968670654738
504 504 4.3335114214937311
505 504 -1.5177280000921078
535 504 -0.66651259525755968
536 504 0.017551968670654727
505 505 4.4116514167255989
506 505 -1.5588694674940125
536 505 -0.70161653259886925
537 505 0.052655906011964237
506 506 4.4980772911013487
507 506 -1.6041538744678576
537 506 -0.73672046994017859
538 506 0.087759843353273664
507 507 4.5927890446209814
508 507 -1.6535812210136442
538 507 -0.77182440728148816
539 507 0.12286378069458306
508 508 4.6957866772844961
509 508 -1.7071515071313721
539 508 -0.80692834462279772
540 508 0.15796771803589268
509 509 4.8070701890918919
510 509 -1.7648647328210409
540 509 -0.84203228196410718
541 509 0.19307165537720211
510 510 4.9266395800431715
511 510 -1.8267208980826508
541 510 -0.87713621930541663
542 510 0.22817559271851168
511 511 5.0544948501383313
512 511 -1.8927200029162017
542 511 -0.91224015664672631
543 511 0.26327953005982119
512 512 5.1906359993773741
513 512 -1.9628620473216927
543 512 -0.94734409398803543
544 512 0.29838346740113031
513 513 5.2607780437828655
514 513 -0.98244803132934477
544 513 -0.98244803132934477
545 513 0.31593543607178493
514 514 5.2044430856144404
515 514 -0.95236293873882794
545 514 -1.9665928563640689
546 514 0.30170138798741786
515 515 5.1026713958505292
516 515 -0.92751338345765744
546 515 -1.9116872378507566
547 515 0.27544914286090039
516 516 5.0213488735721041
517 516 -0.90664176117012707
547 516 -1.8678613873527756
548 516 0.25340093396680363
517 517 4.9550038505752401
518 517 -0.88886347172677116
548 517 -1.8321421065048071
549 517 0.23462155968792608
518 518 4.8999306418448763
519 518 -0.87353814913477379
549 518 -1.8025177909435355
550 518 0.2184341060399374
519 519 4.8535368206323408
550 519 -1.7775824547965513
520 520 4.037622407417035
521 520 -0.43666993705489876
551 520 -1.3481538162621765
552 520 -0.2414271698336149
521 521 4.0279575810191428
522 521 -0.41962035235091877
552 521 -1.3435846010352581
553 521 -0.25931856597086583
522 522 4.0187236296468605
523 522 -0.39983989323652008
553 522 -1.3393630428582899
554 522 -0.28007471648962445
523 523 4.0105553866271997
524 523 -0.37661509773585738
554 523 -1.3358648152765094
555 523 -0.30444378947783701
524 524 3.9692694575636036
525 524 -0.44138655377434854
555 524 -1.1862860859756452
556 524 -0.35320357268095837
525 525 3.8628067907080808
526 525 -1.1883154535922742
556 525 -0.44138655377434854
557 525 -0.30170138798741786
526 526 3.9708583094235665
527 526 -1.3369337316408343
557 526 -0.38071820360477276
558 526 -0.26994334714663742
527 527 4.0150869611372162
528 527 -1.3434271148167576
558 527 -0.41247624444555314
559 527 -0.23818530630585666
528 528 4.0314252191724389
529 528 -1.3532719896760561
559 528 -0.44423428528633435
560 528 -0.20642726546507584
529 529 4.0544664605744147
530 529 -1.3664683562187347
560 529 -0.47599232612711545
561 529 -0.17466922462429468
530 530 4.0842106853431455
531 530 -1.3830162144447868
561 530 -0.50775036696789622
562 530 -0.14291118378351375
531 531 4.1206578934786284
532 531 -1.4029155643542164
562 531 -0.53950840780867715
563 531 -0.11115314294273315
532 532 4.1638080849808645
533 532 -1.4261664059470234
563 532 -0.57126644864945786
564 532 -0.07939510210195222
533 533 4.2136612598498546
534 533 -1.4527687392232063
564 533 -0.60302448949023868
565 533 -0.04763706126117128
534 534 4.2702174180855961
535 534 -1.4827225641827657
565 534 -0.63478253033101972
566 534 -0.015879020420390442
535 535 4.3334765596880924
536 535 -1.5160278808257017
566 535 -0.66654057117180066
567 535 0.015879020420390456
536 536 4.403438684657341
537 536 -1.5526846891520143
567 536 -0.69829861201258148
568 536 0.047637061261171357
537 537 4.4801037929933418
538 537 -1.5926929891617037
568 537 -0.7300566528533623
569 537 0.079395102101952303
538 538 4.5634718846960975
539 538 -1.6360527808547687
569 538 -0.76181469369414323
570 538 0.1111531429427331
539 539 4.6535429597656037
540 539 -1.6827640642312107
570 539 -0.79357273453492394
571 539 0.14291118378351375
540 540 4.7503170182018666
541 540 -1.7328268392910311
571 540 -0.82533077537570465
572 540 0.17466922462429468
541 541 4.8537940600048808
542 541 -1.7862411060342245
572 541 -0.85708881621648603
573 541 0.20642726546507589
542 542 4.963974085174649
543 542 -1.8430068644607984
573 542 -0.88884685705726696
574 542 0.23818530630585666
543 543 5.0808570937111686
544 543 -1.9031241145707469
574 543 -0.920604897898047
575 543 0.26994334714663748
544 544 5.2044430856144404
545 544 -1.9665928563640689
575 544 -0.95236293873882794
576 544 0.30170138798741786
545 545 5.2679118274077634
546 545 -0.98412097957960909
576 545 -0.98412097957960909
577 545 0.31758040840780782
546 546 5.2158124310148555
547 546 -0.95650803007459473
577 546 -1.96964136097515
578 546 0.30444378947783696
547 547 5.1210196611937313
548 547 -0.93331554369294834
578 547 -1.9188585594239378
579 547 0.28007471648962445
548 548 5.043856348554705
549 548 -0.91356047800971063
579 548 -1.8775577202849081
580 548 0.25931856597086583
549 549 4.9799318386534006
550 549 -0.89653121292845106
580 549 -1.8433710862932444
581 549 0.2414271698336149
550 550 4.9261808245556669
581 550 -1.8146469852599574
551 551 4.0243806836334857
552 551 -0.41367687326122121
582 551 -1.3422754828721497
583 551 -0.26442023362729317
552 552 4.0161721398460104
553 552 -0.39492334606797896
583 552 -1.3385445773941309
584 552 -0.28401557225380558
553 553 4.0090203148970183
554 553 -0.37316611071369948
584 553 -1.3355007502737397
585 553 -0.30674849901244511
554 554 3.9680109315330592
555 554 -0.43924285032291055
585 554 -1.1846035129447832
586 554 -0.35505892578553194
555 555 3.8599454515527851
556 555 -1.1862860859756452
586 555 -0.43924285032291061
587 555 -0.30444378947783701
556 556 3.9692694575636036
557 556 -1.3363290045358935
587 556 -0.37661509773585733
588 556 -0.27544914286090039
557 557 4.0125189537802628
558 557 -1.3417061170554216
588 557 -0.40560974435279373
589 557 -0.24645449624396334
558 558 4.0260403899037858
559 558 -1.3498504406594165
589 558 -0.43460439096973075
590 558 -0.21745984962702633
559 559 4.0450962481962414
560 559 -1.3607619753478764
590 559 -0.46359903758666776
591 559 -0.18846520301008962
560 560 4.0696865286576305
561 560 -1.3744407211208052
591 560 -0.49259368420360472
592 560 -0.159470556393153
561 561 4.0998112312879558
562 561 -1.3908866779782021
592 561 -0.52158833082054135
593 561 -0.13047590977621593
562 562 4.1354703560872137
563 562 -1.4100998459200633
593 562 -0.55058297743747819
594 562 -0.10148126315927908
563 563 4.1766639030554042
564 563 -1.4320802249463924
594 563 -0.57957762405441526
595 563 -0.072486616542342203
564 564 4.2233918721925292
565 564 -1.4568278150571885
595 564 -0.60857227067135211
596 564 -0.043491969925405327
565 565 4.2756542634985877
566 565 -1.4843426162524511
596 565 -0.63756691728828896
597 565 -0.014497323308468427
566 566 4.3334510769735806
567 566 -1.5146246285321807
597 566 -0.66656156390522592
598 566 0.01449732330846842
567 567 4.3967823126175061
568 567 -1.5476738518963773
598 567 -0.69555621052216265
599 567 0.04349196992540532
568 568 4.465647970430366
569 568 -1.5834902863450406
599 568 -0.72455085713909961
600 568 0.072486616542342217
569 569 4.5400480504121603
570 569 -1.6220739318781709
600 569 -0.75354550375603657
601 569 0.10148126315927905
570 570 4.6199825525628881
571 570 -1.6634247884957687
601 570 -0.7825401503729732
602 570 0.1304759097762159
571 571 4.7054514768825477
572 571 -1.707542856197831
602 571 -0.81153479698991027
603 571 0.15947055639315294
572 572 4.7964548233711426
573 572 -1.7544281349843618
603 572 -0.84052944360684734
604 572 0.18846520301008962
573 573 4.892992592028671
574 573 -1.8040806248553609
604 573 -0.86952409022378385
605 573 0.21745984962702622
574 574 4.9950647828551338
575 574 -1.856500325810825
605 574 -0.89851873684072014
606 574 0.24645449624396326
575 575 5.1026713958505292
576 575 -1.9116872378507566
606 575 -0.92751338345765744
607 575 0.27544914286090039
576 576 5.2158124310148555
577 576 -1.96964136097515
607 576 -0.95650803007459473
608 576 0.30444378947783696
577 577 5.2737665541392502
578 577 -0.98550267669153202
608 577 -0.98550267669153202
609 577 0.31894111278630521
578 578 5.2253375618567581
579 578 -0.95998932621576905
609 578 -1.9721792880158016
610 578 0.30674849901244505
579 579 5.1366663056956465
580 579 -0.93825748429265032
610 579 -1.9249520636457498
611 579 0.28401557225380553
580 580 5.0633438232436943
581 580 -0.91952427672212922
611 580 -1.88592977553383
612 580 0.26442023362729306
581 581 5.0017949424859793
612 581 -1.8531965727268631
582 582 4.0141090738569289
583 582 -0.390683809467543
613 582 -1.3378822064856206
614 582 -0.28741329742097071
583 583 4.0077974864546464
584 583 -0.37022633978503927
614 583 -1.335209947643895
615 583 -0.30871257853674533
584 584 3.9669931393061395
585 584 -0.43744136319816607
615 584 -1.1831860275145372
616 584 -0.35662308628085188
585 585 3.8575867503107886
586 585 -1.1846035129447832
616 585 -0.43744136319816596
617 585 -0.30674849901244516
586 586 3.9680109315330587
587 586 -1.3358648152765094
617 586 -0.37316611071369954
618 586 -0.28007471648962451
587 587 4.0105553866272006
588 587 -1.3403908569336727
618 587 -0.39983989323652008
619 587 -0.25340093396680358
588 588 4.0219310264622248
589 588 -1.3472404551115347
619 588 -0.4265136757593414
620 588 -0.22672715144398195
589 589 4.0379537793386486
590 589 -1.356413609810097
620 589 -0.453187458282163
621 589 -0.20005336892116032
590 590 4.058623645256473
591 590 -1.3679103210293593
621 590 -0.4798612408049846
622 590 -0.17337958639833867
591 591 4.0839406242156979
592 591 -1.3817305887693201
622 591 -0.50653502332780631
623 591 -0.14670580387551746
592 592 4.1139047162163216
593 592 -1.3978744130299843
623 592 -0.53320880585062724
624 592 -0.12003202135269628
593 593 4.1485159212583484
594 593 -1.4163417938113469
624 593 -0.55988258837344862
625 593 -0.093358238829874679
594 594 4.1877742393417732
595 594 -1.437132731113409
625 594 -0.58655637089627022
626 594 -0.066684456307053275
595 595 4.2316796704665993
596 595 -1.4602472249361722
626 595 -0.61323015341909159
627 595 -0.040010673784232079
596 596 4.2802322146328251
597 596 -1.4856852752796355
627 596 -0.63990393594191275
628 596 -0.013336891261410685
597 597 4.3334318718404514
598 597 -1.5134468821437985
628 597 -0.66657771846473413
629 597 0.013336891261410641
598 598 4.3912786420894792
599 598 -1.5435320455286621
629 598 -0.6932515009875555
630 598 0.04001067378423203
599 599 4.4537725253799048
600 599 -1.575940765434225
630 599 -0.71992528351037677
631 599 0.066684456307053303
600 600 4.5209135217117327
601 600 -1.6106730418604895
631 600 -0.74659906603319826
632 600 0.093358238829874679
601 601 4.5927016310849611
602 601 -1.6477288748074537
632 601 -0.77327284855601952
633 601 0.12003202135269631
602 602 4.6691368534995883
603 602 -1.6871082642751158
633 602 -0.79994663107884101
634 602 0.1467058038755174
603 603 4.7502191889556151
604 603 -1.7288112102634821
634 603 -0.82662041360166227
635 603 0.17337958639833867
604 604 4.835948637453046
605 604 -1.7728377127725459
635 604 -0.85329419612448376
636 604 0.20005336892116038
605 605 4.9263251989918739
606 605 -1.8191877718023108
636 605 -0.87996797864730536
637 605 0.22672715144398198
606 606 5.0213488735721041
607 606 -1.8678613873527756
637 606 -0.90664176117012707
638 606 0.25340093396680363
607 607 5.1210196611937313
608 607 -1.9188585594239378
638 607 -0.93331554369294834
639 607 0.28007471648962445
608 608 5.2253375618567581
609 608 -1.9721792880158016
639 608 -0.95998932621576905
640 608 0.30674849901244505
609 609 5.2786582904486226
610 609 -0.98666310873858976
640 609 -0.98666310873858976
641 609 0.32008539027385541
610 610 5.23343372199807
611 610 -0.96295449057559002
641 610 -1.9743251365873311
642 610 0.30871257853674539
611 611 5.1501665956157581
612 611 -0.94251734051580682
642 611 -1.9301938586653073
643 611 0.28741329742097066
612 612 5.0803791744232871
643 612 -1.8932312171972658
613 613 4.0068075780873587
614 613 -0.3676907456738655
644 613 -1.3349739871025799
645 613 -0.31040636121464826
614 614 3.9661554964322683
615 614 -0.4359061879423885
645 614 -1.1819756783477557
646 614 -0.35795963940339315
615 615 3.8556095879873422
616 615 -1.1831860275145374
646 615 -0.4359061879423885
647 615 -0.30871257853674527
616 616 3.9669931393061395
617 616 -1.3355007502737397
647 616 -0.37022633978503927
648 616 -0.28401557225380558
617 617 4.0090203148970183
618 617 -1.3393630428582899
648 617 -0.39492334606797896
649 617 -0.25931856597086578
618 618 4.0187236296468596
619 618 -1.3452040650235806
649 618 -0.41962035235091877
650 618 -0.23462155968792603
619 619 4.0323844035581811
620 619 -1.3530238167696105
650 619 -0.44431735863385879
651 619 -0.20992455340498628
620 620 4.0500026366309845
621 620 -1.362822298096384
651 620 -0.46901436491679827
652 620 -0.18522754712204681
621 621 4.071578328865268
622 621 -1.3745995090038949
652 621 -0.49371137119973763
653 621 -0.16053054083910742
622 622 4.0971114802610344
623 622 -1.3883554494921495
653 622 -0.5184083774826771
654 622 -0.13583353455616798
623 623 4.126602090818281
624 623 -1.4040901195611419
654 623 -0.54310538376561668
655 623 -0.11113652827322823
624 624 4.1600501605370077
625 624 -1.421803519210876
655 624 -0.56780239004855648
656 624 -0.086439521990288662
625 625 4.1974556894172173
626 625 -1.4414956484413506
656 625 -0.59249939633149595
657 625 -0.061742515707349094
626 626 4.2388186774589069
627 626 -1.4631665072525657
657 626 -0.61719640261443542
658 626 -0.037045509424409359
627 627 4.2841391246620768
628 627 -1.4868160956445211
658 627 -0.64189340889737512
659 627 -0.012348503141469796
628 628 4.3334170310267286
629 628 -1.5124444136172173
659 628 -0.66659041518031481
660 628 0.012348503141469847
629 629 4.3866523965528614
630 629 -1.5400514611706542
660 629 -0.6912874214632545
661 629 0.037045509424409422
630 630 4.4438452212404753
631 630 -1.5696372383048312
661 630 -0.71598442774619397
662 630 0.061742515707349066
631 631 4.5049955050895703
632 631 -1.6012017450197487
662 631 -0.74068143402913378
663 631 0.086439521990288662
632 632 4.5701032481001453
633 632 -1.6347449813154069
663 632 -0.76537844031207325
664 632 0.11113652827322829
633 633 4.6391684502722033
634 633 -1.6702669471918066
664 633 -0.79007544659501305
665 633 0.13583353455616803
634 634 4.7121911116057404
635 634 -1.707767642648943
665 634 -0.81477245287795252
666 634 0.16053054083910745
635 635 4.7891712321007596
636 635 -1.7472470676868253
666 635 -0.839469459160892
667 635 0.18522754712204687
636 636 4.8701088117572588
637 636 -1.7887052223054434
667 636 -0.86416646544383136
668 636 0.20992455340498628
637 637 4.955003850575241
638 637 -1.8321421065048071
668 637 -0.88886347172677116
669 637 0.23462155968792608
638 638 5.043856348554705
639 638 -1.8775577202849081
669 638 -0.91356047800971063
670 638 0.25931856597086583
639 639 5.1366663056956474
640 639 -1.9249520636457498
670 639 -0.93825748429265032
671 639 0.28401557225380553
640 640 5.23343372199807
641 640 -1.9743251365873311
671 640 -0.96295449057559002
672 640 0.30871257853674539
641 641 5.2828067949396518
642 641 -0.98765149685852982
672 641 -0.98765149685852982
673 641 0.3210610816782149
642 642 5.2404001557695903
643 642 -0.96551040430948432
673 642 -1.9761633356876627
674 642 0.31040636121464815
643 643 5.1619335203675796
674 643 -1.9347509186711562
644 644 3.9654557325180102
645 644 -0.43458232619702575
675 644 -1.1809302328170865
676 644 -0.35911490879067337
645 645 3.85392873151886
646 645 -1.1819756783477557
676 645 -0.43458232619702586
677 645 -0.31040636121464826
646 646 3.9661554964322683
647 646 -1.335209947643895
677 646 -0.3676907456738655
678 646 -0.28741329742097066
647 647 4.0077974864546464
648 647 -1.3385445773941309
678 647 -0.390683809467543
679 647 -0.26442023362729317
648 648 4.0161721398460095
649 648 -1.3435846010352581
679 648 -0.41367687326122121
680 648 -0.2414271698336149
649 649 4.0279575810191419
650 649 -1.3503300185672635
680 649 -0.4366699370548987
681 649 -0.21843410603993743
650 650 4.0431538099740436
651 650 -1.3587808299901589
681 650 -0.45966300084857625
682 650 -0.19544104224626013
651 651 4.0617608267107164
652 651 -1.368937035303937
682 651 -0.48265606464225386
683 651 -0.17244797845258225
652 652 4.0837786312291575
653 652 -1.3807986345085996
683 652 -0.50564912843593146
684 652 -0.1494549146589047
653 653 4.1092072235293688
654 653 -1.3943656276041478
684 653 -0.52864219222960918
685 653 -0.12646185086522685
654 654 4.1380466036113477
655 654 -1.4096380145905796
685 654 -0.55163525602328711
686 654 -0.10346878707154918
655 655 4.1702967714750985
656 655 -1.4266157954678977
686 655 -0.57462831981696461
687 655 -0.080475723277871725
656 656 4.2059577271206177
657 656 -1.4452989702360992
687 656 -0.5976213836106421
688 656 -0.057482659484194107
657 657 4.245029470547907
658 657 -1.4656875388951862
688 657 -0.62061444740431981
689 657 -0.034489595690516517
658 658 4.2875120017569648
659 658 -1.4877815014451583
689 658 -0.64360751119799731
690 658 -0.011496531896838812
659 659 4.3334053207477936
660 659 -1.5115808578860146
690 659 -0.66660057499167513
691 659 0.011496531896838772
660 660 4.3827094275203908
661 660 -1.5370856082177558
691 660 -0.68959363878535274
692 660 0.034489595690516475
661 661 4.4354243220747582
662 661 -1.5642957524403818
692 661 -0.71258670257903045
693 661 0.057482659484194142
662 662 4.4915500044108949
663 662 -1.5932112905538931
693 662 -0.73557976637270794
694 662 0.080475723277871725
663 663 4.5510864745288018
664 663 -1.6238322225582877
694 663 -0.75857283016638544
695 663 0.10346878707154913
664 664 4.6140337324284779
665 664 -1.6561585484535688
695 664 -0.78156589396006315
696 664 0.12646185086522682
665 665 4.6803917781099234
666 665 -1.6901902682397343
696 665 -0.80455895775374076
697 665 0.1494549146589047
666 666 4.750160611573139
667 666 -1.7259273819167835
697 666 -0.82755202154741836
698 666 0.1724479784525822
667 667 4.8233402328181239
668 667 -1.763369889484719
698 667 -0.85054508534109619
699 667 0.19544104224626008
668 668 4.8999306418448763
669 668 -1.8025177909435355
699 668 -0.87353814913477379
700 668 0.2184341060399374
669 669 4.9799318386533997
670 669 -1.8433710862932444
700 669 -0.89653121292845106
701 669 0.2414271698336149
670 670 5.0633438232436943
671 670 -1.88592977553383
701 670 -0.91952427672212922
702 670 0.26442023362729306
671 671 5.1501665956157581
672 671 -1.9301938586653073
702 671 -0.94251734051580682
703 671 0.28741329742097066
672 672 5.2404001557695903
673 672 -1.9761633356876627
703 672 -0.96551040430948432
704 672 0.31040636121464815
673 673 5.2863696327919474
674 673 -0.98850346810316181
704 673 -0.98850346810316181
705 673 0.32190289311148701
674 674 5.246457980318862
705 674 -1.9777556771485481
675 675 3.8524824888723055
676 675 -1.1809302328170865
676 676 3.9654557325180098
677 676 -1.3349739871025799
677 677 4.0068075780873587
678 677 -1.3378822064856206
678 678 4.0141090738569289
679 678 -1.3422754828721497
679 679 4.0243806836334848
680 679 -1.3481538162621765
680 680 4.037622407417035
681 680 -1.3555172066557009
681 681 4.0538342452075717
682 681 -1.3643656540527132
682 682 4.0730161970050958
683 682 -1.3746991584532244
683 683 4.0951682628096115
684 683 -1.3865177198572289
684 684 4.1202904426211138
685 684 -1.3998213382647267
685 685 4.1483827364396069
686 685 -1.4146100136757216
686 686 4.1794451442650891
687 686 -1.4308837460902093
687 687 4.2134776660975586
688 687 -1.4486425355081907
688 688 4.2504803019370172
689 688 -1.4678863819296686
689 689 4.2904530517834658
690 689 -1.4886152853546399
690 690 4.3333959156369044
691 690 -1.5108292457831056
691 691 4.3793088934973294
692 691 -1.5345282632150656
692 692 4.4281919853647445
693 692 -1.5597123376505198
693 693 4.4800451912391477
694 693 -1.5863814690894698
694 694 4.5348685111205409
695 694 -1.6145356575319134
695 695 4.5926619450089223
696 695 -1.6441749029778499
696 696 4.653425492904292
697 696 -1.6752992054272839
697 697 4.7171591548066534
698 697 -1.7079085648802113
698 698 4.7838629307160003
699 698 -1.7420029813366311
699 699 4.8535368206323408
700 699 -1.7775824547965513
700 700 4.9261808245556669
701 700 -1.8146469852599574
701 701 5.0017949424859793
702 701 -1.8531965727268631
702 702 5.0803791744232862
703 702 -1.8932312171972658
703 703 5.1619335203675796
704 703 -1.9347509186711562
704 704 5.246457980318862
705 704 -1.9777556771485481
705 705 5.2894627387962529
