%%MatrixMarket matrix coordinate real symmetric
% lshape_p2_n16 stiffness A[int,int], mesh=lshape_16 p=2, interior-restricted
% lower triangle only (row >= col); mirror for the full matrix
2945 2945 15575
1 1 2.666666666666667
2 1 -0.33333333333333337
16 1 -0.33333333333333337
706 1 0.16666666666666669
707 1 -0.083333333333333343
708 1 -0.16666666666666669
737 1 -0.083333333333333287
738 1 -0.16666666666666669
739 1 -0.083333333333333343
740 1 -0.083333333333333315
741 1 0.16666666666666669
743 1 -0.083333333333333343
786 1 -0.083333333333333329
2 2 2.666666666666667
3 2 -0.33333333333333337
17 2 -0.33333333333333337
707 2 -0.083333333333333343
708 2 0.16666666666666669
709 2 -0.083333333333333343
710 2 -0.16666666666666669
739 2 -0.083333333333333287
741 2 -0.16666666666666669
742 2 -0.083333333333333343
743 2 -0.083333333333333315
744 2 0.16666666666666669
746 2 -0.083333333333333343
789 2 -0.083333333333333329
3 3 2.666666666666667
4 3 -0.33333333333333337
18 3 -0.33333333333333337
709 3 -0.083333333333333343
710 3 0.16666666666666669
711 3 -0.083333333333333343
712 3 -0.16666666666666669
742 3 -0.083333333333333287
744 3 -0.16666666666666669
745 3 -0.083333333333333343
746 3 -0.083333333333333315
747 3 0.16666666666666669
749 3 -0.083333333333333343
792 3 -0.083333333333333329
4 4 2.666666666666667
5 4 -0.33333333333333337
19 4 -0.33333333333333337
711 4 -0.083333333333333343
712 4 0.16666666666666669
713 4 -0.083333333333333343
714 4 -0.16666666666666669
745 4 -0.083333333333333287
747 4 -0.16666666666666669
748 4 -0.083333333333333343
749 4 -0.083333333333333315
750 4 0.16666666666666669
752 4 -0.083333333333333343
795 4 -0.083333333333333329
5 5 2.666666666666667
6 5 -0.33333333333333337
20 5 -0.33333333333333337
713 5 -0.083333333333333343
714 5 0.16666666666666669
715 5 -0.083333333333333343
716 5 -0.16666666666666669
748 5 -0.083333333333333287
750 5 -0.16666666666666669
751 5 -0.083333333333333343
752 5 -0.083333333333333315
753 5 0.16666666666666669
755 5 -0.083333333333333343
798 5 -0.083333333333333329
6 6 2.666666666666667
7 6 -0.33333333333333337
21 6 -0.33333333333333337
715 6 -0.083333333333333343
716 6 0.16666666666666669
717 6 -0.083333333333333343
718 6 -0.16666666666666669
751 6 -0.083333333333333287
753 6 -0.16666666666666669
754 6 -0.083333333333333343
755 6 -0.083333333333333315
756 6 0.16666666666666669
758 6 -0.083333333333333343
801 6 -0.083333333333333329
7 7 2.666666666666667
8 7 -0.33333333333333337
22 7 -0.33333333333333337
717 7 -0.083333333333333343
718 7 0.16666666666666669
719 7 -0.083333333333333343
720 7 -0.16666666666666669
754 7 -0.083333333333333287
756 7 -0.16666666666666669
757 7 -0.083333333333333343
758 7 -0.083333333333333315
759 7 0.16666666666666669
761 7 -0.083333333333333343
804 7 -0.083333333333333329
8 8 2.666666666666667
9 8 -0.33333333333333337
23 8 -0.33333333333333337
719 8 -0.083333333333333343
720 8 0.16666666666666669
721 8 -0.083333333333333343
722 8 -0.16666666666666669
757 8 -0.083333333333333287
759 8 -0.16666666666666669
760 8 -0.083333333333333343
761 8 -0.083333333333333315
762 8 0.16666666666666669
764 8 -0.083333333333333343
807 8 -0.083333333333333329
9 9 2.666666666666667
10 9 -0.33333333333333337
24 9 -0.33333333333333337
721 9 -0.083333333333333343
722 9 0.16666666666666669
723 9 -0.083333333333333343
724 9 -0.16666666666666669
760 9 -0.083333333333333287
762 9 -0.16666666666666669
763 9 -0.083333333333333343
764 9 -0.083333333333333315
765 9 0.16666666666666669
767 9 -0.083333333333333343
810 9 -0.083333333333333329
10 10 2.666666666666667
11 10 -0.33333333333333337
25 10 -0.33333333333333337
723 10 -0.083333333333333343
724 10 0.16666666666666669
725 10 -0.083333333333333343
726 10 -0.16666666666666669
763 10 -0.083333333333333287
765 10 -0.16666666666666669
766 10 -0.083333333333333343
767 10 -0.083333333333333315
768 10 0.16666666666666669
770 10 -0.083333333333333343
813 10 -0.083333333333333329
11 11 2.666666666666667
12 11 -0.33333333333333337
26 11 -0.33333333333333337
725 11 -0.083333333333333343
726 11 0.16666666666666669
727 11 -0.083333333333333343
728 11 -0.16666666666666669
766 11 -0.083333333333333287
768 11 -0.16666666666666669
769 11 -0.083333333333333343
770 11 -0.083333333333333315
771 11 0.16666666666666669
773 11 -0.083333333333333343
816 11 -0.083333333333333329
12 12 2.666666666666667
13 12 -0.33333333333333337
27 12 -0.33333333333333337
727 12 -0.083333333333333343
728 12 0.16666666666666669
729 12 -0.083333333333333343
730 12 -0.16666666666666669
769 12 -0.083333333333333287
771 12 -0.16666666666666669
772 12 -0.083333333333333343
773 12 -0.083333333333333315
774 12 0.16666666666666669
776 12 -0.083333333333333343
819 12 -0.083333333333333329
13 13 2.666666666666667
14 13 -0.33333333333333337
28 13 -0.33333333333333337
729 13 -0.083333333333333343
730 13 0.16666666666666669
731 13 -0.083333333333333343
732 13 -0.16666666666666669
772 13 -0.083333333333333287
774 13 -0.16666666666666669
775 13 -0.083333333333333343
776 13 -0.083333333333333315
777 13 0.16666666666666669
779 13 -0.083333333333333343
822 13 -0.083333333333333329
14 14 2.666666666666667
15 14 -0.33333333333333337
29 14 -0.33333333333333337
731 14 -0.083333333333333343
732 14 0.16666666666666669
733 14 -0.083333333333333343
734 14 -0.16666666666666669
775 14 -0.083333333333333287
777 14 -0.16666666666666669
778 14 -0.083333333333333343
779 14 -0.083333333333333315
780 14 0.16666666666666669
782 14 -0.083333333333333343
825 14 -0.083333333333333329
15 15 2.666666666666667
30 15 -0.33333333333333337
733 15 -0.083333333333333343
734 15 0.16666666666666669
735 15 -0.083333333333333343
736 15 -0.16666666666666669
778 15 -0.083333333333333287
780 15 -0.16666666666666669
781 15 -0.083333333333333343
782 15 -0.083333333333333315
783 15 0.16666666666666669
828 15 -0.083333333333333329
16 16 2.666666666666667
17 16 -0.33333333333333337
31 16 -0.33333333333333337
737 16 -0.083333333333333343
738 16 0.16666666666666669
740 16 -0.083333333333333343
741 16 -0.16666666666666669
784 16 -0.083333333333333287
785 16 -0.16666666666666669
786 16 -0.083333333333333343
787 16 -0.083333333333333315
788 16 0.16666666666666669
790 16 -0.083333333333333343
833 16 -0.083333333333333329
17 17 2.666666666666667
18 17 -0.33333333333333337
32 17 -0.33333333333333337
739 17 -0.083333333333333343
740 17 -0.083333333333333343
741 17 0.16666666666666669
743 17 -0.083333333333333343
744 17 -0.16666666666666669
786 17 -0.083333333333333287
788 17 -0.16666666666666669
789 17 -0.083333333333333343
790 17 -0.083333333333333315
791 17 0.16666666666666669
793 17 -0.083333333333333343
836 17 -0.083333333333333329
18 18 2.666666666666667
19 18 -0.33333333333333337
33 18 -0.33333333333333337
742 18 -0.083333333333333343
743 18 -0.083333333333333343
744 18 0.16666666666666669
746 18 -0.083333333333333343
747 18 -0.16666666666666669
789 18 -0.083333333333333287
791 18 -0.16666666666666669
792 18 -0.083333333333333343
793 18 -0.083333333333333315
794 18 0.16666666666666669
796 18 -0.083333333333333343
839 18 -0.083333333333333329
19 19 2.666666666666667
20 19 -0.33333333333333337
34 19 -0.33333333333333337
745 19 -0.083333333333333343
746 19 -0.083333333333333343
747 19 0.16666666666666669
749 19 -0.083333333333333343
750 19 -0.16666666666666669
792 19 -0.083333333333333287
794 19 -0.16666666666666669
795 19 -0.083333333333333343
796 19 -0.083333333333333315
797 19 0.16666666666666669
799 19 -0.083333333333333343
842 19 -0.083333333333333329
20 20 2.666666666666667
21 20 -0.33333333333333337
35 20 -0.33333333333333337
748 20 -0.083333333333333343
749 20 -0.083333333333333343
750 20 0.16666666666666669
752 20 -0.083333333333333343
753 20 -0.16666666666666669
795 20 -0.083333333333333287
797 20 -0.16666666666666669
798 20 -0.083333333333333343
799 20 -0.083333333333333315
800 20 0.16666666666666669
802 20 -0.083333333333333343
845 20 -0.083333333333333329
21 21 2.666666666666667
22 21 -0.33333333333333337
36 21 -0.33333333333333337
751 21 -0.083333333333333343
752 21 -0.083333333333333343
753 21 0.16666666666666669
755 21 -0.083333333333333343
756 21 -0.16666666666666669
798 21 -0.083333333333333287
800 21 -0.16666666666666669
801 21 -0.083333333333333343
802 21 -0.083333333333333315
803 21 0.16666666666666669
805 21 -0.083333333333333343
848 21 -0.083333333333333329
22 22 2.666666666666667
23 22 -0.33333333333333337
37 22 -0.33333333333333337
754 22 -0.083333333333333343
755 22 -0.083333333333333343
756 22 0.16666666666666669
758 22 -0.083333333333333343
759 22 -0.16666666666666669
801 22 -0.083333333333333287
803 22 -0.16666666666666669
804 22 -0.083333333333333343
805 22 -0.083333333333333315
806 22 0.16666666666666669
808 22 -0.083333333333333343
851 22 -0.083333333333333329
23 23 2.666666666666667
24 23 -0.33333333333333337
38 23 -0.33333333333333337
757 23 -0.083333333333333343
758 23 -0.083333333333333343
759 23 0.16666666666666669
761 23 -0.083333333333333343
762 23 -0.16666666666666669
804 23 -0.083333333333333287
806 23 -0.16666666666666669
807 23 -0.083333333333333343
808 23 -0.083333333333333315
809 23 0.16666666666666669
811 23 -0.083333333333333343
854 23 -0.083333333333333329
24 24 2.666666666666667
25 24 -0.33333333333333337
39 24 -0.33333333333333337
760 24 -0.083333333333333343
761 24 -0.083333333333333343
762 24 0.16666666666666669
764 24 -0.083333333333333343
765 24 -0.16666666666666669
807 24 -0.083333333333333287
809 24 -0.16666666666666669
810 24 -0.083333333333333343
811 24 -0.083333333333333315
812 24 0.16666666666666669
814 24 -0.083333333333333343
857 24 -0.083333333333333329
25 25 2.666666666666667
26 25 -0.33333333333333337
40 25 -0.33333333333333337
763 25 -0.083333333333333343
764 25 -0.083333333333333343
765 25 0.16666666666666669
767 25 -0.083333333333333343
768 25 -0.16666666666666669
810 25 -0.083333333333333287
812 25 -0.16666666666666669
813 25 -0.083333333333333343
814 25 -0.083333333333333315
815 25 0.16666666666666669
817 25 -0.083333333333333343
860 25 -0.083333333333333329
26 26 2.666666666666667
27 26 -0.33333333333333337
41 26 -0.33333333333333337
766 26 -0.083333333333333343
767 26 -0.083333333333333343
768 26 0.16666666666666669
770 26 -0.083333333333333343
771 26 -0.16666666666666669
813 26 -0.083333333333333287
815 26 -0.16666666666666669
816 26 -0.083333333333333343
817 26 -0.083333333333333315
818 26 0.16666666666666669
820 26 -0.083333333333333343
863 26 -0.083333333333333329
27 27 2.666666666666667
28 27 -0.33333333333333337
42 27 -0.33333333333333337
769 27 -0.083333333333333343
770 27 -0.083333333333333343
771 27 0.16666666666666669
773 27 -0.083333333333333343
774 27 -0.16666666666666669
816 27 -0.083333333333333287
818 27 -0.16666666666666669
819 27 -0.083333333333333343
820 27 -0.083333333333333315
821 27 0.16666666666666669
823 27 -0.083333333333333343
866 27 -0.083333333333333329
28 28 2.666666666666667
29 28 -0.33333333333333337
43 28 -0.33333333333333337
772 28 -0.083333333333333343
773 28 -0.083333333333333343
774 28 0.16666666666666669
776 28 -0.083333333333333343
777 28 -0.16666666666666669
819 28 -0.083333333333333287
821 28 -0.16666666666666669
822 28 -0.083333333333333343
823 28 -0.083333333333333315
824 28 0.16666666666666669
826 28 -0.083333333333333343
869 28 -0.083333333333333329
29 29 2.666666666666667
30 29 -0.33333333333333337
44 29 -0.33333333333333337
775 29 -0.083333333333333343
776 29 -0.083333333333333343
777 29 0.16666666666666669
779 29 -0.083333333333333343
780 29 -0.16666666666666669
822 29 -0.083333333333333287
824 29 -0.16666666666666669
825 29 -0.083333333333333343
826 29 -0.083333333333333315
827 29 0.16666666666666669
829 29 -0.083333333333333343
872 29 -0.083333333333333329
30 30 2.666666666666667
45 30 -0.33333333333333337
778 30 -0.083333333333333343
779 30 -0.083333333333333343
780 30 0.16666666666666669
782 30 -0.083333333333333343
783 30 -0.16666666666666669
825 30 -0.083333333333333287
827 30 -0.16666666666666669
828 30 -0.083333333333333343
829 30 -0.083333333333333315
830 30 0.16666666666666669
875 30 -0.083333333333333329
31 31 2.666666666666667
32 31 -0.33333333333333337
46 31 -0.33333333333333337
784 31 -0.083333333333333343
785 31 0.16666666666666669
787 31 -0.083333333333333343
788 31 -0.16666666666666669
831 31 -0.083333333333333287
832 31 -0.16666666666666669
833 31 -0.083333333333333343
834 31 -0.083333333333333315
835 31 0.16666666666666669
837 31 -0.083333333333333343
880 31 -0.083333333333333329
32 32 2.666666666666667
33 32 -0.33333333333333337
47 32 -0.33333333333333337
786 32 -0.083333333333333343
787 32 -0.083333333333333343
788 32 0.16666666666666669
790 32 -0.083333333333333343
791 32 -0.16666666666666669
833 32 -0.083333333333333287
835 32 -0.16666666666666669
836 32 -0.083333333333333343
837 32 -0.083333333333333315
838 32 0.16666666666666669
840 32 -0.083333333333333343
883 32 -0.083333333333333329
33 33 2.666666666666667
34 33 -0.33333333333333337
48 33 -0.33333333333333337
789 33 -0.083333333333333343
790 33 -0.083333333333333343
791 33 0.16666666666666669
793 33 -0.083333333333333343
794 33 -0.16666666666666669
836 33 -0.083333333333333287
838 33 -0.16666666666666669
839 33 -0.083333333333333343
840 33 -0.083333333333333315
841 33 0.16666666666666669
843 33 -0.083333333333333343
886 33 -0.083333333333333329
34 34 2.666666666666667
35 34 -0.33333333333333337
49 34 -0.33333333333333337
792 34 -0.083333333333333343
793 34 -0.083333333333333343
794 34 0.16666666666666669
796 34 -0.083333333333333343
797 34 -0.16666666666666669
839 34 -0.083333333333333287
841 34 -0.16666666666666669
842 34 -0.083333333333333343
843 34 -0.083333333333333315
844 34 0.16666666666666669
846 34 -0.083333333333333343
889 34 -0.083333333333333329
35 35 2.666666666666667
36 35 -0.33333333333333337
50 35 -0.33333333333333337
795 35 -0.083333333333333343
796 35 -0.083333333333333343
797 35 0.16666666666666669
799 35 -0.083333333333333343
800 35 -0.16666666666666669
842 35 -0.083333333333333287
844 35 -0.16666666666666669
845 35 -0.083333333333333343
846 35 -0.083333333333333315
847 35 0.16666666666666669
849 35 -0.083333333333333343
892 35 -0.083333333333333329
36 36 2.666666666666667
37 36 -0.33333333333333337
51 36 -0.33333333333333337
798 36 -0.083333333333333343
799 36 -0.083333333333333343
800 36 0.16666666666666669
802 36 -0.083333333333333343
803 36 -0.16666666666666669
845 36 -0.083333333333333287
847 36 -0.16666666666666669
848 36 -0.083333333333333343
849 36 -0.083333333333333315
850 36 0.16666666666666669
852 36 -0.083333333333333343
895 36 -0.083333333333333329
37 37 2.666666666666667
38 37 -0.33333333333333337
52 37 -0.33333333333333337
801 37 -0.083333333333333343
802 37 -0.083333333333333343
803 37 0.16666666666666669
805 37 -0.083333333333333343
806 37 -0.16666666666666669
848 37 -0.083333333333333287
850 37 -0.16666666666666669
851 37 -0.083333333333333343
852 37 -0.083333333333333315
853 37 0.16666666666666669
855 37 -0.083333333333333343
898 37 -0.083333333333333329
38 38 2.666666666666667
39 38 -0.33333333333333337
53 38 -0.33333333333333337
804 38 -0.083333333333333343
805 38 -0.083333333333333343
806 38 0.16666666666666669
808 38 -0.083333333333333343
809 38 -0.16666666666666669
851 38 -0.083333333333333287
853 38 -0.16666666666666669
854 38 -0.083333333333333343
855 38 -0.083333333333333315
856 38 0.16666666666666669
858 38 -0.083333333333333343
901 38 -0.083333333333333329
39 39 2.666666666666667
40 39 -0.33333333333333337
54 39 -0.33333333333333337
807 39 -0.083333333333333343
808 39 -0.083333333333333343
809 39 0.16666666666666669
811 39 -0.083333333333333343
812 39 -0.16666666666666669
854 39 -0.083333333333333287
856 39 -0.16666666666666669
857 39 -0.083333333333333343
858 39 -0.083333333333333315
859 39 0.16666666666666669
861 39 -0.083333333333333343
904 39 -0.083333333333333329
40 40 2.666666666666667
41 40 -0.33333333333333337
55 40 -0.33333333333333337
810 40 -0.083333333333333343
811 40 -0.083333333333333343
812 40 0.16666666666666669
814 40 -0.083333333333333343
815 40 -0.16666666666666669
857 40 -0.083333333333333287
859 40 -0.16666666666666669
860 40 -0.083333333333333343
861 40 -0.083333333333333315
862 40 0.16666666666666669
864 40 -0.083333333333333343
907 40 -0.083333333333333329
41 41 2.666666666666667
42 41 -0.33333333333333337
56 41 -0.33333333333333337
813 41 -0.083333333333333343
814 41 -0.083333333333333343
815 41 0.16666666666666669
817 41 -0.083333333333333343
818 41 -0.16666666666666669
860 41 -0.083333333333333287
862 41 -0.16666666666666669
863 41 -0.083333333333333343
864 41 -0.083333333333333315
865 41 0.16666666666666669
867 41 -0.083333333333333343
910 41 -0.083333333333333329
42 42 2.666666666666667
43 42 -0.33333333333333337
57 42 -0.33333333333333337
816 42 -0.083333333333333343
817 42 -0.083333333333333343
818 42 0.16666666666666669
820 42 -0.083333333333333343
821 42 -0.16666666666666669
863 42 -0.083333333333333287
865 42 -0.16666666666666669
866 42 -0.083333333333333343
867 42 -0.083333333333333315
868 42 0.16666666666666669
870 42 -0.083333333333333343
913 42 -0.083333333333333329
43 43 2.666666666666667
44 43 -0.33333333333333337
58 43 -0.33333333333333337
819 43 -0.083333333333333343
820 43 -0.083333333333333343
821 43 0.16666666666666669
823 43 -0.083333333333333343
824 43 -0.16666666666666669
866 43 -0.083333333333333287
868 43 -0.16666666666666669
869 43 -0.083333333333333343
870 43 -0.083333333333333315
871 43 0.16666666666666669
873 43 -0.083333333333333343
916 43 -0.083333333333333329
44 44 2.666666666666667
45 44 -0.33333333333333337
59 44 -0.33333333333333337
822 44 -0.083333333333333343
823 44 -0.083333333333333343
824 44 0.16666666666666669
826 44 -0.083333333333333343
827 44 -0.16666666666666669
869 44 -0.083333333333333287
871 44 -0.16666666666666669
872 44 -0.083333333333333343
873 44 -0.083333333333333315
874 44 0.16666666666666669
876 44 -0.083333333333333343
919 44 -0.083333333333333329
45 45 2.666666666666667
60 45 -0.33333333333333337
825 45 -0.083333333333333343
826 45 -0.083333333333333343
827 45 0.16666666666666669
829 45 -0.083333333333333343
830 45 -0.16666666666666669
872 45 -0.083333333333333287
874 45 -0.16666666666666669
875 45 -0.083333333333333343
876 45 -0.083333333333333315
877 45 0.16666666666666669
922 45 -0.083333333333333329
46 46 2.666666666666667
47 46 -0.33333333333333337
61 46 -0.33333333333333337
831 46 -0.083333333333333343
832 46 0.16666666666666669
834 46 -0.083333333333333343
835 46 -0.16666666666666669
878 46 -0.083333333333333287
879 46 -0.16666666666666669
880 46 -0.083333333333333343
881 46 -0.083333333333333315
882 46 0.16666666666666669
884 46 -0.083333333333333343
927 46 -0.083333333333333329
47 47 2.666666666666667
48 47 -0.33333333333333337
62 47 -0.33333333333333337
833 47 -0.083333333333333343
834 47 -0.083333333333333343
835 47 0.16666666666666669
837 47 -0.083333333333333343
838 47 -0.16666666666666669
880 47 -0.083333333333333287
882 47 -0.16666666666666669
883 47 -0.083333333333333343
884 47 -0.083333333333333315
885 47 0.16666666666666669
887 47 -0.083333333333333343
930 47 -0.083333333333333329
48 48 2.666666666666667
49 48 -0.33333333333333337
63 48 -0.33333333333333337
836 48 -0.083333333333333343
837 48 -0.083333333333333343
838 48 0.16666666666666669
840 48 -0.083333333333333343
841 48 -0.16666666666666669
883 48 -0.083333333333333287
885 48 -0.16666666666666669
886 48 -0.083333333333333343
887 48 -0.083333333333333315
888 48 0.16666666666666669
890 48 -0.083333333333333343
933 48 -0.083333333333333329
49 49 2.666666666666667
50 49 -0.33333333333333337
64 49 -0.33333333333333337
839 49 -0.083333333333333343
840 49 -0.083333333333333343
841 49 0.16666666666666669
843 49 -0.083333333333333343
844 49 -0.16666666666666669
886 49 -0.083333333333333287
888 49 -0.16666666666666669
889 49 -0.083333333333333343
890 49 -0.083333333333333315
891 49 0.16666666666666669
893 49 -0.083333333333333343
936 49 -0.083333333333333329
50 50 2.666666666666667
51 50 -0.33333333333333337
65 50 -0.33333333333333337
842 50 -0.083333333333333343
843 50 -0.083333333333333343
844 50 0.16666666666666669
846 50 -0.083333333333333343
847 50 -0.16666666666666669
889 50 -0.083333333333333287
891 50 -0.16666666666666669
892 50 -0.083333333333333343
893 50 -0.083333333333333315
894 50 0.16666666666666669
896 50 -0.083333333333333343
939 50 -0.083333333333333329
51 51 2.666666666666667
52 51 -0.33333333333333337
66 51 -0.33333333333333337
845 51 -0.083333333333333343
846 51 -0.083333333333333343
847 51 0.16666666666666669
849 51 -0.083333333333333343
850 51 -0.16666666666666669
892 51 -0.083333333333333287
894 51 -0.16666666666666669
895 51 -0.083333333333333343
896 51 -0.083333333333333315
897 51 0.16666666666666669
899 51 -0.083333333333333343
942 51 -0.083333333333333329
52 52 2.666666666666667
53 52 -0.33333333333333337
67 52 -0.33333333333333337
848 52 -0.083333333333333343
849 52 -0.083333333333333343
850 52 0.16666666666666669
852 52 -0.083333333333333343
853 52 -0.16666666666666669
895 52 -0.083333333333333287
897 52 -0.16666666666666669
898 52 -0.083333333333333343
899 52 -0.083333333333333315
900 52 0.16666666666666669
902 52 -0.083333333333333343
945 52 -0.083333333333333329
53 53 2.666666666666667
54 53 -0.33333333333333337
68 53 -0.33333333333333337
851 53 -0.083333333333333343
852 53 -0.083333333333333343
853 53 0.16666666666666669
855 53 -0.083333333333333343
856 53 -0.16666666666666669
898 53 -0.083333333333333287
900 53 -0.16666666666666669
901 53 -0.083333333333333343
902 53 -0.083333333333333315
903 53 0.16666666666666669
905 53 -0.083333333333333343
948 53 -0.083333333333333329
54 54 2.666666666666667
55 54 -0.33333333333333337
69 54 -0.33333333333333337
854 54 -0.083333333333333343
855 54 -0.083333333333333343
856 54 0.16666666666666669
858 54 -0.083333333333333343
859 54 -0.16666666666666669
901 54 -0.083333333333333287
903 54 -0.16666666666666669
904 54 -0.083333333333333343
905 54 -0.083333333333333315
906 54 0.16666666666666669
908 54 -0.083333333333333343
951 54 -0.083333333333333329
55 55 2.666666666666667
56 55 -0.33333333333333337
70 55 -0.33333333333333337
857 55 -0.083333333333333343
858 55 -0.083333333333333343
859 55 0.16666666666666669
861 55 -0.083333333333333343
862 55 -0.16666666666666669
904 55 -0.083333333333333287
906 55 -0.16666666666666669
907 55 -0.083333333333333343
908 55 -0.083333333333333315
909 55 0.16666666666666669
911 55 -0.083333333333333343
954 55 -0.083333333333333329
56 56 2.666666666666667
57 56 -0.33333333333333337
71 56 -0.33333333333333337
860 56 -0.083333333333333343
861 56 -0.083333333333333343
862 56 0.16666666666666669
864 56 -0.083333333333333343
865 56 -0.16666666666666669
907 56 -0.083333333333333287
909 56 -0.16666666666666669
910 56 -0.083333333333333343
911 56 -0.083333333333333315
912 56 0.16666666666666669
914 56 -0.083333333333333343
957 56 -0.083333333333333329
57 57 2.666666666666667
58 57 -0.33333333333333337
72 57 -0.33333333333333337
863 57 -0.083333333333333343
864 57 -0.083333333333333343
865 57 0.16666666666666669
867 57 -0.083333333333333343
868 57 -0.16666666666666669
910 57 -0.083333333333333287
912 57 -0.16666666666666669
913 57 -0.083333333333333343
914 57 -0.083333333333333315
915 57 0.16666666666666669
917 57 -0.083333333333333343
960 57 -0.083333333333333329
58 58 2.666666666666667
59 58 -0.33333333333333337
73 58 -0.33333333333333337
866 58 -0.083333333333333343
867 58 -0.083333333333333343
868 58 0.16666666666666669
870 58 -0.083333333333333343
871 58 -0.16666666666666669
913 58 -0.083333333333333287
915 58 -0.16666666666666669
916 58 -0.083333333333333343
917 58 -0.083333333333333315
918 58 0.16666666666666669
920 58 -0.083333333333333343
963 58 -0.083333333333333329
59 59 2.666666666666667
60 59 -0.33333333333333337
74 59 -0.33333333333333337
869 59 -0.083333333333333343
870 59 -0.083333333333333343
871 59 0.16666666666666669
873 59 -0.083333333333333343
874 59 -0.16666666666666669
916 59 -0.083333333333333287
918 59 -0.16666666666666669
919 59 -0.083333333333333343
920 59 -0.083333333333333315
921 59 0.16666666666666669
923 59 -0.083333333333333343
966 59 -0.083333333333333329
60 60 2.666666666666667
75 60 -0.33333333333333337
872 60 -0.083333333333333343
873 60 -0.083333333333333343
874 60 0.16666666666666669
876 60 -0.083333333333333343
877 60 -0.16666666666666669
919 60 -0.083333333333333287
921 60 -0.16666666666666669
922 60 -0.083333333333333343
923 60 -0.083333333333333315
924 60 0.16666666666666669
969 60 -0.083333333333333329
61 61 2.666666666666667
62 61 -0.33333333333333337
76 61 -0.33333333333333337
878 61 -0.083333333333333343
879 61 0.16666666666666669
881 61 -0.083333333333333343
882 61 -0.16666666666666669
925 61 -0.083333333333333287
926 61 -0.16666666666666669
927 61 -0.083333333333333343
928 61 -0.083333333333333315
929 61 0.16666666666666669
931 61 -0.083333333333333343
974 61 -0.083333333333333329
62 62 2.666666666666667
63 62 -0.33333333333333337
77 62 -0.33333333333333337
880 62 -0.083333333333333343
881 62 -0.083333333333333343
882 62 0.16666666666666669
884 62 -0.083333333333333343
885 62 -0.16666666666666669
927 62 -0.083333333333333287
929 62 -0.16666666666666669
930 62 -0.083333333333333343
931 62 -0.083333333333333315
932 62 0.16666666666666669
934 62 -0.083333333333333343
977 62 -0.083333333333333329
63 63 2.666666666666667
64 63 -0.33333333333333337
78 63 -0.33333333333333337
883 63 -0.083333333333333343
884 63 -0.083333333333333343
885 63 0.16666666666666669
887 63 -0.083333333333333343
888 63 -0.16666666666666669
930 63 -0.083333333333333287
932 63 -0.16666666666666669
933 63 -0.083333333333333343
934 63 -0.083333333333333315
935 63 0.16666666666666669
937 63 -0.083333333333333343
980 63 -0.083333333333333329
64 64 2.666666666666667
65 64 -0.33333333333333337
79 64 -0.33333333333333337
886 64 -0.083333333333333343
887 64 -0.083333333333333343
888 64 0.16666666666666669
890 64 -0.083333333333333343
891 64 -0.16666666666666669
933 64 -0.083333333333333287
935 64 -0.16666666666666669
936 64 -0.083333333333333343
937 64 -0.083333333333333315
938 64 0.16666666666666669
940 64 -0.083333333333333343
983 64 -0.083333333333333329
65 65 2.666666666666667
66 65 -0.33333333333333337
80 65 -0.33333333333333337
889 65 -0.083333333333333343
890 65 -0.083333333333333343
891 65 0.16666666666666669
893 65 -0.083333333333333343
894 65 -0.16666666666666669
936 65 -0.083333333333333287
938 65 -0.16666666666666669
939 65 -0.083333333333333343
940 65 -0.083333333333333315
941 65 0.16666666666666669
943 65 -0.083333333333333343
986 65 -0.083333333333333329
66 66 2.666666666666667
67 66 -0.33333333333333337
81 66 -0.33333333333333337
892 66 -0.083333333333333343
893 66 -0.083333333333333343
894 66 0.16666666666666669
896 66 -0.083333333333333343
897 66 -0.16666666666666669
939 66 -0.083333333333333287
941 66 -0.16666666666666669
942 66 -0.083333333333333343
943 66 -0.083333333333333315
944 66 0.16666666666666669
946 66 -0.083333333333333343
989 66 -0.083333333333333329
67 67 2.666666666666667
68 67 -0.33333333333333337
82 67 -0.33333333333333337
895 67 -0.083333333333333343
896 67 -0.083333333333333343
897 67 0.16666666666666669
899 67 -0.083333333333333343
900 67 -0.16666666666666669
942 67 -0.083333333333333287
944 67 -0.16666666666666669
945 67 -0.083333333333333343
946 67 -0.083333333333333315
947 67 0.16666666666666669
949 67 -0.083333333333333343
992 67 -0.083333333333333329
68 68 2.666666666666667
69 68 -0.33333333333333337
83 68 -0.33333333333333337
898 68 -0.083333333333333343
899 68 -0.083333333333333343
900 68 0.16666666666666669
902 68 -0.083333333333333343
903 68 -0.16666666666666669
945 68 -0.083333333333333287
947 68 -0.16666666666666669
948 68 -0.083333333333333343
949 68 -0.083333333333333315
950 68 0.16666666666666669
952 68 -0.083333333333333343
995 68 -0.083333333333333329
69 69 2.666666666666667
70 69 -0.33333333333333337
84 69 -0.33333333333333337
901 69 -0.083333333333333343
902 69 -0.083333333333333343
903 69 0.16666666666666669
905 69 -0.083333333333333343
906 69 -0.16666666666666669
948 69 -0.083333333333333287
950 69 -0.16666666666666669
951 69 -0.083333333333333343
952 69 -0.083333333333333315
953 69 0.16666666666666669
955 69 -0.083333333333333343
998 69 -0.083333333333333329
70 70 2.666666666666667
71 70 -0.33333333333333337
85 70 -0.33333333333333337
904 70 -0.083333333333333343
905 70 -0.083333333333333343
906 70 0.16666666666666669
908 70 -0.083333333333333343
909 70 -0.16666666666666669
951 70 -0.083333333333333287
953 70 -0.16666666666666669
954 70 -0.083333333333333343
955 70 -0.083333333333333315
956 70 0.16666666666666669
958 70 -0.083333333333333343
1001 70 -0.083333333333333329
71 71 2.666666666666667
72 71 -0.33333333333333337
86 71 -0.33333333333333337
907 71 -0.083333333333333343
908 71 -0.083333333333333343
909 71 0.16666666666666669
911 71 -0.083333333333333343
912 71 -0.16666666666666669
954 71 -0.083333333333333287
956 71 -0.16666666666666669
957 71 -0.083333333333333343
958 71 -0.083333333333333315
959 71 0.16666666666666669
961 71 -0.083333333333333343
1004 71 -0.083333333333333329
72 72 2.666666666666667
73 72 -0.33333333333333337
87 72 -0.33333333333333337
910 72 -0.083333333333333343
911 72 -0.083333333333333343
912 72 0.16666666666666669
914 72 -0.083333333333333343
915 72 -0.16666666666666669
957 72 -0.083333333333333287
959 72 -0.16666666666666669
960 72 -0.083333333333333343
961 72 -0.083333333333333315
962 72 0.16666666666666669
964 72 -0.083333333333333343
1007 72 -0.083333333333333329
73 73 2.666666666666667
74 73 -0.33333333333333337
88 73 -0.33333333333333337
913 73 -0.083333333333333343
914 73 -0.083333333333333343
915 73 0.16666666666666669
917 73 -0.083333333333333343
918 73 -0.16666666666666669
960 73 -0.083333333333333287
962 73 -0.16666666666666669
963 73 -0.083333333333333343
964 73 -0.083333333333333315
965 73 0.16666666666666669
967 73 -0.083333333333333343
1010 73 -0.083333333333333329
74 74 2.666666666666667
75 74 -0.33333333333333337
89 74 -0.33333333333333337
916 74 -0.083333333333333343
917 74 -0.083333333333333343
918 74 0.16666666666666669
920 74 -0.083333333333333343
921 74 -0.16666666666666669
963 74 -0.083333333333333287
965 74 -0.16666666666666669
966 74 -0.083333333333333343
967 74 -0.083333333333333315
968 74 0.16666666666666669
970 74 -0.083333333333333343
1013 74 -0.083333333333333329
75 75 2.666666666666667
90 75 -0.33333333333333337
919 75 -0.083333333333333343
920 75 -0.083333333333333343
921 75 0.16666666666666669
923 75 -0.083333333333333343
924 75 -0.16666666666666669
966 75 -0.083333333333333287
968 75 -0.16666666666666669
969 75 -0.083333333333333343
970 75 -0.083333333333333315
971 75 0.16666666666666669
1016 75 -0.083333333333333329
76 76 2.666666666666667
77 76 -0.33333333333333337
91 76 -0.33333333333333337
925 76 -0.083333333333333343
926 76 0.16666666666666669
928 76 -0.083333333333333343
929 76 -0.16666666666666669
972 76 -0.083333333333333287
973 76 -0.16666666666666669
974 76 -0.083333333333333343
975 76 -0.083333333333333315
976 76 0.16666666666666669
978 76 -0.083333333333333343
1021 76 -0.083333333333333329
77 77 2.666666666666667
78 77 -0.33333333333333337
92 77 -0.33333333333333337
927 77 -0.083333333333333343
928 77 -0.083333333333333343
929 77 0.16666666666666669
931 77 -0.083333333333333343
932 77 -0.16666666666666669
974 77 -0.083333333333333287
976 77 -0.16666666666666669
977 77 -0.083333333333333343
978 77 -0.083333333333333315
979 77 0.16666666666666669
981 77 -0.083333333333333343
1024 77 -0.083333333333333329
78 78 2.666666666666667
79 78 -0.33333333333333337
93 78 -0.33333333333333337
930 78 -0.083333333333333343
931 78 -0.083333333333333343
932 78 0.16666666666666669
934 78 -0.083333333333333343
935 78 -0.16666666666666669
977 78 -0.083333333333333287
979 78 -0.16666666666666669
980 78 -0.083333333333333343
981 78 -0.083333333333333315
982 78 0.16666666666666669
984 78 -0.083333333333333343
1027 78 -0.083333333333333329
79 79 2.666666666666667
80 79 -0.33333333333333337
94 79 -0.33333333333333337
933 79 -0.083333333333333343
934 79 -0.083333333333333343
935 79 0.16666666666666669
937 79 -0.083333333333333343
938 79 -0.16666666666666669
980 79 -0.083333333333333287
982 79 -0.16666666666666669
983 79 -0.083333333333333343
984 79 -0.083333333333333315
985 79 0.16666666666666669
987 79 -0.083333333333333343
1030 79 -0.083333333333333329
80 80 2.666666666666667
81 80 -0.33333333333333337
95 80 -0.33333333333333337
936 80 -0.083333333333333343
937 80 -0.083333333333333343
938 80 0.16666666666666669
940 80 -0.083333333333333343
941 80 -0.16666666666666669
983 80 -0.083333333333333287
985 80 -0.16666666666666669
986 80 -0.083333333333333343
987 80 -0.083333333333333315
988 80 0.16666666666666669
990 80 -0.083333333333333343
1033 80 -0.083333333333333329
81 81 2.666666666666667
82 81 -0.33333333333333337
96 81 -0.33333333333333337
939 81 -0.083333333333333343
940 81 -0.083333333333333343
941 81 0.16666666666666669
943 81 -0.083333333333333343
944 81 -0.16666666666666669
986 81 -0.083333333333333287
988 81 -0.16666666666666669
989 81 -0.083333333333333343
990 81 -0.083333333333333315
991 81 0.16666666666666669
993 81 -0.083333333333333343
1036 81 -0.083333333333333329
82 82 2.666666666666667
83 82 -0.33333333333333337
97 82 -0.33333333333333337
942 82 -0.083333333333333343
943 82 -0.083333333333333343
944 82 0.16666666666666669
946 82 -0.083333333333333343
947 82 -0.16666666666666669
989 82 -0.083333333333333287
991 82 -0.16666666666666669
992 82 -0.083333333333333343
993 82 -0.083333333333333315
994 82 0.16666666666666669
996 82 -0.083333333333333343
1039 82 -0.083333333333333329
83 83 2.666666666666667
84 83 -0.33333333333333337
98 83 -0.33333333333333337
945 83 -0.083333333333333343
946 83 -0.083333333333333343
947 83 0.16666666666666669
949 83 -0.083333333333333343
950 83 -0.16666666666666669
992 83 -0.083333333333333287
994 83 -0.16666666666666669
995 83 -0.083333333333333343
996 83 -0.083333333333333315
997 83 0.16666666666666669
999 83 -0.083333333333333343
1042 83 -0.083333333333333329
84 84 2.666666666666667
85 84 -0.33333333333333337
99 84 -0.33333333333333337
948 84 -0.083333333333333343
949 84 -0.083333333333333343
950 84 0.16666666666666669
952 84 -0.083333333333333343
953 84 -0.16666666666666669
995 84 -0.083333333333333287
997 84 -0.16666666666666669
998 84 -0.083333333333333343
999 84 -0.083333333333333315
1000 84 0.16666666666666669
1002 84 -0.083333333333333343
1045 84 -0.083333333333333329
85 85 2.666666666666667
86 85 -0.33333333333333337
100 85 -0.33333333333333337
951 85 -0.083333333333333343
952 85 -0.083333333333333343
953 85 0.16666666666666669
955 85 -0.083333333333333343
956 85 -0.16666666666666669
998 85 -0.083333333333333287
1000 85 -0.16666666666666669
1001 85 -0.083333333333333343
1002 85 -0.083333333333333315
1003 85 0.16666666666666669
1005 85 -0.083333333333333343
1048 85 -0.083333333333333329
86 86 2.666666666666667
87 86 -0.33333333333333337
101 86 -0.33333333333333337
954 86 -0.083333333333333343
955 86 -0.083333333333333343
956 86 0.16666666666666669
958 86 -0.083333333333333343
959 86 -0.16666666666666669
1001 86 -0.083333333333333287
1003 86 -0.16666666666666669
1004 86 -0.083333333333333343
1005 86 -0.083333333333333315
1006 86 0.16666666666666669
1008 86 -0.083333333333333343
1051 86 -0.083333333333333329
87 87 2.666666666666667
88 87 -0.33333333333333337
102 87 -0.33333333333333337
957 87 -0.083333333333333343
958 87 -0.083333333333333343
959 87 0.16666666666666669
961 87 -0.083333333333333343
962 87 -0.16666666666666669
1004 87 -0.083333333333333287
1006 87 -0.16666666666666669
1007 87 -0.083333333333333343
1008 87 -0.083333333333333315
1009 87 0.16666666666666669
1011 87 -0.083333333333333343
1054 87 -0.083333333333333329
88 88 2.666666666666667
89 88 -0.33333333333333337
103 88 -0.33333333333333337
960 88 -0.083333333333333343
961 88 -0.083333333333333343
962 88 0.16666666666666669
964 88 -0.083333333333333343
965 88 -0.16666666666666669
1007 88 -0.083333333333333287
1009 88 -0.16666666666666669
1010 88 -0.083333333333333343
1011 88 -0.083333333333333315
1012 88 0.16666666666666669
1014 88 -0.083333333333333343
1057 88 -0.083333333333333329
89 89 2.666666666666667
90 89 -0.33333333333333337
104 89 -0.33333333333333337
963 89 -0.083333333333333343
964 89 -0.083333333333333343
965 89 0.16666666666666669
967 89 -0.083333333333333343
968 89 -0.16666666666666669
1010 89 -0.083333333333333287
1012 89 -0.16666666666666669
1013 89 -0.083333333333333343
1014 89 -0.083333333333333315
1015 89 0.16666666666666669
1017 89 -0.083333333333333343
1060 89 -0.083333333333333329
90 90 2.666666666666667
105 90 -0.33333333333333337
966 90 -0.083333333333333343
967 90 -0.083333333333333343
968 90 0.16666666666666669
970 90 -0.083333333333333343
971 90 -0.16666666666666669
1013 90 -0.083333333333333287
1015 90 -0.16666666666666669
1016 90 -0.083333333333333343
1017 90 -0.083333333333333315
1018 90 0.16666666666666669
1063 90 -0.083333333333333329
91 91 2.666666666666667
92 91 -0.33333333333333337
106 91 -0.33333333333333337
972 91 -0.083333333333333343
973 91 0.16666666666666669
975 91 -0.083333333333333343
976 91 -0.16666666666666669
1019 91 -0.083333333333333287
1020 91 -0.16666666666666669
1021 91 -0.083333333333333343
1022 91 -0.083333333333333315
1023 91 0.16666666666666669
1025 91 -0.083333333333333343
1068 91 -0.083333333333333329
92 92 2.666666666666667
93 92 -0.33333333333333337
107 92 -0.33333333333333337
974 92 -0.083333333333333343
975 92 -0.083333333333333343
976 92 0.16666666666666669
978 92 -0.083333333333333343
979 92 -0.16666666666666669
1021 92 -0.083333333333333287
1023 92 -0.16666666666666669
1024 92 -0.083333333333333343
1025 92 -0.083333333333333315
1026 92 0.16666666666666669
1028 92 -0.083333333333333343
1071 92 -0.083333333333333329
93 93 2.666666666666667
94 93 -0.33333333333333337
108 93 -0.33333333333333337
977 93 -0.083333333333333343
978 93 -0.083333333333333343
979 93 0.16666666666666669
981 93 -0.083333333333333343
982 93 -0.16666666666666669
1024 93 -0.083333333333333287
1026 93 -0.16666666666666669
1027 93 -0.083333333333333343
1028 93 -0.083333333333333315
1029 93 0.16666666666666669
1031 93 -0.083333333333333343
1074 93 -0.083333333333333329
94 94 2.666666666666667
95 94 -0.33333333333333337
109 94 -0.33333333333333337
980 94 -0.083333333333333343
981 94 -0.083333333333333343
982 94 0.16666666666666669
984 94 -0.083333333333333343
985 94 -0.16666666666666669
1027 94 -0.083333333333333287
1029 94 -0.16666666666666669
1030 94 -0.083333333333333343
1031 94 -0.083333333333333315
1032 94 0.16666666666666669
1034 94 -0.083333333333333343
1077 94 -0.083333333333333329
95 95 2.666666666666667
96 95 -0.33333333333333337
110 95 -0.33333333333333337
983 95 -0.083333333333333343
984 95 -0.083333333333333343
985 95 0.16666666666666669
987 95 -0.083333333333333343
988 95 -0.16666666666666669
1030 95 -0.083333333333333287
1032 95 -0.16666666666666669
1033 95 -0.083333333333333343
1034 95 -0.083333333333333315
1035 95 0.16666666666666669
1037 95 -0.083333333333333343
1080 95 -0.083333333333333329
96 96 2.666666666666667
97 96 -0.33333333333333337
111 96 -0.33333333333333337
986 96 -0.083333333333333343
987 96 -0.083333333333333343
988 96 0.16666666666666669
990 96 -0.083333333333333343
991 96 -0.16666666666666669
1033 96 -0.083333333333333287
1035 96 -0.16666666666666669
1036 96 -0.083333333333333343
1037 96 -0.083333333333333315
1038 96 0.16666666666666669
1040 96 -0.083333333333333343
1083 96 -0.083333333333333329
97 97 2.666666666666667
98 97 -0.33333333333333337
112 97 -0.33333333333333337
989 97 -0.083333333333333343
990 97 -0.083333333333333343
991 97 0.16666666666666669
993 97 -0.083333333333333343
994 97 -0.16666666666666669
1036 97 -0.083333333333333287
1038 97 -0.16666666666666669
1039 97 -0.083333333333333343
1040 97 -0.083333333333333315
1041 97 0.16666666666666669
1043 97 -0.083333333333333343
1086 97 -0.083333333333333329
98 98 2.666666666666667
99 98 -0.33333333333333337
113 98 -0.33333333333333337
992 98 -0.083333333333333343
993 98 -0.083333333333333343
994 98 0.16666666666666669
996 98 -0.083333333333333343
997 98 -0.16666666666666669
1039 98 -0.083333333333333287
1041 98 -0.16666666666666669
1042 98 -0.083333333333333343
1043 98 -0.083333333333333315
1044 98 0.16666666666666669
1046 98 -0.083333333333333343
1089 98 -0.083333333333333329
99 99 2.666666666666667
100 99 -0.33333333333333337
114 99 -0.33333333333333337
995 99 -0.083333333333333343
996 99 -0.083333333333333343
997 99 0.16666666666666669
999 99 -0.083333333333333343
1000 99 -0.16666666666666669
1042 99 -0.083333333333333287
1044 99 -0.16666666666666669
1045 99 -0.083333333333333343
1046 99 -0.083333333333333315
1047 99 0.16666666666666669
1049 99 -0.083333333333333343
1092 99 -0.083333333333333329
100 100 2.666666666666667
101 100 -0.33333333333333337
115 100 -0.33333333333333337
998 100 -0.083333333333333343
999 100 -0.083333333333333343
1000 100 0.16666666666666669
1002 100 -0.083333333333333343
1003 100 -0.16666666666666669
1045 100 -0.083333333333333287
1047 100 -0.16666666666666669
1048 100 -0.083333333333333343
1049 100 -0.083333333333333315
1050 100 0.16666666666666669
1052 100 -0.083333333333333343
1095 100 -0.083333333333333329
101 101 2.666666666666667
102 101 -0.33333333333333337
116 101 -0.33333333333333337
1001 101 -0.083333333333333343
1002 101 -0.083333333333333343
1003 101 0.16666666666666669
1005 101 -0.083333333333333343
1006 101 -0.16666666666666669
1048 101 -0.083333333333333287
1050 101 -0.16666666666666669
1051 101 -0.083333333333333343
1052 101 -0.083333333333333315
1053 101 0.16666666666666669
1055 101 -0.083333333333333343
1098 101 -0.083333333333333329
102 102 2.666666666666667
103 102 -0.33333333333333337
117 102 -0.33333333333333337
1004 102 -0.083333333333333343
1005 102 -0.083333333333333343
1006 102 0.16666666666666669
1008 102 -0.083333333333333343
1009 102 -0.16666666666666669
1051 102 -0.083333333333333287
1053 102 -0.16666666666666669
1054 102 -0.083333333333333343
1055 102 -0.083333333333333315
1056 102 0.16666666666666669
1058 102 -0.083333333333333343
1101 102 -0.083333333333333329
103 103 2.666666666666667
104 103 -0.33333333333333337
118 103 -0.33333333333333337
1007 103 -0.083333333333333343
1008 103 -0.083333333333333343
1009 103 0.16666666666666669
1011 103 -0.083333333333333343
1012 103 -0.16666666666666669
1054 103 -0.083333333333333287
1056 103 -0.16666666666666669
1057 103 -0.083333333333333343
1058 103 -0.083333333333333315
1059 103 0.16666666666666669
1061 103 -0.083333333333333343
1104 103 -0.083333333333333329
104 104 2.666666666666667
105 104 -0.33333333333333337
119 104 -0.33333333333333337
1010 104 -0.083333333333333343
1011 104 -0.083333333333333343
1012 104 0.16666666666666669
1014 104 -0.083333333333333343
1015 104 -0.16666666666666669
1057 104 -0.083333333333333287
1059 104 -0.16666666666666669
1060 104 -0.083333333333333343
1061 104 -0.083333333333333315
1062 104 0.16666666666666669
1064 104 -0.083333333333333343
1107 104 -0.083333333333333329
105 105 2.666666666666667
120 105 -0.33333333333333337
1013 105 -0.083333333333333343
1014 105 -0.083333333333333343
1015 105 0.16666666666666669
1017 105 -0.083333333333333343
1018 105 -0.16666666666666669
1060 105 -0.083333333333333287
1062 105 -0.16666666666666669
1063 105 -0.083333333333333343
1064 105 -0.083333333333333315
1065 105 0.16666666666666669
1110 105 -0.083333333333333329
106 106 2.666666666666667
107 106 -0.33333333333333337
121 106 -0.33333333333333337
1019 106 -0.083333333333333343
1020 106 0.16666666666666669
1022 106 -0.083333333333333343
1023 106 -0.16666666666666669
1066 106 -0.083333333333333287
1067 106 -0.16666666666666669
1068 106 -0.083333333333333343
1069 106 -0.083333333333333315
1070 106 0.16666666666666669
1072 106 -0.083333333333333343
1115 106 -0.083333333333333329
107 107 2.666666666666667
108 107 -0.33333333333333337
122 107 -0.33333333333333337
1021 107 -0.083333333333333343
1022 107 -0.083333333333333343
1023 107 0.16666666666666669
1025 107 -0.083333333333333343
1026 107 -0.16666666666666669
1068 107 -0.083333333333333287
1070 107 -0.16666666666666669
1071 107 -0.083333333333333343
1072 107 -0.083333333333333315
1073 107 0.16666666666666669
1075 107 -0.083333333333333343
1118 107 -0.083333333333333329
108 108 2.666666666666667
109 108 -0.33333333333333337
123 108 -0.33333333333333337
1024 108 -0.083333333333333343
1025 108 -0.083333333333333343
1026 108 0.16666666666666669
1028 108 -0.083333333333333343
1029 108 -0.16666666666666669
1071 108 -0.083333333333333287
1073 108 -0.16666666666666669
1074 108 -0.083333333333333343
1075 108 -0.083333333333333315
1076 108 0.16666666666666669
1078 108 -0.083333333333333343
1121 108 -0.083333333333333329
109 109 2.666666666666667
110 109 -0.33333333333333337
124 109 -0.33333333333333337
1027 109 -0.083333333333333343
1028 109 -0.083333333333333343
1029 109 0.16666666666666669
1031 109 -0.083333333333333343
1032 109 -0.16666666666666669
1074 109 -0.083333333333333287
1076 109 -0.16666666666666669
1077 109 -0.083333333333333343
1078 109 -0.083333333333333315
1079 109 0.16666666666666669
1081 109 -0.083333333333333343
1124 109 -0.083333333333333329
110 110 2.666666666666667
111 110 -0.33333333333333337
125 110 -0.33333333333333337
1030 110 -0.083333333333333343
1031 110 -0.083333333333333343
1032 110 0.16666666666666669
1034 110 -0.083333333333333343
1035 110 -0.16666666666666669
1077 110 -0.083333333333333287
1079 110 -0.16666666666666669
1080 110 -0.083333333333333343
1081 110 -0.083333333333333315
1082 110 0.16666666666666669
1084 110 -0.083333333333333343
1127 110 -0.083333333333333329
111 111 2.666666666666667
112 111 -0.33333333333333337
126 111 -0.33333333333333337
1033 111 -0.083333333333333343
1034 111 -0.083333333333333343
1035 111 0.16666666666666669
1037 111 -0.083333333333333343
1038 111 -0.16666666666666669
1080 111 -0.083333333333333287
1082 111 -0.16666666666666669
1083 111 -0.083333333333333343
1084 111 -0.083333333333333315
1085 111 0.16666666666666669
1087 111 -0.083333333333333343
1130 111 -0.083333333333333329
112 112 2.666666666666667
113 112 -0.33333333333333337
127 112 -0.33333333333333337
1036 112 -0.083333333333333343
1037 112 -0.083333333333333343
1038 112 0.16666666666666669
1040 112 -0.083333333333333343
1041 112 -0.16666666666666669
1083 112 -0.083333333333333287
1085 112 -0.16666666666666669
1086 112 -0.083333333333333343
1087 112 -0.083333333333333315
1088 112 0.16666666666666669
1090 112 -0.083333333333333343
1133 112 -0.083333333333333329
113 113 2.666666666666667
114 113 -0.33333333333333337
128 113 -0.33333333333333337
1039 113 -0.083333333333333343
1040 113 -0.083333333333333343
1041 113 0.16666666666666669
1043 113 -0.083333333333333343
1044 113 -0.16666666666666669
1086 113 -0.083333333333333287
1088 113 -0.16666666666666669
1089 113 -0.083333333333333343
1090 113 -0.083333333333333315
1091 113 0.16666666666666669
1093 113 -0.083333333333333343
1136 113 -0.083333333333333329
114 114 2.666666666666667
115 114 -0.33333333333333337
129 114 -0.33333333333333337
1042 114 -0.083333333333333343
1043 114 -0.083333333333333343
1044 114 0.16666666666666669
1046 114 -0.083333333333333343
1047 114 -0.16666666666666669
1089 114 -0.083333333333333287
1091 114 -0.16666666666666669
1092 114 -0.083333333333333343
1093 114 -0.083333333333333315
1094 114 0.16666666666666669
1096 114 -0.083333333333333343
1139 114 -0.083333333333333329
115 115 2.666666666666667
116 115 -0.33333333333333337
130 115 -0.33333333333333337
1045 115 -0.083333333333333343
1046 115 -0.083333333333333343
1047 115 0.16666666666666669
1049 115 -0.083333333333333343
1050 115 -0.16666666666666669
1092 115 -0.083333333333333287
1094 115 -0.16666666666666669
1095 115 -0.083333333333333343
1096 115 -0.083333333333333315
1097 115 0.16666666666666669
1099 115 -0.083333333333333343
1142 115 -0.083333333333333329
116 116 2.666666666666667
117 116 -0.33333333333333337
131 116 -0.33333333333333337
1048 116 -0.083333333333333343
1049 116 -0.083333333333333343
1050 116 0.16666666666666669
1052 116 -0.083333333333333343
1053 116 -0.16666666666666669
1095 116 -0.083333333333333287
1097 116 -0.16666666666666669
1098 116 -0.083333333333333343
1099 116 -0.083333333333333315
1100 116 0.16666666666666669
1102 116 -0.083333333333333343
1145 116 -0.083333333333333329
117 117 2.666666666666667
118 117 -0.33333333333333337
132 117 -0.33333333333333337
1051 117 -0.083333333333333343
1052 117 -0.083333333333333343
1053 117 0.16666666666666669
1055 117 -0.083333333333333343
1056 117 -0.16666666666666669
1098 117 -0.083333333333333287
1100 117 -0.16666666666666669
1101 117 -0.083333333333333343
1102 117 -0.083333333333333315
1103 117 0.16666666666666669
1105 117 -0.083333333333333343
1148 117 -0.083333333333333329
118 118 2.666666666666667
119 118 -0.33333333333333337
133 118 -0.33333333333333337
1054 118 -0.083333333333333343
1055 118 -0.083333333333333343
1056 118 0.16666666666666669
1058 118 -0.083333333333333343
1059 118 -0.16666666666666669
1101 118 -0.083333333333333287
1103 118 -0.16666666666666669
1104 118 -0.083333333333333343
1105 118 -0.083333333333333315
1106 118 0.16666666666666669
1108 118 -0.083333333333333343
1151 118 -0.083333333333333329
119 119 2.666666666666667
120 119 -0.33333333333333337
134 119 -0.33333333333333337
1057 119 -0.083333333333333343
1058 119 -0.083333333333333343
1059 119 0.16666666666666669
1061 119 -0.083333333333333343
1062 119 -0.16666666666666669
1104 119 -0.083333333333333287
1106 119 -0.16666666666666669
1107 119 -0.083333333333333343
1108 119 -0.083333333333333315
1109 119 0.16666666666666669
1111 119 -0.083333333333333343
1154 119 -0.083333333333333329
120 120 2.666666666666667
135 120 -0.33333333333333337
1060 120 -0.083333333333333343
1061 120 -0.083333333333333343
1062 120 0.16666666666666669
1064 120 -0.083333333333333343
1065 120 -0.16666666666666669
1107 120 -0.083333333333333287
1109 120 -0.16666666666666669
1110 120 -0.083333333333333343
1111 120 -0.083333333333333315
1112 120 0.16666666666666669
1157 120 -0.083333333333333329
121 121 2.666666666666667
122 121 -0.33333333333333337
136 121 -0.33333333333333337
1066 121 -0.083333333333333343
1067 121 0.16666666666666669
1069 121 -0.083333333333333343
1070 121 -0.16666666666666669
1113 121 -0.083333333333333287
1114 121 -0.16666666666666669
1115 121 -0.083333333333333343
1116 121 -0.083333333333333315
1117 121 0.16666666666666669
1119 121 -0.083333333333333343
1162 121 -0.083333333333333329
122 122 2.666666666666667
123 122 -0.33333333333333337
137 122 -0.33333333333333337
1068 122 -0.083333333333333343
1069 122 -0.083333333333333343
1070 122 0.16666666666666669
1072 122 -0.083333333333333343
1073 122 -0.16666666666666669
1115 122 -0.083333333333333287
1117 122 -0.16666666666666669
1118 122 -0.083333333333333343
1119 122 -0.083333333333333315
1120 122 0.16666666666666669
1122 122 -0.083333333333333343
1165 122 -0.083333333333333329
123 123 2.666666666666667
124 123 -0.33333333333333337
138 123 -0.33333333333333337
1071 123 -0.083333333333333343
1072 123 -0.083333333333333343
1073 123 0.16666666666666669
1075 123 -0.083333333333333343
1076 123 -0.16666666666666669
1118 123 -0.083333333333333287
1120 123 -0.16666666666666669
1121 123 -0.083333333333333343
1122 123 -0.083333333333333315
1123 123 0.16666666666666669
1125 123 -0.083333333333333343
1168 123 -0.083333333333333329
124 124 2.666666666666667
125 124 -0.33333333333333337
139 124 -0.33333333333333337
1074 124 -0.083333333333333343
1075 124 -0.083333333333333343
1076 124 0.16666666666666669
1078 124 -0.083333333333333343
1079 124 -0.16666666666666669
1121 124 -0.083333333333333287
1123 124 -0.16666666666666669
1124 124 -0.083333333333333343
1125 124 -0.083333333333333315
1126 124 0.16666666666666669
1128 124 -0.083333333333333343
1171 124 -0.083333333333333329
125 125 2.666666666666667
126 125 -0.33333333333333337
140 125 -0.33333333333333337
1077 125 -0.083333333333333343
1078 125 -0.083333333333333343
1079 125 0.16666666666666669
1081 125 -0.083333333333333343
1082 125 -0.16666666666666669
1124 125 -0.083333333333333287
1126 125 -0.16666666666666669
1127 125 -0.083333333333333343
1128 125 -0.083333333333333315
1129 125 0.16666666666666669
1131 125 -0.083333333333333343
1174 125 -0.083333333333333329
126 126 2.666666666666667
127 126 -0.33333333333333337
141 126 -0.33333333333333337
1080 126 -0.083333333333333343
1081 126 -0.083333333333333343
1082 126 0.16666666666666669
1084 126 -0.083333333333333343
1085 126 -0.16666666666666669
1127 126 -0.083333333333333287
1129 126 -0.16666666666666669
1130 126 -0.083333333333333343
1131 126 -0.083333333333333315
1132 126 0.16666666666666669
1134 126 -0.083333333333333343
1177 126 -0.083333333333333329
127 127 2.666666666666667
128 127 -0.33333333333333337
142 127 -0.33333333333333337
1083 127 -0.083333333333333343
1084 127 -0.083333333333333343
1085 127 0.16666666666666669
1087 127 -0.083333333333333343
1088 127 -0.16666666666666669
1130 127 -0.083333333333333287
1132 127 -0.16666666666666669
1133 127 -0.083333333333333343
1134 127 -0.083333333333333315
1135 127 0.16666666666666669
1137 127 -0.083333333333333343
1180 127 -0.083333333333333329
128 128 2.666666666666667
129 128 -0.33333333333333337
143 128 -0.33333333333333337
1086 128 -0.083333333333333343
1087 128 -0.083333333333333343
1088 128 0.16666666666666669
1090 128 -0.083333333333333343
1091 128 -0.16666666666666669
1133 128 -0.083333333333333287
1135 128 -0.16666666666666669
1136 128 -0.083333333333333343
1137 128 -0.083333333333333315
1138 128 0.16666666666666669
1140 128 -0.083333333333333343
1183 128 -0.083333333333333329
129 129 2.666666666666667
130 129 -0.33333333333333337
144 129 -0.33333333333333337
1089 129 -0.083333333333333343
1090 129 -0.083333333333333343
1091 129 0.16666666666666669
1093 129 -0.083333333333333343
1094 129 -0.16666666666666669
1136 129 -0.083333333333333287
1138 129 -0.16666666666666669
1139 129 -0.083333333333333343
1140 129 -0.083333333333333315
1141 129 0.16666666666666669
1143 129 -0.083333333333333343
1186 129 -0.083333333333333329
130 130 2.666666666666667
131 130 -0.33333333333333337
145 130 -0.33333333333333337
1092 130 -0.083333333333333343
1093 130 -0.083333333333333343
1094 130 0.16666666666666669
1096 130 -0.083333333333333343
1097 130 -0.16666666666666669
1139 130 -0.083333333333333287
1141 130 -0.16666666666666669
1142 130 -0.083333333333333343
1143 130 -0.083333333333333315
1144 130 0.16666666666666669
1146 130 -0.083333333333333343
1189 130 -0.083333333333333329
131 131 2.666666666666667
132 131 -0.33333333333333337
146 131 -0.33333333333333337
1095 131 -0.083333333333333343
1096 131 -0.083333333333333343
1097 131 0.16666666666666669
1099 131 -0.083333333333333343
1100 131 -0.16666666666666669
1142 131 -0.083333333333333287
1144 131 -0.16666666666666669
1145 131 -0.083333333333333343
1146 131 -0.083333333333333315
1147 131 0.16666666666666669
1149 131 -0.083333333333333343
1192 131 -0.083333333333333329
132 132 2.666666666666667
133 132 -0.33333333333333337
147 132 -0.33333333333333337
1098 132 -0.083333333333333343
1099 132 -0.083333333333333343
1100 132 0.16666666666666669
1102 132 -0.083333333333333343
1103 132 -0.16666666666666669
1145 132 -0.083333333333333287
1147 132 -0.16666666666666669
1148 132 -0.083333333333333343
1149 132 -0.083333333333333315
1150 132 0.16666666666666669
1152 132 -0.083333333333333343
1195 132 -0.083333333333333329
133 133 2.666666666666667
134 133 -0.33333333333333337
148 133 -0.33333333333333337
1101 133 -0.083333333333333343
1102 133 -0.083333333333333343
1103 133 0.16666666666666669
1105 133 -0.083333333333333343
1106 133 -0.16666666666666669
1148 133 -0.083333333333333287
1150 133 -0.16666666666666669
1151 133 -0.083333333333333343
1152 133 -0.083333333333333315
1153 133 0.16666666666666669
1155 133 -0.083333333333333343
1198 133 -0.083333333333333329
134 134 2.666666666666667
135 134 -0.33333333333333337
149 134 -0.33333333333333337
1104 134 -0.083333333333333343
1105 134 -0.083333333333333343
1106 134 0.16666666666666669
1108 134 -0.083333333333333343
1109 134 -0.16666666666666669
1151 134 -0.083333333333333287
1153 134 -0.16666666666666669
1154 134 -0.083333333333333343
1155 134 -0.083333333333333315
1156 134 0.16666666666666669
1158 134 -0.083333333333333343
1201 134 -0.083333333333333329
135 135 2.666666666666667
150 135 -0.33333333333333337
1107 135 -0.083333333333333343
1108 135 -0.083333333333333343
1109 135 0.16666666666666669
1111 135 -0.083333333333333343
1112 135 -0.16666666666666669
1154 135 -0.083333333333333287
1156 135 -0.16666666666666669
1157 135 -0.083333333333333343
1158 135 -0.083333333333333315
1159 135 0.16666666666666669
1204 135 -0.083333333333333329
136 136 2.666666666666667
137 136 -0.33333333333333337
151 136 -0.33333333333333337
1113 136 -0.083333333333333343
1114 136 0.16666666666666669
1116 136 -0.083333333333333343
1117 136 -0.16666666666666669
1160 136 -0.083333333333333287
1161 136 -0.16666666666666669
1162 136 -0.083333333333333343
1163 136 -0.083333333333333315
1164 136 0.16666666666666669
1166 136 -0.083333333333333343
1209 136 -0.083333333333333329
137 137 2.666666666666667
138 137 -0.33333333333333337
152 137 -0.33333333333333337
1115 137 -0.083333333333333343
1116 137 -0.083333333333333343
1117 137 0.16666666666666669
1119 137 -0.083333333333333343
1120 137 -0.16666666666666669
1162 137 -0.083333333333333287
1164 137 -0.16666666666666669
1165 137 -0.083333333333333343
1166 137 -0.083333333333333315
1167 137 0.16666666666666669
1169 137 -0.083333333333333343
1212 137 -0.083333333333333329
138 138 2.666666666666667
139 138 -0.33333333333333337
153 138 -0.33333333333333337
1118 138 -0.083333333333333343
1119 138 -0.083333333333333343
1120 138 0.16666666666666669
1122 138 -0.083333333333333343
1123 138 -0.16666666666666669
1165 138 -0.083333333333333287
1167 138 -0.16666666666666669
1168 138 -0.083333333333333343
1169 138 -0.083333333333333315
1170 138 0.16666666666666669
1172 138 -0.083333333333333343
1215 138 -0.083333333333333329
139 139 2.666666666666667
140 139 -0.33333333333333337
154 139 -0.33333333333333337
1121 139 -0.083333333333333343
1122 139 -0.083333333333333343
1123 139 0.16666666666666669
1125 139 -0.083333333333333343
1126 139 -0.16666666666666669
1168 139 -0.083333333333333287
1170 139 -0.16666666666666669
1171 139 -0.083333333333333343
1172 139 -0.083333333333333315
1173 139 0.16666666666666669
1175 139 -0.083333333333333343
1218 139 -0.083333333333333329
140 140 2.666666666666667
141 140 -0.33333333333333337
155 140 -0.33333333333333337
1124 140 -0.083333333333333343
1125 140 -0.083333333333333343
1126 140 0.16666666666666669
1128 140 -0.083333333333333343
1129 140 -0.16666666666666669
1171 140 -0.083333333333333287
1173 140 -0.16666666666666669
1174 140 -0.083333333333333343
1175 140 -0.083333333333333315
1176 140 0.16666666666666669
1178 140 -0.083333333333333343
1221 140 -0.083333333333333329
141 141 2.666666666666667
142 141 -0.33333333333333337
156 141 -0.33333333333333337
1127 141 -0.083333333333333343
1128 141 -0.083333333333333343
1129 141 0.16666666666666669
1131 141 -0.083333333333333343
1132 141 -0.16666666666666669
1174 141 -0.083333333333333287
1176 141 -0.16666666666666669
1177 141 -0.083333333333333343
1178 141 -0.083333333333333315
1179 141 0.16666666666666669
1181 141 -0.083333333333333343
1224 141 -0.083333333333333329
142 142 2.666666666666667
143 142 -0.33333333333333337
157 142 -0.33333333333333337
1130 142 -0.083333333333333343
1131 142 -0.083333333333333343
1132 142 0.16666666666666669
1134 142 -0.083333333333333343
1135 142 -0.16666666666666669
1177 142 -0.083333333333333287
1179 142 -0.16666666666666669
1180 142 -0.083333333333333343
1181 142 -0.083333333333333315
1182 142 0.16666666666666669
1184 142 -0.083333333333333343
1227 142 -0.083333333333333329
143 143 2.666666666666667
144 143 -0.33333333333333337
158 143 -0.33333333333333337
1133 143 -0.083333333333333343
1134 143 -0.083333333333333343
1135 143 0.16666666666666669
1137 143 -0.083333333333333343
1138 143 -0.16666666666666669
1180 143 -0.083333333333333287
1182 143 -0.16666666666666669
1183 143 -0.083333333333333343
1184 143 -0.083333333333333315
1185 143 0.16666666666666669
1187 143 -0.083333333333333343
1230 143 -0.083333333333333329
144 144 2.666666666666667
145 144 -0.33333333333333337
159 144 -0.33333333333333337
1136 144 -0.083333333333333343
1137 144 -0.083333333333333343
1138 144 0.16666666666666669
1140 144 -0.083333333333333343
1141 144 -0.16666666666666669
1183 144 -0.083333333333333287
1185 144 -0.16666666666666669
1186 144 -0.083333333333333343
1187 144 -0.083333333333333315
1188 144 0.16666666666666669
1190 144 -0.083333333333333343
1233 144 -0.083333333333333329
145 145 2.666666666666667
146 145 -0.33333333333333337
160 145 -0.33333333333333337
1139 145 -0.083333333333333343
1140 145 -0.083333333333333343
1141 145 0.16666666666666669
1143 145 -0.083333333333333343
1144 145 -0.16666666666666669
1186 145 -0.083333333333333287
1188 145 -0.16666666666666669
1189 145 -0.083333333333333343
1190 145 -0.083333333333333315
1191 145 0.16666666666666669
1193 145 -0.083333333333333343
1236 145 -0.083333333333333329
146 146 2.666666666666667
147 146 -0.33333333333333337
161 146 -0.33333333333333337
1142 146 -0.083333333333333343
1143 146 -0.083333333333333343
1144 146 0.16666666666666669
1146 146 -0.083333333333333343
1147 146 -0.16666666666666669
1189 146 -0.083333333333333287
1191 146 -0.16666666666666669
1192 146 -0.083333333333333343
1193 146 -0.083333333333333315
1194 146 0.16666666666666669
1196 146 -0.083333333333333343
1239 146 -0.083333333333333329
147 147 2.666666666666667
148 147 -0.33333333333333337
162 147 -0.33333333333333337
1145 147 -0.083333333333333343
1146 147 -0.083333333333333343
1147 147 0.16666666666666669
1149 147 -0.083333333333333343
1150 147 -0.16666666666666669
1192 147 -0.083333333333333287
1194 147 -0.16666666666666669
1195 147 -0.083333333333333343
1196 147 -0.083333333333333315
1197 147 0.16666666666666669
1199 147 -0.083333333333333343
1242 147 -0.083333333333333329
148 148 2.666666666666667
149 148 -0.33333333333333337
163 148 -0.33333333333333337
1148 148 -0.083333333333333343
1149 148 -0.083333333333333343
1150 148 0.16666666666666669
1152 148 -0.083333333333333343
1153 148 -0.16666666666666669
1195 148 -0.083333333333333287
1197 148 -0.16666666666666669
1198 148 -0.083333333333333343
1199 148 -0.083333333333333315
1200 148 0.16666666666666669
1202 148 -0.083333333333333343
1245 148 -0.083333333333333329
149 149 2.666666666666667
150 149 -0.33333333333333337
164 149 -0.33333333333333337
1151 149 -0.083333333333333343
1152 149 -0.083333333333333343
1153 149 0.16666666666666669
1155 149 -0.083333333333333343
1156 149 -0.16666666666666669
1198 149 -0.083333333333333287
1200 149 -0.16666666666666669
1201 149 -0.083333333333333343
1202 149 -0.083333333333333315
1203 149 0.16666666666666669
1205 149 -0.083333333333333343
1248 149 -0.083333333333333329
150 150 2.666666666666667
165 150 -0.33333333333333337
1154 150 -0.083333333333333343
1155 150 -0.083333333333333343
1156 150 0.16666666666666669
1158 150 -0.083333333333333343
1159 150 -0.16666666666666669
1201 150 -0.083333333333333287
1203 150 -0.16666666666666669
1204 150 -0.083333333333333343
1205 150 -0.083333333333333315
1206 150 0.16666666666666669
1251 150 -0.083333333333333329
151 151 2.666666666666667
152 151 -0.33333333333333337
166 151 -0.33333333333333337
1160 151 -0.083333333333333343
1161 151 0.16666666666666669
1163 151 -0.083333333333333343
1164 151 -0.16666666666666669
1207 151 -0.083333333333333287
1208 151 -0.16666666666666669
1209 151 -0.083333333333333343
1210 151 -0.083333333333333315
1211 151 0.16666666666666669
1213 151 -0.083333333333333343
1256 151 -0.083333333333333329
152 152 2.666666666666667
153 152 -0.33333333333333337
167 152 -0.33333333333333337
1162 152 -0.083333333333333343
1163 152 -0.083333333333333343
1164 152 0.16666666666666669
1166 152 -0.083333333333333343
1167 152 -0.16666666666666669
1209 152 -0.083333333333333287
1211 152 -0.16666666666666669
1212 152 -0.083333333333333343
1213 152 -0.083333333333333315
1214 152 0.16666666666666669
1216 152 -0.083333333333333343
1259 152 -0.083333333333333329
153 153 2.666666666666667
154 153 -0.33333333333333337
168 153 -0.33333333333333337
1165 153 -0.083333333333333343
1166 153 -0.083333333333333343
1167 153 0.16666666666666669
1169 153 -0.083333333333333343
1170 153 -0.16666666666666669
1212 153 -0.083333333333333287
1214 153 -0.16666666666666669
1215 153 -0.083333333333333343
1216 153 -0.083333333333333315
1217 153 0.16666666666666669
1219 153 -0.083333333333333343
1262 153 -0.083333333333333329
154 154 2.666666666666667
155 154 -0.33333333333333337
169 154 -0.33333333333333337
1168 154 -0.083333333333333343
1169 154 -0.083333333333333343
1170 154 0.16666666666666669
1172 154 -0.083333333333333343
1173 154 -0.16666666666666669
1215 154 -0.083333333333333287
1217 154 -0.16666666666666669
1218 154 -0.083333333333333343
1219 154 -0.083333333333333315
1220 154 0.16666666666666669
1222 154 -0.083333333333333343
1265 154 -0.083333333333333329
155 155 2.666666666666667
156 155 -0.33333333333333337
170 155 -0.33333333333333337
1171 155 -0.083333333333333343
1172 155 -0.083333333333333343
1173 155 0.16666666666666669
1175 155 -0.083333333333333343
1176 155 -0.16666666666666669
1218 155 -0.083333333333333287
1220 155 -0.16666666666666669
1221 155 -0.083333333333333343
1222 155 -0.083333333333333315
1223 155 0.16666666666666669
1225 155 -0.083333333333333343
1268 155 -0.083333333333333329
156 156 2.666666666666667
157 156 -0.33333333333333337
171 156 -0.33333333333333337
1174 156 -0.083333333333333343
1175 156 -0.083333333333333343
1176 156 0.16666666666666669
1178 156 -0.083333333333333343
1179 156 -0.16666666666666669
1221 156 -0.083333333333333287
1223 156 -0.16666666666666669
1224 156 -0.083333333333333343
1225 156 -0.083333333333333315
1226 156 0.16666666666666669
1228 156 -0.083333333333333343
1271 156 -0.083333333333333329
157 157 2.666666666666667
158 157 -0.33333333333333337
172 157 -0.33333333333333337
1177 157 -0.083333333333333343
1178 157 -0.083333333333333343
1179 157 0.16666666666666669
1181 157 -0.083333333333333343
1182 157 -0.16666666666666669
1224 157 -0.083333333333333287
1226 157 -0.16666666666666669
1227 157 -0.083333333333333343
1228 157 -0.083333333333333315
1229 157 0.16666666666666669
1231 157 -0.083333333333333343
1274 157 -0.083333333333333329
158 158 2.666666666666667
159 158 -0.33333333333333337
173 158 -0.33333333333333337
1180 158 -0.083333333333333343
1181 158 -0.083333333333333343
1182 158 0.16666666666666669
1184 158 -0.083333333333333343
1185 158 -0.16666666666666669
1227 158 -0.083333333333333287
1229 158 -0.16666666666666669
1230 158 -0.083333333333333343
1231 158 -0.083333333333333315
1232 158 0.16666666666666669
1234 158 -0.083333333333333343
1277 158 -0.083333333333333329
159 159 2.666666666666667
160 159 -0.33333333333333337
174 159 -0.33333333333333337
1183 159 -0.083333333333333343
1184 159 -0.083333333333333343
1185 159 0.16666666666666669
1187 159 -0.083333333333333343
1188 159 -0.16666666666666669
1230 159 -0.083333333333333287
1232 159 -0.16666666666666669
1233 159 -0.083333333333333343
1234 159 -0.083333333333333315
1235 159 0.16666666666666669
1237 159 -0.083333333333333343
1280 159 -0.083333333333333329
160 160 2.666666666666667
161 160 -0.33333333333333337
175 160 -0.33333333333333337
1186 160 -0.083333333333333343
1187 160 -0.083333333333333343
1188 160 0.16666666666666669
1190 160 -0.083333333333333343
1191 160 -0.16666666666666669
1233 160 -0.083333333333333287
1235 160 -0.16666666666666669
1236 160 -0.083333333333333343
1237 160 -0.083333333333333315
1238 160 0.16666666666666669
1240 160 -0.083333333333333343
1283 160 -0.083333333333333329
161 161 2.666666666666667
162 161 -0.33333333333333337
176 161 -0.33333333333333337
1189 161 -0.083333333333333343
1190 161 -0.083333333333333343
1191 161 0.16666666666666669
1193 161 -0.083333333333333343
1194 161 -0.16666666666666669
1236 161 -0.083333333333333287
1238 161 -0.16666666666666669
1239 161 -0.083333333333333343
1240 161 -0.083333333333333315
1241 161 0.16666666666666669
1243 161 -0.083333333333333343
1286 161 -0.083333333333333329
162 162 2.666666666666667
163 162 -0.33333333333333337
177 162 -0.33333333333333337
1192 162 -0.083333333333333343
1193 162 -0.083333333333333343
1194 162 0.16666666666666669
1196 162 -0.083333333333333343
1197 162 -0.16666666666666669
1239 162 -0.083333333333333287
1241 162 -0.16666666666666669
1242 162 -0.083333333333333343
1243 162 -0.083333333333333315
1244 162 0.16666666666666669
1246 162 -0.083333333333333343
1289 162 -0.083333333333333329
163 163 2.666666666666667
164 163 -0.33333333333333337
178 163 -0.33333333333333337
1195 163 -0.083333333333333343
1196 163 -0.083333333333333343
1197 163 0.16666666666666669
1199 163 -0.083333333333333343
1200 163 -0.16666666666666669
1242 163 -0.083333333333333287
1244 163 -0.16666666666666669
1245 163 -0.083333333333333343
1246 163 -0.083333333333333315
1247 163 0.16666666666666669
1249 163 -0.083333333333333343
1292 163 -0.083333333333333329
164 164 2.666666666666667
165 164 -0.33333333333333337
179 164 -0.33333333333333337
1198 164 -0.083333333333333343
1199 164 -0.083333333333333343
1200 164 0.16666666666666669
1202 164 -0.083333333333333343
1203 164 -0.16666666666666669
1245 164 -0.083333333333333287
1247 164 -0.16666666666666669
1248 164 -0.083333333333333343
1249 164 -0.083333333333333315
1250 164 0.16666666666666669
1252 164 -0.083333333333333343
1295 164 -0.083333333333333329
165 165 2.666666666666667
180 165 -0.33333333333333337
1201 165 -0.083333333333333343
1202 165 -0.083333333333333343
1203 165 0.16666666666666669
1205 165 -0.083333333333333343
1206 165 -0.16666666666666669
1248 165 -0.083333333333333287
1250 165 -0.16666666666666669
1251 165 -0.083333333333333343
1252 165 -0.083333333333333315
1253 165 0.16666666666666669
1298 165 -0.083333333333333329
166 166 2.666666666666667
167 166 -0.33333333333333337
181 166 -0.33333333333333337
1207 166 -0.083333333333333343
1208 166 0.16666666666666669
1210 166 -0.083333333333333343
1211 166 -0.16666666666666669
1254 166 -0.083333333333333287
1255 166 -0.16666666666666669
1256 166 -0.083333333333333343
1257 166 -0.083333333333333315
1258 166 0.16666666666666669
1260 166 -0.083333333333333343
1303 166 -0.083333333333333329
167 167 2.666666666666667
168 167 -0.33333333333333337
182 167 -0.33333333333333337
1209 167 -0.083333333333333343
1210 167 -0.083333333333333343
1211 167 0.16666666666666669
1213 167 -0.083333333333333343
1214 167 -0.16666666666666669
1256 167 -0.083333333333333287
1258 167 -0.16666666666666669
1259 167 -0.083333333333333343
1260 167 -0.083333333333333315
1261 167 0.16666666666666669
1263 167 -0.083333333333333343
1306 167 -0.083333333333333329
168 168 2.666666666666667
169 168 -0.33333333333333337
183 168 -0.33333333333333337
1212 168 -0.083333333333333343
1213 168 -0.083333333333333343
1214 168 0.16666666666666669
1216 168 -0.083333333333333343
1217 168 -0.16666666666666669
1259 168 -0.083333333333333287
1261 168 -0.16666666666666669
1262 168 -0.083333333333333343
1263 168 -0.083333333333333315
1264 168 0.16666666666666669
1266 168 -0.083333333333333343
1309 168 -0.083333333333333329
169 169 2.666666666666667
170 169 -0.33333333333333337
184 169 -0.33333333333333337
1215 169 -0.083333333333333343
1216 169 -0.083333333333333343
1217 169 0.16666666666666669
1219 169 -0.083333333333333343
1220 169 -0.16666666666666669
1262 169 -0.083333333333333287
1264 169 -0.16666666666666669
1265 169 -0.083333333333333343
1266 169 -0.083333333333333315
1267 169 0.16666666666666669
1269 169 -0.083333333333333343
1312 169 -0.083333333333333329
170 170 2.666666666666667
171 170 -0.33333333333333337
185 170 -0.33333333333333337
1218 170 -0.083333333333333343
1219 170 -0.083333333333333343
1220 170 0.16666666666666669
1222 170 -0.083333333333333343
1223 170 -0.16666666666666669
1265 170 -0.083333333333333287
1267 170 -0.16666666666666669
1268 170 -0.083333333333333343
1269 170 -0.083333333333333315
1270 170 0.16666666666666669
1272 170 -0.083333333333333343
1315 170 -0.083333333333333329
171 171 2.666666666666667
172 171 -0.33333333333333337
186 171 -0.33333333333333337
1221 171 -0.083333333333333343
1222 171 -0.083333333333333343
1223 171 0.16666666666666669
1225 171 -0.083333333333333343
1226 171 -0.16666666666666669
1268 171 -0.083333333333333287
1270 171 -0.16666666666666669
1271 171 -0.083333333333333343
1272 171 -0.083333333333333315
1273 171 0.16666666666666669
1275 171 -0.083333333333333343
1318 171 -0.083333333333333329
172 172 2.666666666666667
173 172 -0.33333333333333337
187 172 -0.33333333333333337
1224 172 -0.083333333333333343
1225 172 -0.083333333333333343
1226 172 0.16666666666666669
1228 172 -0.083333333333333343
1229 172 -0.16666666666666669
1271 172 -0.083333333333333287
1273 172 -0.16666666666666669
1274 172 -0.083333333333333343
1275 172 -0.083333333333333315
1276 172 0.16666666666666669
1278 172 -0.083333333333333343
1321 172 -0.083333333333333329
173 173 2.666666666666667
174 173 -0.33333333333333337
188 173 -0.33333333333333337
1227 173 -0.083333333333333343
1228 173 -0.083333333333333343
1229 173 0.16666666666666669
1231 173 -0.083333333333333343
1232 173 -0.16666666666666669
1274 173 -0.083333333333333287
1276 173 -0.16666666666666669
1277 173 -0.083333333333333343
1278 173 -0.083333333333333315
1279 173 0.16666666666666669
1281 173 -0.083333333333333343
1324 173 -0.083333333333333329
174 174 2.666666666666667
175 174 -0.33333333333333337
189 174 -0.33333333333333337
1230 174 -0.083333333333333343
1231 174 -0.083333333333333343
1232 174 0.16666666666666669
1234 174 -0.083333333333333343
1235 174 -0.16666666666666669
1277 174 -0.083333333333333287
1279 174 -0.16666666666666669
1280 174 -0.083333333333333343
1281 174 -0.083333333333333315
1282 174 0.16666666666666669
1284 174 -0.083333333333333343
1327 174 -0.083333333333333329
175 175 2.666666666666667
176 175 -0.33333333333333337
190 175 -0.33333333333333337
1233 175 -0.083333333333333343
1234 175 -0.083333333333333343
1235 175 0.16666666666666669
1237 175 -0.083333333333333343
1238 175 -0.16666666666666669
1280 175 -0.083333333333333287
1282 175 -0.16666666666666669
1283 175 -0.083333333333333343
1284 175 -0.083333333333333315
1285 175 0.16666666666666669
1287 175 -0.083333333333333343
1330 175 -0.083333333333333329
176 176 2.666666666666667
177 176 -0.33333333333333337
191 176 -0.33333333333333337
1236 176 -0.083333333333333343
1237 176 -0.083333333333333343
1238 176 0.16666666666666669
1240 176 -0.083333333333333343
1241 176 -0.16666666666666669
1283 176 -0.083333333333333287
1285 176 -0.16666666666666669
1286 176 -0.083333333333333343
1287 176 -0.083333333333333315
1288 176 0.16666666666666669
1290 176 -0.083333333333333343
1333 176 -0.083333333333333329
177 177 2.666666666666667
178 177 -0.33333333333333337
192 177 -0.33333333333333337
1239 177 -0.083333333333333343
1240 177 -0.083333333333333343
1241 177 0.16666666666666669
1243 177 -0.083333333333333343
1244 177 -0.16666666666666669
1286 177 -0.083333333333333287
1288 177 -0.16666666666666669
1289 177 -0.083333333333333343
1290 177 -0.083333333333333315
1291 177 0.16666666666666669
1293 177 -0.083333333333333343
1336 177 -0.083333333333333329
178 178 2.666666666666667
179 178 -0.33333333333333337
193 178 -0.33333333333333337
1242 178 -0.083333333333333343
1243 178 -0.083333333333333343
1244 178 0.16666666666666669
1246 178 -0.083333333333333343
1247 178 -0.16666666666666669
1289 178 -0.083333333333333287
1291 178 -0.16666666666666669
1292 178 -0.083333333333333343
1293 178 -0.083333333333333315
1294 178 0.16666666666666669
1296 178 -0.083333333333333343
1339 178 -0.083333333333333329
179 179 2.666666666666667
180 179 -0.33333333333333337
194 179 -0.33333333333333337
1245 179 -0.083333333333333343
1246 179 -0.083333333333333343
1247 179 0.16666666666666669
1249 179 -0.083333333333333343
1250 179 -0.16666666666666669
1292 179 -0.083333333333333287
1294 179 -0.16666666666666669
1295 179 -0.083333333333333343
1296 179 -0.083333333333333315
1297 179 0.16666666666666669
1299 179 -0.083333333333333343
1342 179 -0.083333333333333329
180 180 2.666666666666667
195 180 -0.33333333333333337
1248 180 -0.083333333333333343
1249 180 -0.083333333333333343
1250 180 0.16666666666666669
1252 180 -0.083333333333333343
1253 180 -0.16666666666666669
1295 180 -0.083333333333333287
1297 180 -0.16666666666666669
1298 180 -0.083333333333333343
1299 180 -0.083333333333333315
1300 180 0.16666666666666669
1345 180 -0.083333333333333329
181 181 2.666666666666667
182 181 -0.33333333333333337
196 181 -0.33333333333333337
1254 181 -0.083333333333333343
1255 181 0.16666666666666669
1257 181 -0.083333333333333343
1258 181 -0.16666666666666669
1301 181 -0.083333333333333287
1302 181 -0.16666666666666669
1303 181 -0.083333333333333343
1304 181 -0.083333333333333315
1305 181 0.16666666666666669
1307 181 -0.083333333333333343
1350 181 -0.083333333333333329
182 182 2.666666666666667
183 182 -0.33333333333333337
197 182 -0.33333333333333337
1256 182 -0.083333333333333343
1257 182 -0.083333333333333343
1258 182 0.16666666666666669
1260 182 -0.083333333333333343
1261 182 -0.16666666666666669
1303 182 -0.083333333333333287
1305 182 -0.16666666666666669
1306 182 -0.083333333333333343
1307 182 -0.083333333333333315
1308 182 0.16666666666666669
1310 182 -0.083333333333333343
1353 182 -0.083333333333333329
183 183 2.666666666666667
184 183 -0.33333333333333337
198 183 -0.33333333333333337
1259 183 -0.083333333333333343
1260 183 -0.083333333333333343
1261 183 0.16666666666666669
1263 183 -0.083333333333333343
1264 183 -0.16666666666666669
1306 183 -0.083333333333333287
1308 183 -0.16666666666666669
1309 183 -0.083333333333333343
1310 183 -0.083333333333333315
1311 183 0.16666666666666669
1313 183 -0.083333333333333343
1356 183 -0.083333333333333329
184 184 2.666666666666667
185 184 -0.33333333333333337
199 184 -0.33333333333333337
1262 184 -0.083333333333333343
1263 184 -0.083333333333333343
1264 184 0.16666666666666669
1266 184 -0.083333333333333343
1267 184 -0.16666666666666669
1309 184 -0.083333333333333287
1311 184 -0.16666666666666669
1312 184 -0.083333333333333343
1313 184 -0.083333333333333315
1314 184 0.16666666666666669
1316 184 -0.083333333333333343
1359 184 -0.083333333333333329
185 185 2.666666666666667
186 185 -0.33333333333333337
200 185 -0.33333333333333337
1265 185 -0.083333333333333343
1266 185 -0.083333333333333343
1267 185 0.16666666666666669
1269 185 -0.083333333333333343
1270 185 -0.16666666666666669
1312 185 -0.083333333333333287
1314 185 -0.16666666666666669
1315 185 -0.083333333333333343
1316 185 -0.083333333333333315
1317 185 0.16666666666666669
1319 185 -0.083333333333333343
1362 185 -0.083333333333333329
186 186 2.666666666666667
187 186 -0.33333333333333337
201 186 -0.33333333333333337
1268 186 -0.083333333333333343
1269 186 -0.083333333333333343
1270 186 0.16666666666666669
1272 186 -0.083333333333333343
1273 186 -0.16666666666666669
1315 186 -0.083333333333333287
1317 186 -0.16666666666666669
1318 186 -0.083333333333333343
1319 186 -0.083333333333333315
1320 186 0.16666666666666669
1322 186 -0.083333333333333343
1365 186 -0.083333333333333329
187 187 2.666666666666667
188 187 -0.33333333333333337
202 187 -0.33333333333333337
1271 187 -0.083333333333333343
1272 187 -0.083333333333333343
1273 187 0.16666666666666669
1275 187 -0.083333333333333343
1276 187 -0.16666666666666669
1318 187 -0.083333333333333287
1320 187 -0.16666666666666669
1321 187 -0.083333333333333343
1322 187 -0.083333333333333315
1323 187 0.16666666666666669
1325 187 -0.083333333333333343
1368 187 -0.083333333333333329
188 188 2.666666666666667
189 188 -0.33333333333333337
203 188 -0.33333333333333337
1274 188 -0.083333333333333343
1275 188 -0.083333333333333343
1276 188 0.16666666666666669
1278 188 -0.083333333333333343
1279 188 -0.16666666666666669
1321 188 -0.083333333333333287
1323 188 -0.16666666666666669
1324 188 -0.083333333333333343
1325 188 -0.083333333333333315
1326 188 0.16666666666666669
1328 188 -0.083333333333333343
1371 188 -0.083333333333333329
189 189 2.666666666666667
190 189 -0.33333333333333337
204 189 -0.33333333333333337
1277 189 -0.083333333333333343
1278 189 -0.083333333333333343
1279 189 0.16666666666666669
1281 189 -0.083333333333333343
1282 189 -0.16666666666666669
1324 189 -0.083333333333333287
1326 189 -0.16666666666666669
1327 189 -0.083333333333333343
1328 189 -0.083333333333333315
1329 189 0.16666666666666669
1331 189 -0.083333333333333343
1374 189 -0.083333333333333329
190 190 2.666666666666667
191 190 -0.33333333333333337
205 190 -0.33333333333333337
1280 190 -0.083333333333333343
1281 190 -0.083333333333333343
1282 190 0.16666666666666669
1284 190 -0.083333333333333343
1285 190 -0.16666666666666669
1327 190 -0.083333333333333287
1329 190 -0.16666666666666669
1330 190 -0.083333333333333343
1331 190 -0.083333333333333315
1332 190 0.16666666666666669
1334 190 -0.083333333333333343
1377 190 -0.083333333333333329
191 191 2.666666666666667
192 191 -0.33333333333333337
206 191 -0.33333333333333337
1283 191 -0.083333333333333343
1284 191 -0.083333333333333343
1285 191 0.16666666666666669
1287 191 -0.083333333333333343
1288 191 -0.16666666666666669
1330 191 -0.083333333333333287
1332 191 -0.16666666666666669
1333 191 -0.083333333333333343
1334 191 -0.083333333333333315
1335 191 0.16666666666666669
1337 191 -0.083333333333333343
1380 191 -0.083333333333333329
192 192 2.666666666666667
193 192 -0.33333333333333337
207 192 -0.33333333333333337
1286 192 -0.083333333333333343
1287 192 -0.083333333333333343
1288 192 0.16666666666666669
1290 192 -0.083333333333333343
1291 192 -0.16666666666666669
1333 192 -0.083333333333333287
1335 192 -0.16666666666666669
1336 192 -0.083333333333333343
1337 192 -0.083333333333333315
1338 192 0.16666666666666669
1340 192 -0.083333333333333343
1383 192 -0.083333333333333329
193 193 2.666666666666667
194 193 -0.33333333333333337
208 193 -0.33333333333333337
1289 193 -0.083333333333333343
1290 193 -0.083333333333333343
1291 193 0.16666666666666669
1293 193 -0.083333333333333343
1294 193 -0.16666666666666669
1336 193 -0.083333333333333287
1338 193 -0.16666666666666669
1339 193 -0.083333333333333343
1340 193 -0.083333333333333315
1341 193 0.16666666666666669
1343 193 -0.083333333333333343
1386 193 -0.083333333333333329
194 194 2.666666666666667
195 194 -0.33333333333333337
209 194 -0.33333333333333337
1292 194 -0.083333333333333343
1293 194 -0.083333333333333343
1294 194 0.16666666666666669
1296 194 -0.083333333333333343
1297 194 -0.16666666666666669
1339 194 -0.083333333333333287
1341 194 -0.16666666666666669
1342 194 -0.083333333333333343
1343 194 -0.083333333333333315
1344 194 0.16666666666666669
1346 194 -0.083333333333333343
1389 194 -0.083333333333333329
195 195 2.666666666666667
210 195 -0.33333333333333337
1295 195 -0.083333333333333343
1296 195 -0.083333333333333343
1297 195 0.16666666666666669
1299 195 -0.083333333333333343
1300 195 -0.16666666666666669
1342 195 -0.083333333333333287
1344 195 -0.16666666666666669
1345 195 -0.083333333333333343
1346 195 -0.083333333333333315
1347 195 0.16666666666666669
1392 195 -0.083333333333333329
196 196 2.666666666666667
197 196 -0.33333333333333337
211 196 -0.33333333333333337
1301 196 -0.083333333333333343
1302 196 0.16666666666666669
1304 196 -0.083333333333333343
1305 196 -0.16666666666666669
1348 196 -0.083333333333333287
1349 196 -0.16666666666666669
1350 196 -0.083333333333333343
1351 196 -0.083333333333333315
1352 196 0.16666666666666669
1354 196 -0.083333333333333343
1397 196 -0.083333333333333329
197 197 2.666666666666667
198 197 -0.33333333333333337
212 197 -0.33333333333333337
1303 197 -0.083333333333333343
1304 197 -0.083333333333333343
1305 197 0.16666666666666669
1307 197 -0.083333333333333343
1308 197 -0.16666666666666669
1350 197 -0.083333333333333287
1352 197 -0.16666666666666669
1353 197 -0.083333333333333343
1354 197 -0.083333333333333315
1355 197 0.16666666666666669
1357 197 -0.083333333333333343
1400 197 -0.083333333333333329
198 198 2.666666666666667
199 198 -0.33333333333333337
213 198 -0.33333333333333337
1306 198 -0.083333333333333343
1307 198 -0.083333333333333343
1308 198 0.16666666666666669
1310 198 -0.083333333333333343
1311 198 -0.16666666666666669
1353 198 -0.083333333333333287
1355 198 -0.16666666666666669
1356 198 -0.083333333333333343
1357 198 -0.083333333333333315
1358 198 0.16666666666666669
1360 198 -0.083333333333333343
1403 198 -0.083333333333333329
199 199 2.666666666666667
200 199 -0.33333333333333337
214 199 -0.33333333333333337
1309 199 -0.083333333333333343
1310 199 -0.083333333333333343
1311 199 0.16666666666666669
1313 199 -0.083333333333333343
1314 199 -0.16666666666666669
1356 199 -0.083333333333333287
1358 199 -0.16666666666666669
1359 199 -0.083333333333333343
1360 199 -0.083333333333333315
1361 199 0.16666666666666669
1363 199 -0.083333333333333343
1406 199 -0.083333333333333329
200 200 2.666666666666667
201 200 -0.33333333333333337
215 200 -0.33333333333333337
1312 200 -0.083333333333333343
1313 200 -0.083333333333333343
1314 200 0.16666666666666669
1316 200 -0.083333333333333343
1317 200 -0.16666666666666669
1359 200 -0.083333333333333287
1361 200 -0.16666666666666669
1362 200 -0.083333333333333343
1363 200 -0.083333333333333315
1364 200 0.16666666666666669
1366 200 -0.083333333333333343
1409 200 -0.083333333333333329
201 201 2.666666666666667
202 201 -0.33333333333333337
216 201 -0.33333333333333337
1315 201 -0.083333333333333343
1316 201 -0.083333333333333343
1317 201 0.16666666666666669
1319 201 -0.083333333333333343
1320 201 -0.16666666666666669
1362 201 -0.083333333333333287
1364 201 -0.16666666666666669
1365 201 -0.083333333333333343
1366 201 -0.083333333333333315
1367 201 0.16666666666666669
1369 201 -0.083333333333333343
1412 201 -0.083333333333333329
202 202 2.666666666666667
203 202 -0.33333333333333337
217 202 -0.33333333333333337
1318 202 -0.083333333333333343
1319 202 -0.083333333333333343
1320 202 0.16666666666666669
1322 202 -0.083333333333333343
1323 202 -0.16666666666666669
1365 202 -0.083333333333333287
1367 202 -0.16666666666666669
1368 202 -0.083333333333333343
1369 202 -0.083333333333333315
1370 202 0.16666666666666669
1372 202 -0.083333333333333343
1415 202 -0.083333333333333329
203 203 2.666666666666667
204 203 -0.33333333333333337
218 203 -0.33333333333333337
1321 203 -0.083333333333333343
1322 203 -0.083333333333333343
1323 203 0.16666666666666669
1325 203 -0.083333333333333343
1326 203 -0.16666666666666669
1368 203 -0.083333333333333287
1370 203 -0.16666666666666669
1371 203 -0.083333333333333343
1372 203 -0.083333333333333315
1373 203 0.16666666666666669
1375 203 -0.083333333333333343
1418 203 -0.083333333333333329
204 204 2.666666666666667
205 204 -0.33333333333333337
219 204 -0.33333333333333337
1324 204 -0.083333333333333343
1325 204 -0.083333333333333343
1326 204 0.16666666666666669
1328 204 -0.083333333333333343
1329 204 -0.16666666666666669
1371 204 -0.083333333333333287
1373 204 -0.16666666666666669
1374 204 -0.083333333333333343
1375 204 -0.083333333333333315
1376 204 0.16666666666666669
1378 204 -0.083333333333333343
1421 204 -0.083333333333333329
205 205 2.666666666666667
206 205 -0.33333333333333337
220 205 -0.33333333333333337
1327 205 -0.083333333333333343
1328 205 -0.083333333333333343
1329 205 0.16666666666666669
1331 205 -0.083333333333333343
1332 205 -0.16666666666666669
1374 205 -0.083333333333333287
1376 205 -0.16666666666666669
1377 205 -0.083333333333333343
1378 205 -0.083333333333333315
1379 205 0.16666666666666669
1381 205 -0.083333333333333343
1424 205 -0.083333333333333329
206 206 2.666666666666667
207 206 -0.33333333333333337
221 206 -0.33333333333333337
1330 206 -0.083333333333333343
1331 206 -0.083333333333333343
1332 206 0.16666666666666669
1334 206 -0.083333333333333343
1335 206 -0.16666666666666669
1377 206 -0.083333333333333287
1379 206 -0.16666666666666669
1380 206 -0.083333333333333343
1381 206 -0.083333333333333315
1382 206 0.16666666666666669
1384 206 -0.083333333333333343
1427 206 -0.083333333333333329
207 207 2.666666666666667
208 207 -0.33333333333333337
222 207 -0.33333333333333337
1333 207 -0.083333333333333343
1334 207 -0.083333333333333343
1335 207 0.16666666666666669
1337 207 -0.083333333333333343
1338 207 -0.16666666666666669
1380 207 -0.083333333333333287
1382 207 -0.16666666666666669
1383 207 -0.083333333333333343
1384 207 -0.083333333333333315
1385 207 0.16666666666666669
1387 207 -0.083333333333333343
1430 207 -0.083333333333333329
208 208 2.666666666666667
209 208 -0.33333333333333337
223 208 -0.33333333333333337
1336 208 -0.083333333333333343
1337 208 -0.083333333333333343
1338 208 0.16666666666666669
1340 208 -0.083333333333333343
1341 208 -0.16666666666666669
1383 208 -0.083333333333333287
1385 208 -0.16666666666666669
1386 208 -0.083333333333333343
1387 208 -0.083333333333333315
1388 208 0.16666666666666669
1390 208 -0.083333333333333343
1433 208 -0.083333333333333329
209 209 2.666666666666667
210 209 -0.33333333333333337
224 209 -0.33333333333333337
1339 209 -0.083333333333333343
1340 209 -0.083333333333333343
1341 209 0.16666666666666669
1343 209 -0.083333333333333343
1344 209 -0.16666666666666669
1386 209 -0.083333333333333287
1388 209 -0.16666666666666669
1389 209 -0.083333333333333343
1390 209 -0.083333333333333315
1391 209 0.16666666666666669
1393 209 -0.083333333333333343
1436 209 -0.083333333333333329
210 210 2.666666666666667
225 210 -0.33333333333333337
1342 210 -0.083333333333333343
1343 210 -0.083333333333333343
1344 210 0.16666666666666669
1346 210 -0.083333333333333343
1347 210 -0.16666666666666669
1389 210 -0.083333333333333287
1391 210 -0.16666666666666669
1392 210 -0.083333333333333343
1393 210 -0.083333333333333315
1394 210 0.16666666666666669
1439 210 -0.083333333333333329
211 211 2.666666666666667
212 211 -0.33333333333333337
226 211 -0.33333333333333337
1348 211 -0.083333333333333343
1349 211 0.16666666666666669
1351 211 -0.083333333333333343
1352 211 -0.16666666666666669
1395 211 -0.083333333333333287
1396 211 -0.16666666666666669
1397 211 -0.083333333333333343
1398 211 -0.083333333333333315
1399 211 0.16666666666666669
1401 211 -0.083333333333333343
1444 211 -0.083333333333333329
212 212 2.666666666666667
213 212 -0.33333333333333337
227 212 -0.33333333333333337
1350 212 -0.083333333333333343
1351 212 -0.083333333333333343
1352 212 0.16666666666666669
1354 212 -0.083333333333333343
1355 212 -0.16666666666666669
1397 212 -0.083333333333333287
1399 212 -0.16666666666666669
1400 212 -0.083333333333333343
1401 212 -0.083333333333333315
1402 212 0.16666666666666669
1404 212 -0.083333333333333343
1447 212 -0.083333333333333329
213 213 2.666666666666667
214 213 -0.33333333333333337
228 213 -0.33333333333333337
1353 213 -0.083333333333333343
1354 213 -0.083333333333333343
1355 213 0.16666666666666669
1357 213 -0.083333333333333343
1358 213 -0.16666666666666669
1400 213 -0.083333333333333287
1402 213 -0.16666666666666669
1403 213 -0.083333333333333343
1404 213 -0.083333333333333315
1405 213 0.16666666666666669
1407 213 -0.083333333333333343
1450 213 -0.083333333333333329
214 214 2.666666666666667
215 214 -0.33333333333333337
229 214 -0.33333333333333337
1356 214 -0.083333333333333343
1357 214 -0.083333333333333343
1358 214 0.16666666666666669
1360 214 -0.083333333333333343
1361 214 -0.16666666666666669
1403 214 -0.083333333333333287
1405 214 -0.16666666666666669
1406 214 -0.083333333333333343
1407 214 -0.083333333333333315
1408 214 0.16666666666666669
1410 214 -0.083333333333333343
1453 214 -0.083333333333333329
215 215 2.666666666666667
216 215 -0.33333333333333337
230 215 -0.33333333333333337
1359 215 -0.083333333333333343
1360 215 -0.083333333333333343
1361 215 0.16666666666666669
1363 215 -0.083333333333333343
1364 215 -0.16666666666666669
1406 215 -0.083333333333333287
1408 215 -0.16666666666666669
1409 215 -0.083333333333333343
1410 215 -0.083333333333333315
1411 215 0.16666666666666669
1413 215 -0.083333333333333343
1456 215 -0.083333333333333329
216 216 2.666666666666667
217 216 -0.33333333333333337
231 216 -0.33333333333333337
1362 216 -0.083333333333333343
1363 216 -0.083333333333333343
1364 216 0.16666666666666669
1366 216 -0.083333333333333343
1367 216 -0.16666666666666669
1409 216 -0.083333333333333287
1411 216 -0.16666666666666669
1412 216 -0.083333333333333343
1413 216 -0.083333333333333315
1414 216 0.16666666666666669
1416 216 -0.083333333333333343
1459 216 -0.083333333333333329
217 217 2.666666666666667
218 217 -0.33333333333333337
232 217 -0.33333333333333337
1365 217 -0.083333333333333343
1366 217 -0.083333333333333343
1367 217 0.16666666666666669
1369 217 -0.083333333333333343
1370 217 -0.16666666666666669
1412 217 -0.083333333333333287
1414 217 -0.16666666666666669
1415 217 -0.083333333333333343
1416 217 -0.083333333333333315
1417 217 0.16666666666666669
1419 217 -0.083333333333333343
1462 217 -0.083333333333333329
218 218 2.666666666666667
219 218 -0.33333333333333337
233 218 -0.33333333333333337
1368 218 -0.083333333333333343
1369 218 -0.083333333333333343
1370 218 0.16666666666666669
1372 218 -0.083333333333333343
1373 218 -0.16666666666666669
1415 218 -0.083333333333333287
1417 218 -0.16666666666666669
1418 218 -0.083333333333333343
1419 218 -0.083333333333333315
1420 218 0.16666666666666669
1422 218 -0.083333333333333343
1465 218 -0.083333333333333329
219 219 2.666666666666667
220 219 -0.33333333333333337
234 219 -0.33333333333333337
1371 219 -0.083333333333333343
1372 219 -0.083333333333333343
1373 219 0.16666666666666669
1375 219 -0.083333333333333343
1376 219 -0.16666666666666669
1418 219 -0.083333333333333287
1420 219 -0.16666666666666669
1421 219 -0.083333333333333343
1422 219 -0.083333333333333315
1423 219 0.16666666666666669
1425 219 -0.083333333333333343
1468 219 -0.083333333333333329
220 220 2.666666666666667
221 220 -0.33333333333333337
235 220 -0.33333333333333337
1374 220 -0.083333333333333343
1375 220 -0.083333333333333343
1376 220 0.16666666666666669
1378 220 -0.083333333333333343
1379 220 -0.16666666666666669
1421 220 -0.083333333333333287
1423 220 -0.16666666666666669
1424 220 -0.083333333333333343
1425 220 -0.083333333333333315
1426 220 0.16666666666666669
1428 220 -0.083333333333333343
1471 220 -0.083333333333333329
221 221 2.666666666666667
222 221 -0.33333333333333337
236 221 -0.33333333333333337
1377 221 -0.083333333333333343
1378 221 -0.083333333333333343
1379 221 0.16666666666666669
1381 221 -0.083333333333333343
1382 221 -0.16666666666666669
1424 221 -0.083333333333333287
1426 221 -0.16666666666666669
1427 221 -0.083333333333333343
1428 221 -0.083333333333333315
1429 221 0.16666666666666669
1431 221 -0.083333333333333343
1474 221 -0.083333333333333329
222 222 2.666666666666667
223 222 -0.33333333333333337
237 222 -0.33333333333333337
1380 222 -0.083333333333333343
1381 222 -0.083333333333333343
1382 222 0.16666666666666669
1384 222 -0.083333333333333343
1385 222 -0.16666666666666669
1427 222 -0.083333333333333287
1429 222 -0.16666666666666669
1430 222 -0.083333333333333343
1431 222 -0.083333333333333315
1432 222 0.16666666666666669
1434 222 -0.083333333333333343
1477 222 -0.083333333333333329
223 223 2.666666666666667
224 223 -0.33333333333333337
238 223 -0.33333333333333337
1383 223 -0.083333333333333343
1384 223 -0.083333333333333343
1385 223 0.16666666666666669
1387 223 -0.083333333333333343
1388 223 -0.16666666666666669
1430 223 -0.083333333333333287
1432 223 -0.16666666666666669
1433 223 -0.083333333333333343
1434 223 -0.083333333333333315
1435 223 0.16666666666666669
1437 223 -0.083333333333333343
1480 223 -0.083333333333333329
224 224 2.666666666666667
225 224 -0.33333333333333337
239 224 -0.33333333333333337
1386 224 -0.083333333333333343
1387 224 -0.083333333333333343
1388 224 0.16666666666666669
1390 224 -0.083333333333333343
1391 224 -0.16666666666666669
1433 224 -0.083333333333333287
1435 224 -0.16666666666666669
1436 224 -0.083333333333333343
1437 224 -0.083333333333333315
1438 224 0.16666666666666669
1440 224 -0.083333333333333343
1483 224 -0.083333333333333329
225 225 2.666666666666667
240 225 -0.33333333333333337
1389 225 -0.083333333333333343
1390 225 -0.083333333333333343
1391 225 0.16666666666666669
1393 225 -0.083333333333333343
1394 225 -0.16666666666666669
1436 225 -0.083333333333333287
1438 225 -0.16666666666666669
1439 225 -0.083333333333333343
1440 225 -0.083333333333333315
1441 225 0.16666666666666669
1486 225 -0.083333333333333329
226 226 2.666666666666667
227 226 -0.33333333333333337
241 226 -0.33333333333333337
1395 226 -0.083333333333333343
1396 226 0.16666666666666669
1398 226 -0.083333333333333343
1399 226 -0.16666666666666669
1442 226 -0.083333333333333287
1443 226 -0.16666666666666669
1444 226 -0.083333333333333343
1445 226 -0.083333333333333315
1446 226 0.16666666666666669
1448 226 -0.083333333333333343
1523 226 -0.083333333333333329
227 227 2.666666666666667
228 227 -0.33333333333333337
242 227 -0.33333333333333337
1397 227 -0.083333333333333343
1398 227 -0.083333333333333343
1399 227 0.16666666666666669
1401 227 -0.083333333333333343
1402 227 -0.16666666666666669
1444 227 -0.083333333333333287
1446 227 -0.16666666666666669
1447 227 -0.083333333333333343
1448 227 -0.083333333333333315
1449 227 0.16666666666666669
1451 227 -0.083333333333333343
1526 227 -0.083333333333333329
228 228 2.666666666666667
229 228 -0.33333333333333337
243 228 -0.33333333333333337
1400 228 -0.083333333333333343
1401 228 -0.083333333333333343
1402 228 0.16666666666666669
1404 228 -0.083333333333333343
1405 228 -0.16666666666666669
1447 228 -0.083333333333333287
1449 228 -0.16666666666666669
1450 228 -0.083333333333333343
1451 228 -0.083333333333333315
1452 228 0.16666666666666669
1454 228 -0.083333333333333343
1529 228 -0.083333333333333329
229 229 2.666666666666667
230 229 -0.33333333333333337
244 229 -0.33333333333333337
1403 229 -0.083333333333333343
1404 229 -0.083333333333333343
1405 229 0.16666666666666669
1407 229 -0.083333333333333343
1408 229 -0.16666666666666669
1450 229 -0.083333333333333287
1452 229 -0.16666666666666669
1453 229 -0.083333333333333343
1454 229 -0.083333333333333315
1455 229 0.16666666666666669
1457 229 -0.083333333333333343
1532 229 -0.083333333333333329
230 230 2.666666666666667
231 230 -0.33333333333333337
245 230 -0.33333333333333337
1406 230 -0.083333333333333343
1407 230 -0.083333333333333343
1408 230 0.16666666666666669
1410 230 -0.083333333333333343
1411 230 -0.16666666666666669
1453 230 -0.083333333333333287
1455 230 -0.16666666666666669
1456 230 -0.083333333333333343
1457 230 -0.083333333333333315
1458 230 0.16666666666666669
1460 230 -0.083333333333333343
1535 230 -0.083333333333333329
231 231 2.666666666666667
232 231 -0.33333333333333337
246 231 -0.33333333333333337
1409 231 -0.083333333333333343
1410 231 -0.083333333333333343
1411 231 0.16666666666666669
1413 231 -0.083333333333333343
1414 231 -0.16666666666666669
1456 231 -0.083333333333333287
1458 231 -0.16666666666666669
1459 231 -0.083333333333333343
1460 231 -0.083333333333333315
1461 231 0.16666666666666669
1463 231 -0.083333333333333343
1538 231 -0.083333333333333329
232 232 2.666666666666667
233 232 -0.33333333333333337
247 232 -0.33333333333333337
1412 232 -0.083333333333333343
1413 232 -0.083333333333333343
1414 232 0.16666666666666669
1416 232 -0.083333333333333343
1417 232 -0.16666666666666669
1459 232 -0.083333333333333287
1461 232 -0.16666666666666669
1462 232 -0.083333333333333343
1463 232 -0.083333333333333315
1464 232 0.16666666666666669
1466 232 -0.083333333333333343
1541 232 -0.083333333333333329
233 233 2.666666666666667
234 233 -0.33333333333333337
248 233 -0.33333333333333337
1415 233 -0.083333333333333343
1416 233 -0.083333333333333343
1417 233 0.16666666666666669
1419 233 -0.083333333333333343
1420 233 -0.16666666666666669
1462 233 -0.083333333333333287
1464 233 -0.16666666666666669
1465 233 -0.083333333333333343
1466 233 -0.083333333333333315
1467 233 0.16666666666666669
1469 233 -0.083333333333333343
1544 233 -0.083333333333333329
234 234 2.666666666666667
235 234 -0.33333333333333337
249 234 -0.33333333333333337
1418 234 -0.083333333333333343
1419 234 -0.083333333333333343
1420 234 0.16666666666666669
1422 234 -0.083333333333333343
1423 234 -0.16666666666666669
1465 234 -0.083333333333333287
1467 234 -0.16666666666666669
1468 234 -0.083333333333333343
1469 234 -0.083333333333333315
1470 234 0.16666666666666669
1472 234 -0.083333333333333343
1547 234 -0.083333333333333329
235 235 2.666666666666667
236 235 -0.33333333333333337
250 235 -0.33333333333333337
1421 235 -0.083333333333333343
1422 235 -0.083333333333333343
1423 235 0.16666666666666669
1425 235 -0.083333333333333343
1426 235 -0.16666666666666669
1468 235 -0.083333333333333287
1470 235 -0.16666666666666669
1471 235 -0.083333333333333343
1472 235 -0.083333333333333315
1473 235 0.16666666666666669
1475 235 -0.083333333333333343
1550 235 -0.083333333333333329
236 236 2.666666666666667
237 236 -0.33333333333333337
251 236 -0.33333333333333337
1424 236 -0.083333333333333343
1425 236 -0.083333333333333343
1426 236 0.16666666666666669
1428 236 -0.083333333333333343
1429 236 -0.16666666666666669
1471 236 -0.083333333333333287
1473 236 -0.16666666666666669
1474 236 -0.083333333333333343
1475 236 -0.083333333333333315
1476 236 0.16666666666666669
1478 236 -0.083333333333333343
1553 236 -0.083333333333333329
237 237 2.666666666666667
238 237 -0.33333333333333337
252 237 -0.33333333333333337
1427 237 -0.083333333333333343
1428 237 -0.083333333333333343
1429 237 0.16666666666666669
1431 237 -0.083333333333333343
1432 237 -0.16666666666666669
1474 237 -0.083333333333333287
1476 237 -0.16666666666666669
1477 237 -0.083333333333333343
1478 237 -0.083333333333333315
1479 237 0.16666666666666669
1481 237 -0.083333333333333343
1556 237 -0.083333333333333329
238 238 2.666666666666667
239 238 -0.33333333333333337
253 238 -0.33333333333333337
1430 238 -0.083333333333333343
1431 238 -0.083333333333333343
1432 238 0.16666666666666669
1434 238 -0.083333333333333343
1435 238 -0.16666666666666669
1477 238 -0.083333333333333287
1479 238 -0.16666666666666669
1480 238 -0.083333333333333343
1481 238 -0.083333333333333315
1482 238 0.16666666666666669
1484 238 -0.083333333333333343
1559 238 -0.083333333333333329
239 239 2.666666666666667
240 239 -0.33333333333333337
254 239 -0.33333333333333337
1433 239 -0.083333333333333343
1434 239 -0.083333333333333343
1435 239 0.16666666666666669
1437 239 -0.083333333333333343
1438 239 -0.16666666666666669
1480 239 -0.083333333333333287
1482 239 -0.16666666666666669
1483 239 -0.083333333333333343
1484 239 -0.083333333333333315
1485 239 0.16666666666666669
1487 239 -0.083333333333333343
1562 239 -0.083333333333333329
240 240 2.666666666666667
255 240 -0.33333333333333337
1436 240 -0.083333333333333343
1437 240 -0.083333333333333343
1438 240 0.16666666666666669
1440 240 -0.083333333333333343
1441 240 -0.16666666666666669
1483 240 -0.083333333333333287
1485 240 -0.16666666666666669
1486 240 -0.083333333333333343
1487 240 -0.083333333333333315
1488 240 0.16666666666666669
1489 240 -0.083333333333333343
1565 240 -0.083333333333333329
241 241 2.666666666666667
242 241 -0.33333333333333337
272 241 -0.33333333333333337
1442 241 -0.083333333333333343
1443 241 0.16666666666666669
1445 241 -0.083333333333333343
1446 241 -0.16666666666666669
1521 241 -0.083333333333333287
1522 241 -0.16666666666666669
1523 241 -0.083333333333333343
1524 241 -0.083333333333333315
1525 241 0.16666666666666669
1527 241 -0.083333333333333343
1618 241 -0.083333333333333329
242 242 2.666666666666667
243 242 -0.33333333333333337
273 242 -0.33333333333333337
1444 242 -0.083333333333333343
1445 242 -0.083333333333333343
1446 242 0.16666666666666669
1448 242 -0.083333333333333343
1449 242 -0.16666666666666669
1523 242 -0.083333333333333287
1525 242 -0.16666666666666669
1526 242 -0.083333333333333343
1527 242 -0.083333333333333315
1528 242 0.16666666666666669
1530 242 -0.083333333333333343
1621 242 -0.083333333333333329
243 243 2.666666666666667
244 243 -0.33333333333333337
274 243 -0.33333333333333337
1447 243 -0.083333333333333343
1448 243 -0.083333333333333343
1449 243 0.16666666666666669
1451 243 -0.083333333333333343
1452 243 -0.16666666666666669
1526 243 -0.083333333333333287
1528 243 -0.16666666666666669
1529 243 -0.083333333333333343
1530 243 -0.083333333333333315
1531 243 0.16666666666666669
1533 243 -0.083333333333333343
1624 243 -0.083333333333333329
244 244 2.666666666666667
245 244 -0.33333333333333337
275 244 -0.33333333333333337
1450 244 -0.083333333333333343
1451 244 -0.083333333333333343
1452 244 0.16666666666666669
1454 244 -0.083333333333333343
1455 244 -0.16666666666666669
1529 244 -0.083333333333333287
1531 244 -0.16666666666666669
1532 244 -0.083333333333333343
1533 244 -0.083333333333333315
1534 244 0.16666666666666669
1536 244 -0.083333333333333343
1627 244 -0.083333333333333329
245 245 2.666666666666667
246 245 -0.33333333333333337
276 245 -0.33333333333333337
1453 245 -0.083333333333333343
1454 245 -0.083333333333333343
1455 245 0.16666666666666669
1457 245 -0.083333333333333343
1458 245 -0.16666666666666669
1532 245 -0.083333333333333287
1534 245 -0.16666666666666669
1535 245 -0.083333333333333343
1536 245 -0.083333333333333315
1537 245 0.16666666666666669
1539 245 -0.083333333333333343
1630 245 -0.083333333333333329
246 246 2.666666666666667
247 246 -0.33333333333333337
277 246 -0.33333333333333337
1456 246 -0.083333333333333343
1457 246 -0.083333333333333343
1458 246 0.16666666666666669
1460 246 -0.083333333333333343
1461 246 -0.16666666666666669
1535 246 -0.083333333333333287
1537 246 -0.16666666666666669
1538 246 -0.083333333333333343
1539 246 -0.083333333333333315
1540 246 0.16666666666666669
1542 246 -0.083333333333333343
1633 246 -0.083333333333333329
247 247 2.666666666666667
248 247 -0.33333333333333337
278 247 -0.33333333333333337
1459 247 -0.083333333333333343
1460 247 -0.083333333333333343
1461 247 0.16666666666666669
1463 247 -0.083333333333333343
1464 247 -0.16666666666666669
1538 247 -0.083333333333333287
1540 247 -0.16666666666666669
1541 247 -0.083333333333333343
1542 247 -0.083333333333333315
1543 247 0.16666666666666669
1545 247 -0.083333333333333343
1636 247 -0.083333333333333329
248 248 2.666666666666667
249 248 -0.33333333333333337
279 248 -0.33333333333333337
1462 248 -0.083333333333333343
1463 248 -0.083333333333333343
1464 248 0.16666666666666669
1466 248 -0.083333333333333343
1467 248 -0.16666666666666669
1541 248 -0.083333333333333287
1543 248 -0.16666666666666669
1544 248 -0.083333333333333343
1545 248 -0.083333333333333315
1546 248 0.16666666666666669
1548 248 -0.083333333333333343
1639 248 -0.083333333333333329
249 249 2.666666666666667
250 249 -0.33333333333333337
280 249 -0.33333333333333337
1465 249 -0.083333333333333343
1466 249 -0.083333333333333343
1467 249 0.16666666666666669
1469 249 -0.083333333333333343
1470 249 -0.16666666666666669
1544 249 -0.083333333333333287
1546 249 -0.16666666666666669
1547 249 -0.083333333333333343
1548 249 -0.083333333333333315
1549 249 0.16666666666666669
1551 249 -0.083333333333333343
1642 249 -0.083333333333333329
250 250 2.666666666666667
251 250 -0.33333333333333337
281 250 -0.33333333333333337
1468 250 -0.083333333333333343
1469 250 -0.083333333333333343
1470 250 0.16666666666666669
1472 250 -0.083333333333333343
1473 250 -0.16666666666666669
1547 250 -0.083333333333333287
1549 250 -0.16666666666666669
1550 250 -0.083333333333333343
1551 250 -0.083333333333333315
1552 250 0.16666666666666669
1554 250 -0.083333333333333343
1645 250 -0.083333333333333329
251 251 2.666666666666667
252 251 -0.33333333333333337
282 251 -0.33333333333333337
1471 251 -0.083333333333333343
1472 251 -0.083333333333333343
1473 251 0.16666666666666669
1475 251 -0.083333333333333343
1476 251 -0.16666666666666669
1550 251 -0.083333333333333287
1552 251 -0.16666666666666669
1553 251 -0.083333333333333343
1554 251 -0.083333333333333315
1555 251 0.16666666666666669
1557 251 -0.083333333333333343
1648 251 -0.083333333333333329
252 252 2.666666666666667
253 252 -0.33333333333333337
283 252 -0.33333333333333337
1474 252 -0.083333333333333343
1475 252 -0.083333333333333343
1476 252 0.16666666666666669
1478 252 -0.083333333333333343
1479 252 -0.16666666666666669
1553 252 -0.083333333333333287
1555 252 -0.16666666666666669
1556 252 -0.083333333333333343
1557 252 -0.083333333333333315
1558 252 0.16666666666666669
1560 252 -0.083333333333333343
1651 252 -0.083333333333333329
253 253 2.666666666666667
254 253 -0.33333333333333337
284 253 -0.33333333333333337
1477 253 -0.083333333333333343
1478 253 -0.083333333333333343
1479 253 0.16666666666666669
1481 253 -0.083333333333333343
1482 253 -0.16666666666666669
1556 253 -0.083333333333333287
1558 253 -0.16666666666666669
1559 253 -0.083333333333333343
1560 253 -0.083333333333333315
1561 253 0.16666666666666669
1563 253 -0.083333333333333343
1654 253 -0.083333333333333329
254 254 2.666666666666667
255 254 -0.33333333333333337
285 254 -0.33333333333333337
1480 254 -0.083333333333333343
1481 254 -0.083333333333333343
1482 254 0.16666666666666669
1484 254 -0.083333333333333343
1485 254 -0.16666666666666669
1559 254 -0.083333333333333287
1561 254 -0.16666666666666669
1562 254 -0.083333333333333343
1563 254 -0.083333333333333315
1564 254 0.16666666666666669
1566 254 -0.083333333333333343
1657 254 -0.083333333333333329
255 255 2.666666666666667
256 255 -0.33333333333333337
286 255 -0.33333333333333337
1483 255 -0.083333333333333343
1484 255 -0.083333333333333343
1485 255 0.16666666666666669
1487 255 -0.083333333333333343
1488 255 -0.16666666666666669
1562 255 -0.083333333333333287
1564 255 -0.16666666666666669
1565 255 -0.083333333333333343
1566 255 -0.083333333333333315
1567 255 0.16666666666666669
1569 255 -0.083333333333333343
1660 255 -0.083333333333333329
256 256 2.666666666666667
257 256 -0.33333333333333337
287 256 -0.33333333333333337
1486 256 -0.083333333333333343
1487 256 -0.083333333333333343
1488 256 0.16666666666666669
1489 256 -0.083333333333333343
1490 256 -0.16666666666666669
1565 256 -0.083333333333333287
1567 256 -0.16666666666666669
1568 256 -0.083333333333333343
1569 256 -0.083333333333333315
1570 256 0.16666666666666669
1572 256 -0.083333333333333343
1663 256 -0.083333333333333329
257 257 2.666666666666667
258 257 -0.33333333333333337
288 257 -0.33333333333333337
1489 257 -0.083333333333333343
1490 257 0.16666666666666669
1491 257 -0.083333333333333343
1492 257 -0.16666666666666669
1568 257 -0.083333333333333287
1570 257 -0.16666666666666669
1571 257 -0.083333333333333343
1572 257 -0.083333333333333315
1573 257 0.16666666666666669
1575 257 -0.083333333333333343
1666 257 -0.083333333333333329
258 258 2.666666666666667
259 258 -0.33333333333333337
289 258 -0.33333333333333337
1491 258 -0.083333333333333343
1492 258 0.16666666666666669
1493 258 -0.083333333333333343
1494 258 -0.16666666666666669
1571 258 -0.083333333333333287
1573 258 -0.16666666666666669
1574 258 -0.083333333333333343
1575 258 -0.083333333333333315
1576 258 0.16666666666666669
1578 258 -0.083333333333333343
1669 258 -0.083333333333333329
259 259 2.666666666666667
260 259 -0.33333333333333337
290 259 -0.33333333333333337
1493 259 -0.083333333333333343
1494 259 0.16666666666666669
1495 259 -0.083333333333333343
1496 259 -0.16666666666666669
1574 259 -0.083333333333333287
1576 259 -0.16666666666666669
1577 259 -0.083333333333333343
1578 259 -0.083333333333333315
1579 259 0.16666666666666669
1581 259 -0.083333333333333343
1672 259 -0.083333333333333329
260 260 2.666666666666667
261 260 -0.33333333333333337
291 260 -0.33333333333333337
1495 260 -0.083333333333333343
1496 260 0.16666666666666669
1497 260 -0.083333333333333343
1498 260 -0.16666666666666669
1577 260 -0.083333333333333287
1579 260 -0.16666666666666669
1580 260 -0.083333333333333343
1581 260 -0.083333333333333315
1582 260 0.16666666666666669
1584 260 -0.083333333333333343
1675 260 -0.083333333333333329
261 261 2.666666666666667
262 261 -0.33333333333333337
292 261 -0.33333333333333337
1497 261 -0.083333333333333343
1498 261 0.16666666666666669
1499 261 -0.083333333333333343
1500 261 -0.16666666666666669
1580 261 -0.083333333333333287
1582 261 -0.16666666666666669
1583 261 -0.083333333333333343
1584 261 -0.083333333333333315
1585 261 0.16666666666666669
1587 261 -0.083333333333333343
1678 261 -0.083333333333333329
262 262 2.666666666666667
263 262 -0.33333333333333337
293 262 -0.33333333333333337
1499 262 -0.083333333333333343
1500 262 0.16666666666666669
1501 262 -0.083333333333333343
1502 262 -0.16666666666666669
1583 262 -0.083333333333333287
1585 262 -0.16666666666666669
1586 262 -0.083333333333333343
1587 262 -0.083333333333333315
1588 262 0.16666666666666669
1590 262 -0.083333333333333343
1681 262 -0.083333333333333329
263 263 2.666666666666667
264 263 -0.33333333333333337
294 263 -0.33333333333333337
1501 263 -0.083333333333333343
1502 263 0.16666666666666669
1503 263 -0.083333333333333343
1504 263 -0.16666666666666669
1586 263 -0.083333333333333287
1588 263 -0.16666666666666669
1589 263 -0.083333333333333343
1590 263 -0.083333333333333315
1591 263 0.16666666666666669
1593 263 -0.083333333333333343
1684 263 -0.083333333333333329
264 264 2.666666666666667
265 264 -0.33333333333333337
295 264 -0.33333333333333337
1503 264 -0.083333333333333343
1504 264 0.16666666666666669
1505 264 -0.083333333333333343
1506 264 -0.16666666666666669
1589 264 -0.083333333333333287
1591 264 -0.16666666666666669
1592 264 -0.083333333333333343
1593 264 -0.083333333333333315
1594 264 0.16666666666666669
1596 264 -0.083333333333333343
1687 264 -0.083333333333333329
265 265 2.666666666666667
266 265 -0.33333333333333337
296 265 -0.33333333333333337
1505 265 -0.083333333333333343
1506 265 0.16666666666666669
1507 265 -0.083333333333333343
1508 265 -0.16666666666666669
1592 265 -0.083333333333333287
1594 265 -0.16666666666666669
1595 265 -0.083333333333333343
1596 265 -0.083333333333333315
1597 265 0.16666666666666669
1599 265 -0.083333333333333343
1690 265 -0.083333333333333329
266 266 2.666666666666667
267 266 -0.33333333333333337
297 266 -0.33333333333333337
1507 266 -0.083333333333333343
1508 266 0.16666666666666669
1509 266 -0.083333333333333343
1510 266 -0.16666666666666669
1595 266 -0.083333333333333287
1597 266 -0.16666666666666669
1598 266 -0.083333333333333343
1599 266 -0.083333333333333315
1600 266 0.16666666666666669
1602 266 -0.083333333333333343
1693 266 -0.083333333333333329
267 267 2.666666666666667
268 267 -0.33333333333333337
298 267 -0.33333333333333337
1509 267 -0.083333333333333343
1510 267 0.16666666666666669
1511 267 -0.083333333333333343
1512 267 -0.16666666666666669
1598 267 -0.083333333333333287
1600 267 -0.16666666666666669
1601 267 -0.083333333333333343
1602 267 -0.083333333333333315
1603 267 0.16666666666666669
1605 267 -0.083333333333333343
1696 267 -0.083333333333333329
268 268 2.666666666666667
269 268 -0.33333333333333337
299 268 -0.33333333333333337
1511 268 -0.083333333333333343
1512 268 0.16666666666666669
1513 268 -0.083333333333333343
1514 268 -0.16666666666666669
1601 268 -0.083333333333333287
1603 268 -0.16666666666666669
1604 268 -0.083333333333333343
1605 268 -0.083333333333333315
1606 268 0.16666666666666669
1608 268 -0.083333333333333343
1699 268 -0.083333333333333329
269 269 2.666666666666667
270 269 -0.33333333333333337
300 269 -0.33333333333333337
1513 269 -0.083333333333333343
1514 269 0.16666666666666669
1515 269 -0.083333333333333343
1516 269 -0.16666666666666669
1604 269 -0.083333333333333287
1606 269 -0.16666666666666669
1607 269 -0.083333333333333343
1608 269 -0.083333333333333315
1609 269 0.16666666666666669
1611 269 -0.083333333333333343
1702 269 -0.083333333333333329
270 270 2.666666666666667
271 270 -0.33333333333333337
301 270 -0.33333333333333337
1515 270 -0.083333333333333343
1516 270 0.16666666666666669
1517 270 -0.083333333333333343
1518 270 -0.16666666666666669
1607 270 -0.083333333333333287
1609 270 -0.16666666666666669
1610 270 -0.083333333333333343
1611 270 -0.083333333333333315
1612 270 0.16666666666666669
1614 270 -0.083333333333333343
1705 270 -0.083333333333333329
271 271 2.666666666666667
302 271 -0.33333333333333337
1517 271 -0.083333333333333343
1518 271 0.16666666666666669
1519 271 -0.083333333333333343
1520 271 -0.16666666666666669
1610 271 -0.083333333333333287
1612 271 -0.16666666666666669
1613 271 -0.083333333333333343
1614 271 -0.083333333333333315
1615 271 0.16666666666666669
1708 271 -0.083333333333333329
272 272 2.666666666666667
273 272 -0.33333333333333337
303 272 -0.33333333333333337
1521 272 -0.083333333333333343
1522 272 0.16666666666666669
1524 272 -0.083333333333333343
1525 272 -0.16666666666666669
1616 272 -0.083333333333333287
1617 272 -0.16666666666666669
1618 272 -0.083333333333333343
1619 272 -0.083333333333333315
1620 272 0.16666666666666669
1622 272 -0.083333333333333343
1713 272 -0.083333333333333329
273 273 2.666666666666667
274 273 -0.33333333333333337
304 273 -0.33333333333333337
1523 273 -0.083333333333333343
1524 273 -0.083333333333333343
1525 273 0.16666666666666669
1527 273 -0.083333333333333343
1528 273 -0.16666666666666669
1618 273 -0.083333333333333287
1620 273 -0.16666666666666669
1621 273 -0.083333333333333343
1622 273 -0.083333333333333315
1623 273 0.16666666666666669
1625 273 -0.083333333333333343
1716 273 -0.083333333333333329
274 274 2.666666666666667
275 274 -0.33333333333333337
305 274 -0.33333333333333337
1526 274 -0.083333333333333343
1527 274 -0.083333333333333343
1528 274 0.16666666666666669
1530 274 -0.083333333333333343
1531 274 -0.16666666666666669
1621 274 -0.083333333333333287
1623 274 -0.16666666666666669
1624 274 -0.083333333333333343
1625 274 -0.083333333333333315
1626 274 0.16666666666666669
1628 274 -0.083333333333333343
1719 274 -0.083333333333333329
275 275 2.666666666666667
276 275 -0.33333333333333337
306 275 -0.33333333333333337
1529 275 -0.083333333333333343
1530 275 -0.083333333333333343
1531 275 0.16666666666666669
1533 275 -0.083333333333333343
1534 275 -0.16666666666666669
1624 275 -0.083333333333333287
1626 275 -0.16666666666666669
1627 275 -0.083333333333333343
1628 275 -0.083333333333333315
1629 275 0.16666666666666669
1631 275 -0.083333333333333343
1722 275 -0.083333333333333329
276 276 2.666666666666667
277 276 -0.33333333333333337
307 276 -0.33333333333333337
1532 276 -0.083333333333333343
1533 276 -0.083333333333333343
1534 276 0.16666666666666669
1536 276 -0.083333333333333343
1537 276 -0.16666666666666669
1627 276 -0.083333333333333287
1629 276 -0.16666666666666669
1630 276 -0.083333333333333343
1631 276 -0.083333333333333315
1632 276 0.16666666666666669
1634 276 -0.083333333333333343
1725 276 -0.083333333333333329
277 277 2.666666666666667
278 277 -0.33333333333333337
308 277 -0.33333333333333337
1535 277 -0.083333333333333343
1536 277 -0.083333333333333343
1537 277 0.16666666666666669
1539 277 -0.083333333333333343
1540 277 -0.16666666666666669
1630 277 -0.083333333333333287
1632 277 -0.16666666666666669
1633 277 -0.083333333333333343
1634 277 -0.083333333333333315
1635 277 0.16666666666666669
1637 277 -0.083333333333333343
1728 277 -0.083333333333333329
278 278 2.666666666666667
279 278 -0.33333333333333337
309 278 -0.33333333333333337
1538 278 -0.083333333333333343
1539 278 -0.083333333333333343
1540 278 0.16666666666666669
1542 278 -0.083333333333333343
1543 278 -0.16666666666666669
1633 278 -0.083333333333333287
1635 278 -0.16666666666666669
1636 278 -0.083333333333333343
1637 278 -0.083333333333333315
1638 278 0.16666666666666669
1640 278 -0.083333333333333343
1731 278 -0.083333333333333329
279 279 2.666666666666667
280 279 -0.33333333333333337
310 279 -0.33333333333333337
1541 279 -0.083333333333333343
1542 279 -0.083333333333333343
1543 279 0.16666666666666669
1545 279 -0.083333333333333343
1546 279 -0.16666666666666669
1636 279 -0.083333333333333287
1638 279 -0.16666666666666669
1639 279 -0.083333333333333343
1640 279 -0.083333333333333315
1641 279 0.16666666666666669
1643 279 -0.083333333333333343
1734 279 -0.083333333333333329
280 280 2.666666666666667
281 280 -0.33333333333333337
311 280 -0.33333333333333337
1544 280 -0.083333333333333343
1545 280 -0.083333333333333343
1546 280 0.16666666666666669
1548 280 -0.083333333333333343
1549 280 -0.16666666666666669
1639 280 -0.083333333333333287
1641 280 -0.16666666666666669
1642 280 -0.083333333333333343
1643 280 -0.083333333333333315
1644 280 0.16666666666666669
1646 280 -0.083333333333333343
1737 280 -0.083333333333333329
281 281 2.666666666666667
282 281 -0.33333333333333337
312 281 -0.33333333333333337
1547 281 -0.083333333333333343
1548 281 -0.083333333333333343
1549 281 0.16666666666666669
1551 281 -0.083333333333333343
1552 281 -0.16666666666666669
1642 281 -0.083333333333333287
1644 281 -0.16666666666666669
1645 281 -0.083333333333333343
1646 281 -0.083333333333333315
1647 281 0.16666666666666669
1649 281 -0.083333333333333343
1740 281 -0.083333333333333329
282 282 2.666666666666667
283 282 -0.33333333333333337
313 282 -0.33333333333333337
1550 282 -0.083333333333333343
1551 282 -0.083333333333333343
1552 282 0.16666666666666669
1554 282 -0.083333333333333343
1555 282 -0.16666666666666669
1645 282 -0.083333333333333287
1647 282 -0.16666666666666669
1648 282 -0.083333333333333343
1649 282 -0.083333333333333315
1650 282 0.16666666666666669
1652 282 -0.083333333333333343
1743 282 -0.083333333333333329
283 283 2.666666666666667
284 283 -0.33333333333333337
314 283 -0.33333333333333337
1553 283 -0.083333333333333343
1554 283 -0.083333333333333343
1555 283 0.16666666666666669
1557 283 -0.083333333333333343
1558 283 -0.16666666666666669
1648 283 -0.083333333333333287
1650 283 -0.16666666666666669
1651 283 -0.083333333333333343
1652 283 -0.083333333333333315
1653 283 0.16666666666666669
1655 283 -0.083333333333333343
1746 283 -0.083333333333333329
284 284 2.666666666666667
285 284 -0.33333333333333337
315 284 -0.33333333333333337
1556 284 -0.083333333333333343
1557 284 -0.083333333333333343
1558 284 0.16666666666666669
1560 284 -0.083333333333333343
1561 284 -0.16666666666666669
1651 284 -0.083333333333333287
1653 284 -0.16666666666666669
1654 284 -0.083333333333333343
1655 284 -0.083333333333333315
1656 284 0.16666666666666669
1658 284 -0.083333333333333343
1749 284 -0.083333333333333329
285 285 2.666666666666667
286 285 -0.33333333333333337
316 285 -0.33333333333333337
1559 285 -0.083333333333333343
1560 285 -0.083333333333333343
1561 285 0.16666666666666669
1563 285 -0.083333333333333343
1564 285 -0.16666666666666669
1654 285 -0.083333333333333287
1656 285 -0.16666666666666669
1657 285 -0.083333333333333343
1658 285 -0.083333333333333315
1659 285 0.16666666666666669
1661 285 -0.083333333333333343
1752 285 -0.083333333333333329
286 286 2.666666666666667
287 286 -0.33333333333333337
317 286 -0.33333333333333337
1562 286 -0.083333333333333343
1563 286 -0.083333333333333343
1564 286 0.16666666666666669
1566 286 -0.083333333333333343
1567 286 -0.16666666666666669
1657 286 -0.083333333333333287
1659 286 -0.16666666666666669
1660 286 -0.083333333333333343
1661 286 -0.083333333333333315
1662 286 0.16666666666666669
1664 286 -0.083333333333333343
1755 286 -0.083333333333333329
287 287 2.666666666666667
288 287 -0.33333333333333337
318 287 -0.33333333333333337
1565 287 -0.083333333333333343
1566 287 -0.083333333333333343
1567 287 0.16666666666666669
1569 287 -0.083333333333333343
1570 287 -0.16666666666666669
1660 287 -0.083333333333333287
1662 287 -0.16666666666666669
1663 287 -0.083333333333333343
1664 287 -0.083333333333333315
1665 287 0.16666666666666669
1667 287 -0.083333333333333343
1758 287 -0.083333333333333329
288 288 2.666666666666667
289 288 -0.33333333333333337
319 288 -0.33333333333333337
1568 288 -0.083333333333333343
1569 288 -0.083333333333333343
1570 288 0.16666666666666669
1572 288 -0.083333333333333343
1573 288 -0.16666666666666669
1663 288 -0.083333333333333287
1665 288 -0.16666666666666669
1666 288 -0.083333333333333343
1667 288 -0.083333333333333315
1668 288 0.16666666666666669
1670 288 -0.083333333333333343
1761 288 -0.083333333333333329
289 289 2.666666666666667
290 289 -0.33333333333333337
320 289 -0.33333333333333337
1571 289 -0.083333333333333343
1572 289 -0.083333333333333343
1573 289 0.16666666666666669
1575 289 -0.083333333333333343
1576 289 -0.16666666666666669
1666 289 -0.083333333333333287
1668 289 -0.16666666666666669
1669 289 -0.083333333333333343
1670 289 -0.083333333333333315
1671 289 0.16666666666666669
1673 289 -0.083333333333333343
1764 289 -0.083333333333333329
290 290 2.666666666666667
291 290 -0.33333333333333337
321 290 -0.33333333333333337
1574 290 -0.083333333333333343
1575 290 -0.083333333333333343
1576 290 0.16666666666666669
1578 290 -0.083333333333333343
1579 290 -0.16666666666666669
1669 290 -0.083333333333333287
1671 290 -0.16666666666666669
1672 290 -0.083333333333333343
1673 290 -0.083333333333333315
1674 290 0.16666666666666669
1676 290 -0.083333333333333343
1767 290 -0.083333333333333329
291 291 2.666666666666667
292 291 -0.33333333333333337
322 291 -0.33333333333333337
1577 291 -0.083333333333333343
1578 291 -0.083333333333333343
1579 291 0.16666666666666669
1581 291 -0.083333333333333343
1582 291 -0.16666666666666669
1672 291 -0.083333333333333287
1674 291 -0.16666666666666669
1675 291 -0.083333333333333343
1676 291 -0.083333333333333315
1677 291 0.16666666666666669
1679 291 -0.083333333333333343
1770 291 -0.083333333333333329
292 292 2.666666666666667
293 292 -0.33333333333333337
323 292 -0.33333333333333337
1580 292 -0.083333333333333343
1581 292 -0.083333333333333343
1582 292 0.16666666666666669
1584 292 -0.083333333333333343
1585 292 -0.16666666666666669
1675 292 -0.083333333333333287
1677 292 -0.16666666666666669
1678 292 -0.083333333333333343
1679 292 -0.083333333333333315
1680 292 0.16666666666666669
1682 292 -0.083333333333333343
1773 292 -0.083333333333333329
293 293 2.666666666666667
294 293 -0.33333333333333337
324 293 -0.33333333333333337
1583 293 -0.083333333333333343
1584 293 -0.083333333333333343
1585 293 0.16666666666666669
1587 293 -0.083333333333333343
1588 293 -0.16666666666666669
1678 293 -0.083333333333333287
1680 293 -0.16666666666666669
1681 293 -0.083333333333333343
1682 293 -0.083333333333333315
1683 293 0.16666666666666669
1685 293 -0.083333333333333343
1776 293 -0.083333333333333329
294 294 2.666666666666667
295 294 -0.33333333333333337
325 294 -0.33333333333333337
1586 294 -0.083333333333333343
1587 294 -0.083333333333333343
1588 294 0.16666666666666669
1590 294 -0.083333333333333343
1591 294 -0.16666666666666669
1681 294 -0.083333333333333287
1683 294 -0.16666666666666669
1684 294 -0.083333333333333343
1685 294 -0.083333333333333315
1686 294 0.16666666666666669
1688 294 -0.083333333333333343
1779 294 -0.083333333333333329
295 295 2.666666666666667
296 295 -0.33333333333333337
326 295 -0.33333333333333337
1589 295 -0.083333333333333343
1590 295 -0.083333333333333343
1591 295 0.16666666666666669
1593 295 -0.083333333333333343
1594 295 -0.16666666666666669
1684 295 -0.083333333333333287
1686 295 -0.16666666666666669
1687 295 -0.083333333333333343
1688 295 -0.083333333333333315
1689 295 0.16666666666666669
1691 295 -0.083333333333333343
1782 295 -0.083333333333333329
296 296 2.666666666666667
297 296 -0.33333333333333337
327 296 -0.33333333333333337
1592 296 -0.083333333333333343
1593 296 -0.083333333333333343
1594 296 0.16666666666666669
1596 296 -0.083333333333333343
1597 296 -0.16666666666666669
1687 296 -0.083333333333333287
1689 296 -0.16666666666666669
1690 296 -0.083333333333333343
1691 296 -0.083333333333333315
1692 296 0.16666666666666669
1694 296 -0.083333333333333343
1785 296 -0.083333333333333329
297 297 2.666666666666667
298 297 -0.33333333333333337
328 297 -0.33333333333333337
1595 297 -0.083333333333333343
1596 297 -0.083333333333333343
1597 297 0.16666666666666669
1599 297 -0.083333333333333343
1600 297 -0.16666666666666669
1690 297 -0.083333333333333287
1692 297 -0.16666666666666669
1693 297 -0.083333333333333343
1694 297 -0.083333333333333315
1695 297 0.16666666666666669
1697 297 -0.083333333333333343
1788 297 -0.083333333333333329
298 298 2.666666666666667
299 298 -0.33333333333333337
329 298 -0.33333333333333337
1598 298 -0.083333333333333343
1599 298 -0.083333333333333343
1600 298 0.16666666666666669
1602 298 -0.083333333333333343
1603 298 -0.16666666666666669
1693 298 -0.083333333333333287
1695 298 -0.16666666666666669
1696 298 -0.083333333333333343
1697 298 -0.083333333333333315
1698 298 0.16666666666666669
1700 298 -0.083333333333333343
1791 298 -0.083333333333333329
299 299 2.666666666666667
300 299 -0.33333333333333337
330 299 -0.33333333333333337
1601 299 -0.083333333333333343
1602 299 -0.083333333333333343
1603 299 0.16666666666666669
1605 299 -0.083333333333333343
1606 299 -0.16666666666666669
1696 299 -0.083333333333333287
1698 299 -0.16666666666666669
1699 299 -0.083333333333333343
1700 299 -0.083333333333333315
1701 299 0.16666666666666669
1703 299 -0.083333333333333343
1794 299 -0.083333333333333329
300 300 2.666666666666667
301 300 -0.33333333333333337
331 300 -0.33333333333333337
1604 300 -0.083333333333333343
1605 300 -0.083333333333333343
1606 300 0.16666666666666669
1608 300 -0.083333333333333343
1609 300 -0.16666666666666669
1699 300 -0.083333333333333287
1701 300 -0.16666666666666669
1702 300 -0.083333333333333343
1703 300 -0.083333333333333315
1704 300 0.16666666666666669
1706 300 -0.083333333333333343
1797 300 -0.083333333333333329
301 301 2.666666666666667
302 301 -0.33333333333333337
332 301 -0.33333333333333337
1607 301 -0.083333333333333343
1608 301 -0.083333333333333343
1609 301 0.16666666666666669
1611 301 -0.083333333333333343
1612 301 -0.16666666666666669
1702 301 -0.083333333333333287
1704 301 -0.16666666666666669
1705 301 -0.083333333333333343
1706 301 -0.083333333333333315
1707 301 0.16666666666666669
1709 301 -0.083333333333333343
1800 301 -0.083333333333333329
302 302 2.666666666666667
333 302 -0.33333333333333337
1610 302 -0.083333333333333343
1611 302 -0.083333333333333343
1612 302 0.16666666666666669
1614 302 -0.083333333333333343
1615 302 -0.16666666666666669
1705 302 -0.083333333333333287
1707 302 -0.16666666666666669
1708 302 -0.083333333333333343
1709 302 -0.083333333333333315
1710 302 0.16666666666666669
1803 302 -0.083333333333333329
303 303 2.666666666666667
304 303 -0.33333333333333337
334 303 -0.33333333333333337
1616 303 -0.083333333333333343
1617 303 0.16666666666666669
1619 303 -0.083333333333333343
1620 303 -0.16666666666666669
1711 303 -0.083333333333333287
1712 303 -0.16666666666666669
1713 303 -0.083333333333333343
1714 303 -0.083333333333333315
1715 303 0.16666666666666669
1717 303 -0.083333333333333343
1808 303 -0.083333333333333329
304 304 2.666666666666667
305 304 -0.33333333333333337
335 304 -0.33333333333333337
1618 304 -0.083333333333333343
1619 304 -0.083333333333333343
1620 304 0.16666666666666669
1622 304 -0.083333333333333343
1623 304 -0.16666666666666669
1713 304 -0.083333333333333287
1715 304 -0.16666666666666669
1716 304 -0.083333333333333343
1717 304 -0.083333333333333315
1718 304 0.16666666666666669
1720 304 -0.083333333333333343
1811 304 -0.083333333333333329
305 305 2.666666666666667
306 305 -0.33333333333333337
336 305 -0.33333333333333337
1621 305 -0.083333333333333343
1622 305 -0.083333333333333343
1623 305 0.16666666666666669
1625 305 -0.083333333333333343
1626 305 -0.16666666666666669
1716 305 -0.083333333333333287
1718 305 -0.16666666666666669
1719 305 -0.083333333333333343
1720 305 -0.083333333333333315
1721 305 0.16666666666666669
1723 305 -0.083333333333333343
1814 305 -0.083333333333333329
306 306 2.666666666666667
307 306 -0.33333333333333337
337 306 -0.33333333333333337
1624 306 -0.083333333333333343
1625 306 -0.083333333333333343
1626 306 0.16666666666666669
1628 306 -0.083333333333333343
1629 306 -0.16666666666666669
1719 306 -0.083333333333333287
1721 306 -0.16666666666666669
1722 306 -0.083333333333333343
1723 306 -0.083333333333333315
1724 306 0.16666666666666669
1726 306 -0.083333333333333343
1817 306 -0.083333333333333329
307 307 2.666666666666667
308 307 -0.33333333333333337
338 307 -0.33333333333333337
1627 307 -0.083333333333333343
1628 307 -0.083333333333333343
1629 307 0.16666666666666669
1631 307 -0.083333333333333343
1632 307 -0.16666666666666669
1722 307 -0.083333333333333287
1724 307 -0.16666666666666669
1725 307 -0.083333333333333343
1726 307 -0.083333333333333315
1727 307 0.16666666666666669
1729 307 -0.083333333333333343
1820 307 -0.083333333333333329
308 308 2.666666666666667
309 308 -0.33333333333333337
339 308 -0.33333333333333337
1630 308 -0.083333333333333343
1631 308 -0.083333333333333343
1632 308 0.16666666666666669
1634 308 -0.083333333333333343
1635 308 -0.16666666666666669
1725 308 -0.083333333333333287
1727 308 -0.16666666666666669
1728 308 -0.083333333333333343
1729 308 -0.083333333333333315
1730 308 0.16666666666666669
1732 308 -0.083333333333333343
1823 308 -0.083333333333333329
309 309 2.666666666666667
310 309 -0.33333333333333337
340 309 -0.33333333333333337
1633 309 -0.083333333333333343
1634 309 -0.083333333333333343
1635 309 0.16666666666666669
1637 309 -0.083333333333333343
1638 309 -0.16666666666666669
1728 309 -0.083333333333333287
1730 309 -0.16666666666666669
1731 309 -0.083333333333333343
1732 309 -0.083333333333333315
1733 309 0.16666666666666669
1735 309 -0.083333333333333343
1826 309 -0.083333333333333329
310 310 2.666666666666667
311 310 -0.33333333333333337
341 310 -0.33333333333333337
1636 310 -0.083333333333333343
1637 310 -0.083333333333333343
1638 310 0.16666666666666669
1640 310 -0.083333333333333343
1641 310 -0.16666666666666669
1731 310 -0.083333333333333287
1733 310 -0.16666666666666669
1734 310 -0.083333333333333343
1735 310 -0.083333333333333315
1736 310 0.16666666666666669
1738 310 -0.083333333333333343
1829 310 -0.083333333333333329
311 311 2.666666666666667
312 311 -0.33333333333333337
342 311 -0.33333333333333337
1639 311 -0.083333333333333343
1640 311 -0.083333333333333343
1641 311 0.16666666666666669
1643 311 -0.083333333333333343
1644 311 -0.16666666666666669
1734 311 -0.083333333333333287
1736 311 -0.16666666666666669
1737 311 -0.083333333333333343
1738 311 -0.083333333333333315
1739 311 0.16666666666666669
1741 311 -0.083333333333333343
1832 311 -0.083333333333333329
312 312 2.666666666666667
313 312 -0.33333333333333337
343 312 -0.33333333333333337
1642 312 -0.083333333333333343
1643 312 -0.083333333333333343
1644 312 0.16666666666666669
1646 312 -0.083333333333333343
1647 312 -0.16666666666666669
1737 312 -0.083333333333333287
1739 312 -0.16666666666666669
1740 312 -0.083333333333333343
1741 312 -0.083333333333333315
1742 312 0.16666666666666669
1744 312 -0.083333333333333343
1835 312 -0.083333333333333329
313 313 2.666666666666667
314 313 -0.33333333333333337
344 313 -0.33333333333333337
1645 313 -0.083333333333333343
1646 313 -0.083333333333333343
1647 313 0.16666666666666669
1649 313 -0.083333333333333343
1650 313 -0.16666666666666669
1740 313 -0.083333333333333287
1742 313 -0.16666666666666669
1743 313 -0.083333333333333343
1744 313 -0.083333333333333315
1745 313 0.16666666666666669
1747 313 -0.083333333333333343
1838 313 -0.083333333333333329
314 314 2.666666666666667
315 314 -0.33333333333333337
345 314 -0.33333333333333337
1648 314 -0.083333333333333343
1649 314 -0.083333333333333343
1650 314 0.16666666666666669
1652 314 -0.083333333333333343
1653 314 -0.16666666666666669
1743 314 -0.083333333333333287
1745 314 -0.16666666666666669
1746 314 -0.083333333333333343
1747 314 -0.083333333333333315
1748 314 0.16666666666666669
1750 314 -0.083333333333333343
1841 314 -0.083333333333333329
315 315 2.666666666666667
316 315 -0.33333333333333337
346 315 -0.33333333333333337
1651 315 -0.083333333333333343
1652 315 -0.083333333333333343
1653 315 0.16666666666666669
1655 315 -0.083333333333333343
1656 315 -0.16666666666666669
1746 315 -0.083333333333333287
1748 315 -0.16666666666666669
1749 315 -0.083333333333333343
1750 315 -0.083333333333333315
1751 315 0.16666666666666669
1753 315 -0.083333333333333343
1844 315 -0.083333333333333329
316 316 2.666666666666667
317 316 -0.33333333333333337
347 316 -0.33333333333333337
1654 316 -0.083333333333333343
1655 316 -0.083333333333333343
1656 316 0.16666666666666669
1658 316 -0.083333333333333343
1659 316 -0.16666666666666669
1749 316 -0.083333333333333287
1751 316 -0.16666666666666669
1752 316 -0.083333333333333343
1753 316 -0.083333333333333315
1754 316 0.16666666666666669
1756 316 -0.083333333333333343
1847 316 -0.083333333333333329
317 317 2.666666666666667
318 317 -0.33333333333333337
348 317 -0.33333333333333337
1657 317 -0.083333333333333343
1658 317 -0.083333333333333343
1659 317 0.16666666666666669
1661 317 -0.083333333333333343
1662 317 -0.16666666666666669
1752 317 -0.083333333333333287
1754 317 -0.16666666666666669
1755 317 -0.083333333333333343
1756 317 -0.083333333333333315
1757 317 0.16666666666666669
1759 317 -0.083333333333333343
1850 317 -0.083333333333333329
318 318 2.666666666666667
319 318 -0.33333333333333337
349 318 -0.33333333333333337
1660 318 -0.083333333333333343
1661 318 -0.083333333333333343
1662 318 0.16666666666666669
1664 318 -0.083333333333333343
1665 318 -0.16666666666666669
1755 318 -0.083333333333333287
1757 318 -0.16666666666666669
1758 318 -0.083333333333333343
1759 318 -0.083333333333333315
1760 318 0.16666666666666669
1762 318 -0.083333333333333343
1853 318 -0.083333333333333329
319 319 2.666666666666667
320 319 -0.33333333333333337
350 319 -0.33333333333333337
1663 319 -0.083333333333333343
1664 319 -0.083333333333333343
1665 319 0.16666666666666669
1667 319 -0.083333333333333343
1668 319 -0.16666666666666669
1758 319 -0.083333333333333287
1760 319 -0.16666666666666669
1761 319 -0.083333333333333343
1762 319 -0.083333333333333315
1763 319 0.16666666666666669
1765 319 -0.083333333333333343
1856 319 -0.083333333333333329
320 320 2.666666666666667
321 320 -0.33333333333333337
351 320 -0.33333333333333337
1666 320 -0.083333333333333343
1667 320 -0.083333333333333343
1668 320 0.16666666666666669
1670 320 -0.083333333333333343
1671 320 -0.16666666666666669
1761 320 -0.083333333333333287
1763 320 -0.16666666666666669
1764 320 -0.083333333333333343
1765 320 -0.083333333333333315
1766 320 0.16666666666666669
1768 320 -0.083333333333333343
1859 320 -0.083333333333333329
321 321 2.666666666666667
322 321 -0.33333333333333337
352 321 -0.33333333333333337
1669 321 -0.083333333333333343
1670 321 -0.083333333333333343
1671 321 0.16666666666666669
1673 321 -0.083333333333333343
1674 321 -0.16666666666666669
1764 321 -0.083333333333333287
1766 321 -0.16666666666666669
1767 321 -0.083333333333333343
1768 321 -0.083333333333333315
1769 321 0.16666666666666669
1771 321 -0.083333333333333343
1862 321 -0.083333333333333329
322 322 2.666666666666667
323 322 -0.33333333333333337
353 322 -0.33333333333333337
1672 322 -0.083333333333333343
1673 322 -0.083333333333333343
1674 322 0.16666666666666669
1676 322 -0.083333333333333343
1677 322 -0.16666666666666669
1767 322 -0.083333333333333287
1769 322 -0.16666666666666669
1770 322 -0.083333333333333343
1771 322 -0.083333333333333315
1772 322 0.16666666666666669
1774 322 -0.083333333333333343
1865 322 -0.083333333333333329
323 323 2.666666666666667
324 323 -0.33333333333333337
354 323 -0.33333333333333337
1675 323 -0.083333333333333343
1676 323 -0.083333333333333343
1677 323 0.16666666666666669
1679 323 -0.083333333333333343
1680 323 -0.16666666666666669
1770 323 -0.083333333333333287
1772 323 -0.16666666666666669
1773 323 -0.083333333333333343
1774 323 -0.083333333333333315
1775 323 0.16666666666666669
1777 323 -0.083333333333333343
1868 323 -0.083333333333333329
324 324 2.666666666666667
325 324 -0.33333333333333337
355 324 -0.33333333333333337
1678 324 -0.083333333333333343
1679 324 -0.083333333333333343
1680 324 0.16666666666666669
1682 324 -0.083333333333333343
1683 324 -0.16666666666666669
1773 324 -0.083333333333333287
1775 324 -0.16666666666666669
1776 324 -0.083333333333333343
1777 324 -0.083333333333333315
1778 324 0.16666666666666669
1780 324 -0.083333333333333343
1871 324 -0.083333333333333329
325 325 2.666666666666667
326 325 -0.33333333333333337
356 325 -0.33333333333333337
1681 325 -0.083333333333333343
1682 325 -0.083333333333333343
1683 325 0.16666666666666669
1685 325 -0.083333333333333343
1686 325 -0.16666666666666669
1776 325 -0.083333333333333287
1778 325 -0.16666666666666669
1779 325 -0.083333333333333343
1780 325 -0.083333333333333315
1781 325 0.16666666666666669
1783 325 -0.083333333333333343
1874 325 -0.083333333333333329
326 326 2.666666666666667
327 326 -0.33333333333333337
357 326 -0.33333333333333337
1684 326 -0.083333333333333343
1685 326 -0.083333333333333343
1686 326 0.16666666666666669
1688 326 -0.083333333333333343
1689 326 -0.16666666666666669
1779 326 -0.083333333333333287
1781 326 -0.16666666666666669
1782 326 -0.083333333333333343
1783 326 -0.083333333333333315
1784 326 0.16666666666666669
1786 326 -0.083333333333333343
1877 326 -0.083333333333333329
327 327 2.666666666666667
328 327 -0.33333333333333337
358 327 -0.33333333333333337
1687 327 -0.083333333333333343
1688 327 -0.083333333333333343
1689 327 0.16666666666666669
1691 327 -0.083333333333333343
1692 327 -0.16666666666666669
1782 327 -0.083333333333333287
1784 327 -0.16666666666666669
1785 327 -0.083333333333333343
1786 327 -0.083333333333333315
1787 327 0.16666666666666669
1789 327 -0.083333333333333343
1880 327 -0.083333333333333329
328 328 2.666666666666667
329 328 -0.33333333333333337
359 328 -0.33333333333333337
1690 328 -0.083333333333333343
1691 328 -0.083333333333333343
1692 328 0.16666666666666669
1694 328 -0.083333333333333343
1695 328 -0.16666666666666669
1785 328 -0.083333333333333287
1787 328 -0.16666666666666669
1788 328 -0.083333333333333343
1789 328 -0.083333333333333315
1790 328 0.16666666666666669
1792 328 -0.083333333333333343
1883 328 -0.083333333333333329
329 329 2.666666666666667
330 329 -0.33333333333333337
360 329 -0.33333333333333337
1693 329 -0.083333333333333343
1694 329 -0.083333333333333343
1695 329 0.16666666666666669
1697 329 -0.083333333333333343
1698 329 -0.16666666666666669
1788 329 -0.083333333333333287
1790 329 -0.16666666666666669
1791 329 -0.083333333333333343
1792 329 -0.083333333333333315
1793 329 0.16666666666666669
1795 329 -0.083333333333333343
1886 329 -0.083333333333333329
330 330 2.666666666666667
331 330 -0.33333333333333337
361 330 -0.33333333333333337
1696 330 -0.083333333333333343
1697 330 -0.083333333333333343
1698 330 0.16666666666666669
1700 330 -0.083333333333333343
1701 330 -0.16666666666666669
1791 330 -0.083333333333333287
1793 330 -0.16666666666666669
1794 330 -0.083333333333333343
1795 330 -0.083333333333333315
1796 330 0.16666666666666669
1798 330 -0.083333333333333343
1889 330 -0.083333333333333329
331 331 2.666666666666667
332 331 -0.33333333333333337
362 331 -0.33333333333333337
1699 331 -0.083333333333333343
1700 331 -0.083333333333333343
1701 331 0.16666666666666669
1703 331 -0.083333333333333343
1704 331 -0.16666666666666669
1794 331 -0.083333333333333287
1796 331 -0.16666666666666669
1797 331 -0.083333333333333343
1798 331 -0.083333333333333315
1799 331 0.16666666666666669
1801 331 -0.083333333333333343
1892 331 -0.083333333333333329
332 332 2.666666666666667
333 332 -0.33333333333333337
363 332 -0.33333333333333337
1702 332 -0.083333333333333343
1703 332 -0.083333333333333343
1704 332 0.16666666666666669
1706 332 -0.083333333333333343
1707 332 -0.16666666666666669
1797 332 -0.083333333333333287
1799 332 -0.16666666666666669
1800 332 -0.083333333333333343
1801 332 -0.083333333333333315
1802 332 0.16666666666666669
1804 332 -0.083333333333333343
1895 332 -0.083333333333333329
333 333 2.666666666666667
364 333 -0.33333333333333337
1705 333 -0.083333333333333343
1706 333 -0.083333333333333343
1707 333 0.16666666666666669
1709 333 -0.083333333333333343
1710 333 -0.16666666666666669
1800 333 -0.083333333333333287
1802 333 -0.16666666666666669
1803 333 -0.083333333333333343
1804 333 -0.083333333333333315
1805 333 0.16666666666666669
1898 333 -0.083333333333333329
334 334 2.666666666666667
335 334 -0.33333333333333337
365 334 -0.33333333333333337
1711 334 -0.083333333333333343
1712 334 0.16666666666666669
1714 334 -0.083333333333333343
1715 334 -0.16666666666666669
1806 334 -0.083333333333333287
1807 334 -0.16666666666666669
1808 334 -0.083333333333333343
1809 334 -0.083333333333333315
1810 334 0.16666666666666669
1812 334 -0.083333333333333343
1903 334 -0.083333333333333329
335 335 2.666666666666667
336 335 -0.33333333333333337
366 335 -0.33333333333333337
1713 335 -0.083333333333333343
1714 335 -0.083333333333333343
1715 335 0.16666666666666669
1717 335 -0.083333333333333343
1718 335 -0.16666666666666669
1808 335 -0.083333333333333287
1810 335 -0.16666666666666669
1811 335 -0.083333333333333343
1812 335 -0.083333333333333315
1813 335 0.16666666666666669
1815 335 -0.083333333333333343
1906 335 -0.083333333333333329
336 336 2.666666666666667
337 336 -0.33333333333333337
367 336 -0.33333333333333337
1716 336 -0.083333333333333343
1717 336 -0.083333333333333343
1718 336 0.16666666666666669
1720 336 -0.083333333333333343
1721 336 -0.16666666666666669
1811 336 -0.083333333333333287
1813 336 -0.16666666666666669
1814 336 -0.083333333333333343
1815 336 -0.083333333333333315
1816 336 0.16666666666666669
1818 336 -0.083333333333333343
1909 336 -0.083333333333333329
337 337 2.666666666666667
338 337 -0.33333333333333337
368 337 -0.33333333333333337
1719 337 -0.083333333333333343
1720 337 -0.083333333333333343
1721 337 0.16666666666666669
1723 337 -0.083333333333333343
1724 337 -0.16666666666666669
1814 337 -0.083333333333333287
1816 337 -0.16666666666666669
1817 337 -0.083333333333333343
1818 337 -0.083333333333333315
1819 337 0.16666666666666669
1821 337 -0.083333333333333343
1912 337 -0.083333333333333329
338 338 2.666666666666667
339 338 -0.33333333333333337
369 338 -0.33333333333333337
1722 338 -0.083333333333333343
1723 338 -0.083333333333333343
1724 338 0.16666666666666669
1726 338 -0.083333333333333343
1727 338 -0.16666666666666669
1817 338 -0.083333333333333287
1819 338 -0.16666666666666669
1820 338 -0.083333333333333343
1821 338 -0.083333333333333315
1822 338 0.16666666666666669
1824 338 -0.083333333333333343
1915 338 -0.083333333333333329
339 339 2.666666666666667
340 339 -0.33333333333333337
370 339 -0.33333333333333337
1725 339 -0.083333333333333343
1726 339 -0.083333333333333343
1727 339 0.16666666666666669
1729 339 -0.083333333333333343
1730 339 -0.16666666666666669
1820 339 -0.083333333333333287
1822 339 -0.16666666666666669
1823 339 -0.083333333333333343
1824 339 -0.083333333333333315
1825 339 0.16666666666666669
1827 339 -0.083333333333333343
1918 339 -0.083333333333333329
340 340 2.666666666666667
341 340 -0.33333333333333337
371 340 -0.33333333333333337
1728 340 -0.083333333333333343
1729 340 -0.083333333333333343
1730 340 0.16666666666666669
1732 340 -0.083333333333333343
1733 340 -0.16666666666666669
1823 340 -0.083333333333333287
1825 340 -0.16666666666666669
1826 340 -0.083333333333333343
1827 340 -0.083333333333333315
1828 340 0.16666666666666669
1830 340 -0.083333333333333343
1921 340 -0.083333333333333329
341 341 2.666666666666667
342 341 -0.33333333333333337
372 341 -0.33333333333333337
1731 341 -0.083333333333333343
1732 341 -0.083333333333333343
1733 341 0.16666666666666669
1735 341 -0.083333333333333343
1736 341 -0.16666666666666669
1826 341 -0.083333333333333287
1828 341 -0.16666666666666669
1829 341 -0.083333333333333343
1830 341 -0.083333333333333315
1831 341 0.16666666666666669
1833 341 -0.083333333333333343
1924 341 -0.083333333333333329
342 342 2.666666666666667
343 342 -0.33333333333333337
373 342 -0.33333333333333337
1734 342 -0.083333333333333343
1735 342 -0.083333333333333343
1736 342 0.16666666666666669
1738 342 -0.083333333333333343
1739 342 -0.16666666666666669
1829 342 -0.083333333333333287
1831 342 -0.16666666666666669
1832 342 -0.083333333333333343
1833 342 -0.083333333333333315
1834 342 0.16666666666666669
1836 342 -0.083333333333333343
1927 342 -0.083333333333333329
343 343 2.666666666666667
344 343 -0.33333333333333337
374 343 -0.33333333333333337
1737 343 -0.083333333333333343
1738 343 -0.083333333333333343
1739 343 0.16666666666666669
1741 343 -0.083333333333333343
1742 343 -0.16666666666666669
1832 343 -0.083333333333333287
1834 343 -0.16666666666666669
1835 343 -0.083333333333333343
1836 343 -0.083333333333333315
1837 343 0.16666666666666669
1839 343 -0.083333333333333343
1930 343 -0.083333333333333329
344 344 2.666666666666667
345 344 -0.33333333333333337
375 344 -0.33333333333333337
1740 344 -0.083333333333333343
1741 344 -0.083333333333333343
1742 344 0.16666666666666669
1744 344 -0.083333333333333343
1745 344 -0.16666666666666669
1835 344 -0.083333333333333287
1837 344 -0.16666666666666669
1838 344 -0.083333333333333343
1839 344 -0.083333333333333315
1840 344 0.16666666666666669
1842 344 -0.083333333333333343
1933 344 -0.083333333333333329
345 345 2.666666666666667
346 345 -0.33333333333333337
376 345 -0.33333333333333337
1743 345 -0.083333333333333343
1744 345 -0.083333333333333343
1745 345 0.16666666666666669
1747 345 -0.083333333333333343
1748 345 -0.16666666666666669
1838 345 -0.083333333333333287
1840 345 -0.16666666666666669
1841 345 -0.083333333333333343
1842 345 -0.083333333333333315
1843 345 0.16666666666666669
1845 345 -0.083333333333333343
1936 345 -0.083333333333333329
346 346 2.666666666666667
347 346 -0.33333333333333337
377 346 -0.33333333333333337
1746 346 -0.083333333333333343
1747 346 -0.083333333333333343
1748 346 0.16666666666666669
1750 346 -0.083333333333333343
1751 346 -0.16666666666666669
1841 346 -0.083333333333333287
1843 346 -0.16666666666666669
1844 346 -0.083333333333333343
1845 346 -0.083333333333333315
1846 346 0.16666666666666669
1848 346 -0.083333333333333343
1939 346 -0.083333333333333329
347 347 2.666666666666667
348 347 -0.33333333333333337
378 347 -0.33333333333333337
1749 347 -0.083333333333333343
1750 347 -0.083333333333333343
1751 347 0.16666666666666669
1753 347 -0.083333333333333343
1754 347 -0.16666666666666669
1844 347 -0.083333333333333287
1846 347 -0.16666666666666669
1847 347 -0.083333333333333343
1848 347 -0.083333333333333315
1849 347 0.16666666666666669
1851 347 -0.083333333333333343
1942 347 -0.083333333333333329
348 348 2.666666666666667
349 348 -0.33333333333333337
379 348 -0.33333333333333337
1752 348 -0.083333333333333343
1753 348 -0.083333333333333343
1754 348 0.16666666666666669
1756 348 -0.083333333333333343
1757 348 -0.16666666666666669
1847 348 -0.083333333333333287
1849 348 -0.16666666666666669
1850 348 -0.083333333333333343
1851 348 -0.083333333333333315
1852 348 0.16666666666666669
1854 348 -0.083333333333333343
1945 348 -0.083333333333333329
349 349 2.666666666666667
350 349 -0.33333333333333337
380 349 -0.33333333333333337
1755 349 -0.083333333333333343
1756 349 -0.083333333333333343
1757 349 0.16666666666666669
1759 349 -0.083333333333333343
1760 349 -0.16666666666666669
1850 349 -0.083333333333333287
1852 349 -0.16666666666666669
1853 349 -0.083333333333333343
1854 349 -0.083333333333333315
1855 349 0.16666666666666669
1857 349 -0.083333333333333343
1948 349 -0.083333333333333329
350 350 2.666666666666667
351 350 -0.33333333333333337
381 350 -0.33333333333333337
1758 350 -0.083333333333333343
1759 350 -0.083333333333333343
1760 350 0.16666666666666669
1762 350 -0.083333333333333343
1763 350 -0.16666666666666669
1853 350 -0.083333333333333287
1855 350 -0.16666666666666669
1856 350 -0.083333333333333343
1857 350 -0.083333333333333315
1858 350 0.16666666666666669
1860 350 -0.083333333333333343
1951 350 -0.083333333333333329
351 351 2.666666666666667
352 351 -0.33333333333333337
382 351 -0.33333333333333337
1761 351 -0.083333333333333343
1762 351 -0.083333333333333343
1763 351 0.16666666666666669
1765 351 -0.083333333333333343
1766 351 -0.16666666666666669
1856 351 -0.083333333333333287
1858 351 -0.16666666666666669
1859 351 -0.083333333333333343
1860 351 -0.083333333333333315
1861 351 0.16666666666666669
1863 351 -0.083333333333333343
1954 351 -0.083333333333333329
352 352 2.666666666666667
353 352 -0.33333333333333337
383 352 -0.33333333333333337
1764 352 -0.083333333333333343
1765 352 -0.083333333333333343
1766 352 0.16666666666666669
1768 352 -0.083333333333333343
1769 352 -0.16666666666666669
1859 352 -0.083333333333333287
1861 352 -0.16666666666666669
1862 352 -0.083333333333333343
1863 352 -0.083333333333333315
1864 352 0.16666666666666669
1866 352 -0.083333333333333343
1957 352 -0.083333333333333329
353 353 2.666666666666667
354 353 -0.33333333333333337
384 353 -0.33333333333333337
1767 353 -0.083333333333333343
1768 353 -0.083333333333333343
1769 353 0.16666666666666669
1771 353 -0.083333333333333343
1772 353 -0.16666666666666669
1862 353 -0.083333333333333287
1864 353 -0.16666666666666669
1865 353 -0.083333333333333343
1866 353 -0.083333333333333315
1867 353 0.16666666666666669
1869 353 -0.083333333333333343
1960 353 -0.083333333333333329
354 354 2.666666666666667
355 354 -0.33333333333333337
385 354 -0.33333333333333337
1770 354 -0.083333333333333343
1771 354 -0.083333333333333343
1772 354 0.16666666666666669
1774 354 -0.083333333333333343
1775 354 -0.16666666666666669
1865 354 -0.083333333333333287
1867 354 -0.16666666666666669
1868 354 -0.083333333333333343
1869 354 -0.083333333333333315
1870 354 0.16666666666666669
1872 354 -0.083333333333333343
1963 354 -0.083333333333333329
355 355 2.666666666666667
356 355 -0.33333333333333337
386 355 -0.33333333333333337
1773 355 -0.083333333333333343
1774 355 -0.083333333333333343
1775 355 0.16666666666666669
1777 355 -0.083333333333333343
1778 355 -0.16666666666666669
1868 355 -0.083333333333333287
1870 355 -0.16666666666666669
1871 355 -0.083333333333333343
1872 355 -0.083333333333333315
1873 355 0.16666666666666669
1875 355 -0.083333333333333343
1966 355 -0.083333333333333329
356 356 2.666666666666667
357 356 -0.33333333333333337
387 356 -0.33333333333333337
1776 356 -0.083333333333333343
1777 356 -0.083333333333333343
1778 356 0.16666666666666669
1780 356 -0.083333333333333343
1781 356 -0.16666666666666669
1871 356 -0.083333333333333287
1873 356 -0.16666666666666669
1874 356 -0.083333333333333343
1875 356 -0.083333333333333315
1876 356 0.16666666666666669
1878 356 -0.083333333333333343
1969 356 -0.083333333333333329
357 357 2.666666666666667
358 357 -0.33333333333333337
388 357 -0.33333333333333337
1779 357 -0.083333333333333343
1780 357 -0.083333333333333343
1781 357 0.16666666666666669
1783 357 -0.083333333333333343
1784 357 -0.16666666666666669
1874 357 -0.083333333333333287
1876 357 -0.16666666666666669
1877 357 -0.083333333333333343
1878 357 -0.083333333333333315
1879 357 0.16666666666666669
1881 357 -0.083333333333333343
1972 357 -0.083333333333333329
358 358 2.666666666666667
359 358 -0.33333333333333337
389 358 -0.33333333333333337
1782 358 -0.083333333333333343
1783 358 -0.083333333333333343
1784 358 0.16666666666666669
1786 358 -0.083333333333333343
1787 358 -0.16666666666666669
1877 358 -0.083333333333333287
1879 358 -0.16666666666666669
1880 358 -0.083333333333333343
1881 358 -0.083333333333333315
1882 358 0.16666666666666669
1884 358 -0.083333333333333343
1975 358 -0.083333333333333329
359 359 2.666666666666667
360 359 -0.33333333333333337
390 359 -0.33333333333333337
1785 359 -0.083333333333333343
1786 359 -0.083333333333333343
1787 359 0.16666666666666669
1789 359 -0.083333333333333343
1790 359 -0.16666666666666669
1880 359 -0.083333333333333287
1882 359 -0.16666666666666669
1883 359 -0.083333333333333343
1884 359 -0.083333333333333315
1885 359 0.16666666666666669
1887 359 -0.083333333333333343
1978 359 -0.083333333333333329
360 360 2.666666666666667
361 360 -0.33333333333333337
391 360 -0.33333333333333337
1788 360 -0.083333333333333343
1789 360 -0.083333333333333343
1790 360 0.16666666666666669
1792 360 -0.083333333333333343
1793 360 -0.16666666666666669
1883 360 -0.083333333333333287
1885 360 -0.16666666666666669
1886 360 -0.083333333333333343
1887 360 -0.083333333333333315
1888 360 0.16666666666666669
1890 360 -0.083333333333333343
1981 360 -0.083333333333333329
361 361 2.666666666666667
362 361 -0.33333333333333337
392 361 -0.33333333333333337
1791 361 -0.083333333333333343
1792 361 -0.083333333333333343
1793 361 0.16666666666666669
1795 361 -0.083333333333333343
1796 361 -0.16666666666666669
1886 361 -0.083333333333333287
1888 361 -0.16666666666666669
1889 361 -0.083333333333333343
1890 361 -0.083333333333333315
1891 361 0.16666666666666669
1893 361 -0.083333333333333343
1984 361 -0.083333333333333329
362 362 2.666666666666667
363 362 -0.33333333333333337
393 362 -0.33333333333333337
1794 362 -0.083333333333333343
1795 362 -0.083333333333333343
1796 362 0.16666666666666669
1798 362 -0.083333333333333343
1799 362 -0.16666666666666669
1889 362 -0.083333333333333287
1891 362 -0.16666666666666669
1892 362 -0.083333333333333343
1893 362 -0.083333333333333315
1894 362 0.16666666666666669
1896 362 -0.083333333333333343
1987 362 -0.083333333333333329
363 363 2.666666666666667
364 363 -0.33333333333333337
394 363 -0.33333333333333337
1797 363 -0.083333333333333343
1798 363 -0.083333333333333343
1799 363 0.16666666666666669
1801 363 -0.083333333333333343
1802 363 -0.16666666666666669
1892 363 -0.083333333333333287
1894 363 -0.16666666666666669
1895 363 -0.083333333333333343
1896 363 -0.083333333333333315
1897 363 0.16666666666666669
1899 363 -0.083333333333333343
1990 363 -0.083333333333333329
364 364 2.666666666666667
395 364 -0.33333333333333337
1800 364 -0.083333333333333343
1801 364 -0.083333333333333343
1802 364 0.16666666666666669
1804 364 -0.083333333333333343
1805 364 -0.16666666666666669
1895 364 -0.083333333333333287
1897 364 -0.16666666666666669
1898 364 -0.083333333333333343
1899 364 -0.083333333333333315
1900 364 0.16666666666666669
1993 364 -0.083333333333333329
365 365 2.666666666666667
366 365 -0.33333333333333337
396 365 -0.33333333333333337
1806 365 -0.083333333333333343
1807 365 0.16666666666666669
1809 365 -0.083333333333333343
1810 365 -0.16666666666666669
1901 365 -0.083333333333333287
1902 365 -0.16666666666666669
1903 365 -0.083333333333333343
1904 365 -0.083333333333333315
1905 365 0.16666666666666669
1907 365 -0.083333333333333343
1998 365 -0.083333333333333329
366 366 2.666666666666667
367 366 -0.33333333333333337
397 366 -0.33333333333333337
1808 366 -0.083333333333333343
1809 366 -0.083333333333333343
1810 366 0.16666666666666669
1812 366 -0.083333333333333343
1813 366 -0.16666666666666669
1903 366 -0.083333333333333287
1905 366 -0.16666666666666669
1906 366 -0.083333333333333343
1907 366 -0.083333333333333315
1908 366 0.16666666666666669
1910 366 -0.083333333333333343
2001 366 -0.083333333333333329
367 367 2.666666666666667
368 367 -0.33333333333333337
398 367 -0.33333333333333337
1811 367 -0.083333333333333343
1812 367 -0.083333333333333343
1813 367 0.16666666666666669
1815 367 -0.083333333333333343
1816 367 -0.16666666666666669
1906 367 -0.083333333333333287
1908 367 -0.16666666666666669
1909 367 -0.083333333333333343
1910 367 -0.083333333333333315
1911 367 0.16666666666666669
1913 367 -0.083333333333333343
2004 367 -0.083333333333333329
368 368 2.666666666666667
369 368 -0.33333333333333337
399 368 -0.33333333333333337
1814 368 -0.083333333333333343
1815 368 -0.083333333333333343
1816 368 0.16666666666666669
1818 368 -0.083333333333333343
1819 368 -0.16666666666666669
1909 368 -0.083333333333333287
1911 368 -0.16666666666666669
1912 368 -0.083333333333333343
1913 368 -0.083333333333333315
1914 368 0.16666666666666669
1916 368 -0.083333333333333343
2007 368 -0.083333333333333329
369 369 2.666666666666667
370 369 -0.33333333333333337
400 369 -0.33333333333333337
1817 369 -0.083333333333333343
1818 369 -0.083333333333333343
1819 369 0.16666666666666669
1821 369 -0.083333333333333343
1822 369 -0.16666666666666669
1912 369 -0.083333333333333287
1914 369 -0.16666666666666669
1915 369 -0.083333333333333343
1916 369 -0.083333333333333315
1917 369 0.16666666666666669
1919 369 -0.083333333333333343
2010 369 -0.083333333333333329
370 370 2.666666666666667
371 370 -0.33333333333333337
401 370 -0.33333333333333337
1820 370 -0.083333333333333343
1821 370 -0.083333333333333343
1822 370 0.16666666666666669
1824 370 -0.083333333333333343
1825 370 -0.16666666666666669
1915 370 -0.083333333333333287
1917 370 -0.16666666666666669
1918 370 -0.083333333333333343
1919 370 -0.083333333333333315
1920 370 0.16666666666666669
1922 370 -0.083333333333333343
2013 370 -0.083333333333333329
371 371 2.666666666666667
372 371 -0.33333333333333337
402 371 -0.33333333333333337
1823 371 -0.083333333333333343
1824 371 -0.083333333333333343
1825 371 0.16666666666666669
1827 371 -0.083333333333333343
1828 371 -0.16666666666666669
1918 371 -0.083333333333333287
1920 371 -0.16666666666666669
1921 371 -0.083333333333333343
1922 371 -0.083333333333333315
1923 371 0.16666666666666669
1925 371 -0.083333333333333343
2016 371 -0.083333333333333329
372 372 2.666666666666667
373 372 -0.33333333333333337
403 372 -0.33333333333333337
1826 372 -0.083333333333333343
1827 372 -0.083333333333333343
1828 372 0.16666666666666669
1830 372 -0.083333333333333343
1831 372 -0.16666666666666669
1921 372 -0.083333333333333287
1923 372 -0.16666666666666669
1924 372 -0.083333333333333343
1925 372 -0.083333333333333315
1926 372 0.16666666666666669
1928 372 -0.083333333333333343
2019 372 -0.083333333333333329
373 373 2.666666666666667
374 373 -0.33333333333333337
404 373 -0.33333333333333337
1829 373 -0.083333333333333343
1830 373 -0.083333333333333343
1831 373 0.16666666666666669
1833 373 -0.083333333333333343
1834 373 -0.16666666666666669
1924 373 -0.083333333333333287
1926 373 -0.16666666666666669
1927 373 -0.083333333333333343
1928 373 -0.083333333333333315
1929 373 0.16666666666666669
1931 373 -0.083333333333333343
2022 373 -0.083333333333333329
374 374 2.666666666666667
375 374 -0.33333333333333337
405 374 -0.33333333333333337
1832 374 -0.083333333333333343
1833 374 -0.083333333333333343
1834 374 0.16666666666666669
1836 374 -0.083333333333333343
1837 374 -0.16666666666666669
1927 374 -0.083333333333333287
1929 374 -0.16666666666666669
1930 374 -0.083333333333333343
1931 374 -0.083333333333333315
1932 374 0.16666666666666669
1934 374 -0.083333333333333343
2025 374 -0.083333333333333329
375 375 2.666666666666667
376 375 -0.33333333333333337
406 375 -0.33333333333333337
1835 375 -0.083333333333333343
1836 375 -0.083333333333333343
1837 375 0.16666666666666669
1839 375 -0.083333333333333343
1840 375 -0.16666666666666669
1930 375 -0.083333333333333287
1932 375 -0.16666666666666669
1933 375 -0.083333333333333343
1934 375 -0.083333333333333315
1935 375 0.16666666666666669
1937 375 -0.083333333333333343
2028 375 -0.083333333333333329
376 376 2.666666666666667
377 376 -0.33333333333333337
407 376 -0.33333333333333337
1838 376 -0.083333333333333343
1839 376 -0.083333333333333343
1840 376 0.16666666666666669
1842 376 -0.083333333333333343
1843 376 -0.16666666666666669
1933 376 -0.083333333333333287
1935 376 -0.16666666666666669
1936 376 -0.083333333333333343
1937 376 -0.083333333333333315
1938 376 0.16666666666666669
1940 376 -0.083333333333333343
2031 376 -0.083333333333333329
377 377 2.666666666666667
378 377 -0.33333333333333337
408 377 -0.33333333333333337
1841 377 -0.083333333333333343
1842 377 -0.083333333333333343
1843 377 0.16666666666666669
1845 377 -0.083333333333333343
1846 377 -0.16666666666666669
1936 377 -0.083333333333333287
1938 377 -0.16666666666666669
1939 377 -0.083333333333333343
1940 377 -0.083333333333333315
1941 377 0.16666666666666669
1943 377 -0.083333333333333343
2034 377 -0.083333333333333329
378 378 2.666666666666667
379 378 -0.33333333333333337
409 378 -0.33333333333333337
1844 378 -0.083333333333333343
1845 378 -0.083333333333333343
1846 378 0.16666666666666669
1848 378 -0.083333333333333343
1849 378 -0.16666666666666669
1939 378 -0.083333333333333287
1941 378 -0.16666666666666669
1942 378 -0.083333333333333343
1943 378 -0.083333333333333315
1944 378 0.16666666666666669
1946 378 -0.083333333333333343
2037 378 -0.083333333333333329
379 379 2.666666666666667
380 379 -0.33333333333333337
410 379 -0.33333333333333337
1847 379 -0.083333333333333343
1848 379 -0.083333333333333343
1849 379 0.16666666666666669
1851 379 -0.083333333333333343
1852 379 -0.16666666666666669
1942 379 -0.083333333333333287
1944 379 -0.16666666666666669
1945 379 -0.083333333333333343
1946 379 -0.083333333333333315
1947 379 0.16666666666666669
1949 379 -0.083333333333333343
2040 379 -0.083333333333333329
380 380 2.666666666666667
381 380 -0.33333333333333337
411 380 -0.33333333333333337
1850 380 -0.083333333333333343
1851 380 -0.083333333333333343
1852 380 0.16666666666666669
1854 380 -0.083333333333333343
1855 380 -0.16666666666666669
1945 380 -0.083333333333333287
1947 380 -0.16666666666666669
1948 380 -0.083333333333333343
1949 380 -0.083333333333333315
1950 380 0.16666666666666669
1952 380 -0.083333333333333343
2043 380 -0.083333333333333329
381 381 2.666666666666667
382 381 -0.33333333333333337
412 381 -0.33333333333333337
1853 381 -0.083333333333333343
1854 381 -0.083333333333333343
1855 381 0.16666666666666669
1857 381 -0.083333333333333343
1858 381 -0.16666666666666669
1948 381 -0.083333333333333287
1950 381 -0.16666666666666669
1951 381 -0.083333333333333343
1952 381 -0.083333333333333315
1953 381 0.16666666666666669
1955 381 -0.083333333333333343
2046 381 -0.083333333333333329
382 382 2.666666666666667
383 382 -0.33333333333333337
413 382 -0.33333333333333337
1856 382 -0.083333333333333343
1857 382 -0.083333333333333343
1858 382 0.16666666666666669
1860 382 -0.083333333333333343
1861 382 -0.16666666666666669
1951 382 -0.083333333333333287
1953 382 -0.16666666666666669
1954 382 -0.083333333333333343
1955 382 -0.083333333333333315
1956 382 0.16666666666666669
1958 382 -0.083333333333333343
2049 382 -0.083333333333333329
383 383 2.666666666666667
384 383 -0.33333333333333337
414 383 -0.33333333333333337
1859 383 -0.083333333333333343
1860 383 -0.083333333333333343
1861 383 0.16666666666666669
1863 383 -0.083333333333333343
1864 383 -0.16666666666666669
1954 383 -0.083333333333333287
1956 383 -0.16666666666666669
1957 383 -0.083333333333333343
1958 383 -0.083333333333333315
1959 383 0.16666666666666669
1961 383 -0.083333333333333343
2052 383 -0.083333333333333329
384 384 2.666666666666667
385 384 -0.33333333333333337
415 384 -0.33333333333333337
1862 384 -0.083333333333333343
1863 384 -0.083333333333333343
1864 384 0.16666666666666669
1866 384 -0.083333333333333343
1867 384 -0.16666666666666669
1957 384 -0.083333333333333287
1959 384 -0.16666666666666669
1960 384 -0.083333333333333343
1961 384 -0.083333333333333315
1962 384 0.16666666666666669
1964 384 -0.083333333333333343
2055 384 -0.083333333333333329
385 385 2.666666666666667
386 385 -0.33333333333333337
416 385 -0.33333333333333337
1865 385 -0.083333333333333343
1866 385 -0.083333333333333343
1867 385 0.16666666666666669
1869 385 -0.083333333333333343
1870 385 -0.16666666666666669
1960 385 -0.083333333333333287
1962 385 -0.16666666666666669
1963 385 -0.083333333333333343
1964 385 -0.083333333333333315
1965 385 0.16666666666666669
1967 385 -0.083333333333333343
2058 385 -0.083333333333333329
386 386 2.666666666666667
387 386 -0.33333333333333337
417 386 -0.33333333333333337
1868 386 -0.083333333333333343
1869 386 -0.083333333333333343
1870 386 0.16666666666666669
1872 386 -0.083333333333333343
1873 386 -0.16666666666666669
1963 386 -0.083333333333333287
1965 386 -0.16666666666666669
1966 386 -0.083333333333333343
1967 386 -0.083333333333333315
1968 386 0.16666666666666669
1970 386 -0.083333333333333343
2061 386 -0.083333333333333329
387 387 2.666666666666667
388 387 -0.33333333333333337
418 387 -0.33333333333333337
1871 387 -0.083333333333333343
1872 387 -0.083333333333333343
1873 387 0.16666666666666669
1875 387 -0.083333333333333343
1876 387 -0.16666666666666669
1966 387 -0.083333333333333287
1968 387 -0.16666666666666669
1969 387 -0.083333333333333343
1970 387 -0.083333333333333315
1971 387 0.16666666666666669
1973 387 -0.083333333333333343
2064 387 -0.083333333333333329
388 388 2.666666666666667
389 388 -0.33333333333333337
419 388 -0.33333333333333337
1874 388 -0.083333333333333343
1875 388 -0.083333333333333343
1876 388 0.16666666666666669
1878 388 -0.083333333333333343
1879 388 -0.16666666666666669
1969 388 -0.083333333333333287
1971 388 -0.16666666666666669
1972 388 -0.083333333333333343
1973 388 -0.083333333333333315
1974 388 0.16666666666666669
1976 388 -0.083333333333333343
2067 388 -0.083333333333333329
389 389 2.666666666666667
390 389 -0.33333333333333337
420 389 -0.33333333333333337
1877 389 -0.083333333333333343
1878 389 -0.083333333333333343
1879 389 0.16666666666666669
1881 389 -0.083333333333333343
1882 389 -0.16666666666666669
1972 389 -0.083333333333333287
1974 389 -0.16666666666666669
1975 389 -0.083333333333333343
1976 389 -0.083333333333333315
1977 389 0.16666666666666669
1979 389 -0.083333333333333343
2070 389 -0.083333333333333329
390 390 2.666666666666667
391 390 -0.33333333333333337
421 390 -0.33333333333333337
1880 390 -0.083333333333333343
1881 390 -0.083333333333333343
1882 390 0.16666666666666669
1884 390 -0.083333333333333343
1885 390 -0.16666666666666669
1975 390 -0.083333333333333287
1977 390 -0.16666666666666669
1978 390 -0.083333333333333343
1979 390 -0.083333333333333315
1980 390 0.16666666666666669
1982 390 -0.083333333333333343
2073 390 -0.083333333333333329
391 391 2.666666666666667
392 391 -0.33333333333333337
422 391 -0.33333333333333337
1883 391 -0.083333333333333343
1884 391 -0.083333333333333343
1885 391 0.16666666666666669
1887 391 -0.083333333333333343
1888 391 -0.16666666666666669
1978 391 -0.083333333333333287
1980 391 -0.16666666666666669
1981 391 -0.083333333333333343
1982 391 -0.083333333333333315
1983 391 0.16666666666666669
1985 391 -0.083333333333333343
2076 391 -0.083333333333333329
392 392 2.666666666666667
393 392 -0.33333333333333337
423 392 -0.33333333333333337
1886 392 -0.083333333333333343
1887 392 -0.083333333333333343
1888 392 0.16666666666666669
1890 392 -0.083333333333333343
1891 392 -0.16666666666666669
1981 392 -0.083333333333333287
1983 392 -0.16666666666666669
1984 392 -0.083333333333333343
1985 392 -0.083333333333333315
1986 392 0.16666666666666669
1988 392 -0.083333333333333343
2079 392 -0.083333333333333329
393 393 2.666666666666667
394 393 -0.33333333333333337
424 393 -0.33333333333333337
1889 393 -0.083333333333333343
1890 393 -0.083333333333333343
1891 393 0.16666666666666669
1893 393 -0.083333333333333343
1894 393 -0.16666666666666669
1984 393 -0.083333333333333287
1986 393 -0.16666666666666669
1987 393 -0.083333333333333343
1988 393 -0.083333333333333315
1989 393 0.16666666666666669
1991 393 -0.083333333333333343
2082 393 -0.083333333333333329
394 394 2.666666666666667
395 394 -0.33333333333333337
425 394 -0.33333333333333337
1892 394 -0.083333333333333343
1893 394 -0.083333333333333343
1894 394 0.16666666666666669
1896 394 -0.083333333333333343
1897 394 -0.16666666666666669
1987 394 -0.083333333333333287
1989 394 -0.16666666666666669
1990 394 -0.083333333333333343
1991 394 -0.083333333333333315
1992 394 0.16666666666666669
1994 394 -0.083333333333333343
2085 394 -0.083333333333333329
395 395 2.666666666666667
426 395 -0.33333333333333337
1895 395 -0.083333333333333343
1896 395 -0.083333333333333343
1897 395 0.16666666666666669
1899 395 -0.083333333333333343
1900 395 -0.16666666666666669
1990 395 -0.083333333333333287
1992 395 -0.16666666666666669
1993 395 -0.083333333333333343
1994 395 -0.083333333333333315
1995 395 0.16666666666666669
2088 395 -0.083333333333333329
396 396 2.666666666666667
397 396 -0.33333333333333337
427 396 -0.33333333333333337
1901 396 -0.083333333333333343
1902 396 0.16666666666666669
1904 396 -0.083333333333333343
1905 396 -0.16666666666666669
1996 396 -0.083333333333333287
1997 396 -0.16666666666666669
1998 396 -0.083333333333333343
1999 396 -0.083333333333333315
2000 396 0.16666666666666669
2002 396 -0.083333333333333343
2093 396 -0.083333333333333329
397 397 2.666666666666667
398 397 -0.33333333333333337
428 397 -0.33333333333333337
1903 397 -0.083333333333333343
1904 397 -0.083333333333333343
1905 397 0.16666666666666669
1907 397 -0.083333333333333343
1908 397 -0.16666666666666669
1998 397 -0.083333333333333287
2000 397 -0.16666666666666669
2001 397 -0.083333333333333343
2002 397 -0.083333333333333315
2003 397 0.16666666666666669
2005 397 -0.083333333333333343
2096 397 -0.083333333333333329
398 398 2.666666666666667
399 398 -0.33333333333333337
429 398 -0.33333333333333337
1906 398 -0.083333333333333343
1907 398 -0.083333333333333343
1908 398 0.16666666666666669
1910 398 -0.083333333333333343
1911 398 -0.16666666666666669
2001 398 -0.083333333333333287
2003 398 -0.16666666666666669
2004 398 -0.083333333333333343
2005 398 -0.083333333333333315
2006 398 0.16666666666666669
2008 398 -0.083333333333333343
2099 398 -0.083333333333333329
399 399 2.666666666666667
400 399 -0.33333333333333337
430 399 -0.33333333333333337
1909 399 -0.083333333333333343
1910 399 -0.083333333333333343
1911 399 0.16666666666666669
1913 399 -0.083333333333333343
1914 399 -0.16666666666666669
2004 399 -0.083333333333333287
2006 399 -0.16666666666666669
2007 399 -0.083333333333333343
2008 399 -0.083333333333333315
2009 399 0.16666666666666669
2011 399 -0.083333333333333343
2102 399 -0.083333333333333329
400 400 2.666666666666667
401 400 -0.33333333333333337
431 400 -0.33333333333333337
1912 400 -0.083333333333333343
1913 400 -0.083333333333333343
1914 400 0.16666666666666669
1916 400 -0.083333333333333343
1917 400 -0.16666666666666669
2007 400 -0.083333333333333287
2009 400 -0.16666666666666669
2010 400 -0.083333333333333343
2011 400 -0.083333333333333315
2012 400 0.16666666666666669
2014 400 -0.083333333333333343
2105 400 -0.083333333333333329
401 401 2.666666666666667
402 401 -0.33333333333333337
432 401 -0.33333333333333337
1915 401 -0.083333333333333343
1916 401 -0.083333333333333343
1917 401 0.16666666666666669
1919 401 -0.083333333333333343
1920 401 -0.16666666666666669
2010 401 -0.083333333333333287
2012 401 -0.16666666666666669
2013 401 -0.083333333333333343
2014 401 -0.083333333333333315
2015 401 0.16666666666666669
2017 401 -0.083333333333333343
2108 401 -0.083333333333333329
402 402 2.666666666666667
403 402 -0.33333333333333337
433 402 -0.33333333333333337
1918 402 -0.083333333333333343
1919 402 -0.083333333333333343
1920 402 0.16666666666666669
1922 402 -0.083333333333333343
1923 402 -0.16666666666666669
2013 402 -0.083333333333333287
2015 402 -0.16666666666666669
2016 402 -0.083333333333333343
2017 402 -0.083333333333333315
2018 402 0.16666666666666669
2020 402 -0.083333333333333343
2111 402 -0.083333333333333329
403 403 2.666666666666667
404 403 -0.33333333333333337
434 403 -0.33333333333333337
1921 403 -0.083333333333333343
1922 403 -0.083333333333333343
1923 403 0.16666666666666669
1925 403 -0.083333333333333343
1926 403 -0.16666666666666669
2016 403 -0.083333333333333287
2018 403 -0.16666666666666669
2019 403 -0.083333333333333343
2020 403 -0.083333333333333315
2021 403 0.16666666666666669
2023 403 -0.083333333333333343
2114 403 -0.083333333333333329
404 404 2.666666666666667
405 404 -0.33333333333333337
435 404 -0.33333333333333337
1924 404 -0.083333333333333343
1925 404 -0.083333333333333343
1926 404 0.16666666666666669
1928 404 -0.083333333333333343
1929 404 -0.16666666666666669
2019 404 -0.083333333333333287
2021 404 -0.16666666666666669
2022 404 -0.083333333333333343
2023 404 -0.083333333333333315
2024 404 0.16666666666666669
2026 404 -0.083333333333333343
2117 404 -0.083333333333333329
405 405 2.666666666666667
406 405 -0.33333333333333337
436 405 -0.33333333333333337
1927 405 -0.083333333333333343
1928 405 -0.083333333333333343
1929 405 0.16666666666666669
1931 405 -0.083333333333333343
1932 405 -0.16666666666666669
2022 405 -0.083333333333333287
2024 405 -0.16666666666666669
2025 405 -0.083333333333333343
2026 405 -0.083333333333333315
2027 405 0.16666666666666669
2029 405 -0.083333333333333343
2120 405 -0.083333333333333329
406 406 2.666666666666667
407 406 -0.33333333333333337
437 406 -0.33333333333333337
1930 406 -0.083333333333333343
1931 406 -0.083333333333333343
1932 406 0.16666666666666669
1934 406 -0.083333333333333343
1935 406 -0.16666666666666669
2025 406 -0.083333333333333287
2027 406 -0.16666666666666669
2028 406 -0.083333333333333343
2029 406 -0.083333333333333315
2030 406 0.16666666666666669
2032 406 -0.083333333333333343
2123 406 -0.083333333333333329
407 407 2.666666666666667
408 407 -0.33333333333333337
438 407 -0.33333333333333337
1933 407 -0.083333333333333343
1934 407 -0.083333333333333343
1935 407 0.16666666666666669
1937 407 -0.083333333333333343
1938 407 -0.16666666666666669
2028 407 -0.083333333333333287
2030 407 -0.16666666666666669
2031 407 -0.083333333333333343
2032 407 -0.083333333333333315
2033 407 0.16666666666666669
2035 407 -0.083333333333333343
2126 407 -0.083333333333333329
408 408 2.666666666666667
409 408 -0.33333333333333337
439 408 -0.33333333333333337
1936 408 -0.083333333333333343
1937 408 -0.083333333333333343
1938 408 0.16666666666666669
1940 408 -0.083333333333333343
1941 408 -0.16666666666666669
2031 408 -0.083333333333333287
2033 408 -0.16666666666666669
2034 408 -0.083333333333333343
2035 408 -0.083333333333333315
2036 408 0.16666666666666669
2038 408 -0.083333333333333343
2129 408 -0.083333333333333329
409 409 2.666666666666667
410 409 -0.33333333333333337
440 409 -0.33333333333333337
1939 409 -0.083333333333333343
1940 409 -0.083333333333333343
1941 409 0.16666666666666669
1943 409 -0.083333333333333343
1944 409 -0.16666666666666669
2034 409 -0.083333333333333287
2036 409 -0.16666666666666669
2037 409 -0.083333333333333343
2038 409 -0.083333333333333315
2039 409 0.16666666666666669
2041 409 -0.083333333333333343
2132 409 -0.083333333333333329
410 410 2.666666666666667
411 410 -0.33333333333333337
441 410 -0.33333333333333337
1942 410 -0.083333333333333343
1943 410 -0.083333333333333343
1944 410 0.16666666666666669
1946 410 -0.083333333333333343
1947 410 -0.16666666666666669
2037 410 -0.083333333333333287
2039 410 -0.16666666666666669
2040 410 -0.083333333333333343
2041 410 -0.083333333333333315
2042 410 0.16666666666666669
2044 410 -0.083333333333333343
2135 410 -0.083333333333333329
411 411 2.666666666666667
412 411 -0.33333333333333337
442 411 -0.33333333333333337
1945 411 -0.083333333333333343
1946 411 -0.083333333333333343
1947 411 0.16666666666666669
1949 411 -0.083333333333333343
1950 411 -0.16666666666666669
2040 411 -0.083333333333333287
2042 411 -0.16666666666666669
2043 411 -0.083333333333333343
2044 411 -0.083333333333333315
2045 411 0.16666666666666669
2047 411 -0.083333333333333343
2138 411 -0.083333333333333329
412 412 2.666666666666667
413 412 -0.33333333333333337
443 412 -0.33333333333333337
1948 412 -0.083333333333333343
1949 412 -0.083333333333333343
1950 412 0.16666666666666669
1952 412 -0.083333333333333343
1953 412 -0.16666666666666669
2043 412 -0.083333333333333287
2045 412 -0.16666666666666669
2046 412 -0.083333333333333343
2047 412 -0.083333333333333315
2048 412 0.16666666666666669
2050 412 -0.083333333333333343
2141 412 -0.083333333333333329
413 413 2.666666666666667
414 413 -0.33333333333333337
444 413 -0.33333333333333337
1951 413 -0.083333333333333343
1952 413 -0.083333333333333343
1953 413 0.16666666666666669
1955 413 -0.083333333333333343
1956 413 -0.16666666666666669
2046 413 -0.083333333333333287
2048 413 -0.16666666666666669
2049 413 -0.083333333333333343
2050 413 -0.083333333333333315
2051 413 0.16666666666666669
2053 413 -0.083333333333333343
2144 413 -0.083333333333333329
414 414 2.666666666666667
415 414 -0.33333333333333337
445 414 -0.33333333333333337
1954 414 -0.083333333333333343
1955 414 -0.083333333333333343
1956 414 0.16666666666666669
1958 414 -0.083333333333333343
1959 414 -0.16666666666666669
2049 414 -0.083333333333333287
2051 414 -0.16666666666666669
2052 414 -0.083333333333333343
2053 414 -0.083333333333333315
2054 414 0.16666666666666669
2056 414 -0.083333333333333343
2147 414 -0.083333333333333329
415 415 2.666666666666667
416 415 -0.33333333333333337
446 415 -0.33333333333333337
1957 415 -0.083333333333333343
1958 415 -0.083333333333333343
1959 415 0.16666666666666669
1961 415 -0.083333333333333343
1962 415 -0.16666666666666669
2052 415 -0.083333333333333287
2054 415 -0.16666666666666669
2055 415 -0.083333333333333343
2056 415 -0.083333333333333315
2057 415 0.16666666666666669
2059 415 -0.083333333333333343
2150 415 -0.083333333333333329
416 416 2.666666666666667
417 416 -0.33333333333333337
447 416 -0.33333333333333337
1960 416 -0.083333333333333343
1961 416 -0.083333333333333343
1962 416 0.16666666666666669
1964 416 -0.083333333333333343
1965 416 -0.16666666666666669
2055 416 -0.083333333333333287
2057 416 -0.16666666666666669
2058 416 -0.083333333333333343
2059 416 -0.083333333333333315
2060 416 0.16666666666666669
2062 416 -0.083333333333333343
2153 416 -0.083333333333333329
417 417 2.666666666666667
418 417 -0.33333333333333337
448 417 -0.33333333333333337
1963 417 -0.083333333333333343
1964 417 -0.083333333333333343
1965 417 0.16666666666666669
1967 417 -0.083333333333333343
1968 417 -0.16666666666666669
2058 417 -0.083333333333333287
2060 417 -0.16666666666666669
2061 417 -0.083333333333333343
2062 417 -0.083333333333333315
2063 417 0.16666666666666669
2065 417 -0.083333333333333343
2156 417 -0.083333333333333329
418 418 2.666666666666667
419 418 -0.33333333333333337
449 418 -0.33333333333333337
1966 418 -0.083333333333333343
1967 418 -0.083333333333333343
1968 418 0.16666666666666669
1970 418 -0.083333333333333343
1971 418 -0.16666666666666669
2061 418 -0.083333333333333287
2063 418 -0.16666666666666669
2064 418 -0.083333333333333343
2065 418 -0.083333333333333315
2066 418 0.16666666666666669
2068 418 -0.083333333333333343
2159 418 -0.083333333333333329
419 419 2.666666666666667
420 419 -0.33333333333333337
450 419 -0.33333333333333337
1969 419 -0.083333333333333343
1970 419 -0.083333333333333343
1971 419 0.16666666666666669
1973 419 -0.083333333333333343
1974 419 -0.16666666666666669
2064 419 -0.083333333333333287
2066 419 -0.16666666666666669
2067 419 -0.083333333333333343
2068 419 -0.083333333333333315
2069 419 0.16666666666666669
2071 419 -0.083333333333333343
2162 419 -0.083333333333333329
420 420 2.666666666666667
421 420 -0.33333333333333337
451 420 -0.33333333333333337
1972 420 -0.083333333333333343
1973 420 -0.083333333333333343
1974 420 0.16666666666666669
1976 420 -0.083333333333333343
1977 420 -0.16666666666666669
2067 420 -0.083333333333333287
2069 420 -0.16666666666666669
2070 420 -0.083333333333333343
2071 420 -0.083333333333333315
2072 420 0.16666666666666669
2074 420 -0.083333333333333343
2165 420 -0.083333333333333329
421 421 2.666666666666667
422 421 -0.33333333333333337
452 421 -0.33333333333333337
1975 421 -0.083333333333333343
1976 421 -0.083333333333333343
1977 421 0.16666666666666669
1979 421 -0.083333333333333343
1980 421 -0.16666666666666669
2070 421 -0.083333333333333287
2072 421 -0.16666666666666669
2073 421 -0.083333333333333343
2074 421 -0.083333333333333315
2075 421 0.16666666666666669
2077 421 -0.083333333333333343
2168 421 -0.083333333333333329
422 422 2.666666666666667
423 422 -0.33333333333333337
453 422 -0.33333333333333337
1978 422 -0.083333333333333343
1979 422 -0.083333333333333343
1980 422 0.16666666666666669
1982 422 -0.083333333333333343
1983 422 -0.16666666666666669
2073 422 -0.083333333333333287
2075 422 -0.16666666666666669
2076 422 -0.083333333333333343
2077 422 -0.083333333333333315
2078 422 0.16666666666666669
2080 422 -0.083333333333333343
2171 422 -0.083333333333333329
423 423 2.666666666666667
424 423 -0.33333333333333337
454 423 -0.33333333333333337
1981 423 -0.083333333333333343
1982 423 -0.083333333333333343
1983 423 0.16666666666666669
1985 423 -0.083333333333333343
1986 423 -0.16666666666666669
2076 423 -0.083333333333333287
2078 423 -0.16666666666666669
2079 423 -0.083333333333333343
2080 423 -0.083333333333333315
2081 423 0.16666666666666669
2083 423 -0.083333333333333343
2174 423 -0.083333333333333329
424 424 2.666666666666667
425 424 -0.33333333333333337
455 424 -0.33333333333333337
1984 424 -0.083333333333333343
1985 424 -0.083333333333333343
1986 424 0.16666666666666669
1988 424 -0.083333333333333343
1989 424 -0.16666666666666669
2079 424 -0.083333333333333287
2081 424 -0.16666666666666669
2082 424 -0.083333333333333343
2083 424 -0.083333333333333315
2084 424 0.16666666666666669
2086 424 -0.083333333333333343
2177 424 -0.083333333333333329
425 425 2.666666666666667
426 425 -0.33333333333333337
456 425 -0.33333333333333337
1987 425 -0.083333333333333343
1988 425 -0.083333333333333343
1989 425 0.16666666666666669
1991 425 -0.083333333333333343
1992 425 -0.16666666666666669
2082 425 -0.083333333333333287
2084 425 -0.16666666666666669
2085 425 -0.083333333333333343
2086 425 -0.083333333333333315
2087 425 0.16666666666666669
2089 425 -0.083333333333333343
2180 425 -0.083333333333333329
426 426 2.666666666666667
457 426 -0.33333333333333337
1990 426 -0.083333333333333343
1991 426 -0.083333333333333343
1992 426 0.16666666666666669
1994 426 -0.083333333333333343
1995 426 -0.16666666666666669
2085 426 -0.083333333333333287
2087 426 -0.16666666666666669
2088 426 -0.083333333333333343
2089 426 -0.083333333333333315
2090 426 0.16666666666666669
2183 426 -0.083333333333333329
427 427 2.666666666666667
428 427 -0.33333333333333337
458 427 -0.33333333333333337
1996 427 -0.083333333333333343
1997 427 0.16666666666666669
1999 427 -0.083333333333333343
2000 427 -0.16666666666666669
2091 427 -0.083333333333333287
2092 427 -0.16666666666666669
2093 427 -0.083333333333333343
2094 427 -0.083333333333333315
2095 427 0.16666666666666669
2097 427 -0.083333333333333343
2188 427 -0.083333333333333329
428 428 2.666666666666667
429 428 -0.33333333333333337
459 428 -0.33333333333333337
1998 428 -0.083333333333333343
1999 428 -0.083333333333333343
2000 428 0.16666666666666669
2002 428 -0.083333333333333343
2003 428 -0.16666666666666669
2093 428 -0.083333333333333287
2095 428 -0.16666666666666669
2096 428 -0.083333333333333343
2097 428 -0.083333333333333315
2098 428 0.16666666666666669
2100 428 -0.083333333333333343
2191 428 -0.083333333333333329
429 429 2.666666666666667
430 429 -0.33333333333333337
460 429 -0.33333333333333337
2001 429 -0.083333333333333343
2002 429 -0.083333333333333343
2003 429 0.16666666666666669
2005 429 -0.083333333333333343
2006 429 -0.16666666666666669
2096 429 -0.083333333333333287
2098 429 -0.16666666666666669
2099 429 -0.083333333333333343
2100 429 -0.083333333333333315
2101 429 0.16666666666666669
2103 429 -0.083333333333333343
2194 429 -0.083333333333333329
430 430 2.666666666666667
431 430 -0.33333333333333337
461 430 -0.33333333333333337
2004 430 -0.083333333333333343
2005 430 -0.083333333333333343
2006 430 0.16666666666666669
2008 430 -0.083333333333333343
2009 430 -0.16666666666666669
2099 430 -0.083333333333333287
2101 430 -0.16666666666666669
2102 430 -0.083333333333333343
2103 430 -0.083333333333333315
2104 430 0.16666666666666669
2106 430 -0.083333333333333343
2197 430 -0.083333333333333329
431 431 2.666666666666667
432 431 -0.33333333333333337
462 431 -0.33333333333333337
2007 431 -0.083333333333333343
2008 431 -0.083333333333333343
2009 431 0.16666666666666669
2011 431 -0.083333333333333343
2012 431 -0.16666666666666669
2102 431 -0.083333333333333287
2104 431 -0.16666666666666669
2105 431 -0.083333333333333343
2106 431 -0.083333333333333315
2107 431 0.16666666666666669
2109 431 -0.083333333333333343
2200 431 -0.083333333333333329
432 432 2.666666666666667
433 432 -0.33333333333333337
463 432 -0.33333333333333337
2010 432 -0.083333333333333343
2011 432 -0.083333333333333343
2012 432 0.16666666666666669
2014 432 -0.083333333333333343
2015 432 -0.16666666666666669
2105 432 -0.083333333333333287
2107 432 -0.16666666666666669
2108 432 -0.083333333333333343
2109 432 -0.083333333333333315
2110 432 0.16666666666666669
2112 432 -0.083333333333333343
2203 432 -0.083333333333333329
433 433 2.666666666666667
434 433 -0.33333333333333337
464 433 -0.33333333333333337
2013 433 -0.083333333333333343
2014 433 -0.083333333333333343
2015 433 0.16666666666666669
2017 433 -0.083333333333333343
2018 433 -0.16666666666666669
2108 433 -0.083333333333333287
2110 433 -0.16666666666666669
2111 433 -0.083333333333333343
2112 433 -0.083333333333333315
2113 433 0.16666666666666669
2115 433 -0.083333333333333343
2206 433 -0.083333333333333329
434 434 2.666666666666667
435 434 -0.33333333333333337
465 434 -0.33333333333333337
2016 434 -0.083333333333333343
2017 434 -0.083333333333333343
2018 434 0.16666666666666669
2020 434 -0.083333333333333343
2021 434 -0.16666666666666669
2111 434 -0.083333333333333287
2113 434 -0.16666666666666669
2114 434 -0.083333333333333343
2115 434 -0.083333333333333315
2116 434 0.16666666666666669
2118 434 -0.083333333333333343
2209 434 -0.083333333333333329
435 435 2.666666666666667
436 435 -0.33333333333333337
466 435 -0.33333333333333337
2019 435 -0.083333333333333343
2020 435 -0.083333333333333343
2021 435 0.16666666666666669
2023 435 -0.083333333333333343
2024 435 -0.16666666666666669
2114 435 -0.083333333333333287
2116 435 -0.16666666666666669
2117 435 -0.083333333333333343
2118 435 -0.083333333333333315
2119 435 0.16666666666666669
2121 435 -0.083333333333333343
2212 435 -0.083333333333333329
436 436 2.666666666666667
437 436 -0.33333333333333337
467 436 -0.33333333333333337
2022 436 -0.083333333333333343
2023 436 -0.083333333333333343
2024 436 0.16666666666666669
2026 436 -0.083333333333333343
2027 436 -0.16666666666666669
2117 436 -0.083333333333333287
2119 436 -0.16666666666666669
2120 436 -0.083333333333333343
2121 436 -0.083333333333333315
2122 436 0.16666666666666669
2124 436 -0.083333333333333343
2215 436 -0.083333333333333329
437 437 2.666666666666667
438 437 -0.33333333333333337
468 437 -0.33333333333333337
2025 437 -0.083333333333333343
2026 437 -0.083333333333333343
2027 437 0.16666666666666669
2029 437 -0.083333333333333343
2030 437 -0.16666666666666669
2120 437 -0.083333333333333287
2122 437 -0.16666666666666669
2123 437 -0.083333333333333343
2124 437 -0.083333333333333315
2125 437 0.16666666666666669
2127 437 -0.083333333333333343
2218 437 -0.083333333333333329
438 438 2.666666666666667
439 438 -0.33333333333333337
469 438 -0.33333333333333337
2028 438 -0.083333333333333343
2029 438 -0.083333333333333343
2030 438 0.16666666666666669
2032 438 -0.083333333333333343
2033 438 -0.16666666666666669
2123 438 -0.083333333333333287
2125 438 -0.16666666666666669
2126 438 -0.083333333333333343
2127 438 -0.083333333333333315
2128 438 0.16666666666666669
2130 438 -0.083333333333333343
2221 438 -0.083333333333333329
439 439 2.666666666666667
440 439 -0.33333333333333337
470 439 -0.33333333333333337
2031 439 -0.083333333333333343
2032 439 -0.083333333333333343
2033 439 0.16666666666666669
2035 439 -0.083333333333333343
2036 439 -0.16666666666666669
2126 439 -0.083333333333333287
2128 439 -0.16666666666666669
2129 439 -0.083333333333333343
2130 439 -0.083333333333333315
2131 439 0.16666666666666669
2133 439 -0.083333333333333343
2224 439 -0.083333333333333329
440 440 2.666666666666667
441 440 -0.33333333333333337
471 440 -0.33333333333333337
2034 440 -0.083333333333333343
2035 440 -0.083333333333333343
2036 440 0.16666666666666669
2038 440 -0.083333333333333343
2039 440 -0.16666666666666669
2129 440 -0.083333333333333287
2131 440 -0.16666666666666669
2132 440 -0.083333333333333343
2133 440 -0.083333333333333315
2134 440 0.16666666666666669
2136 440 -0.083333333333333343
2227 440 -0.083333333333333329
441 441 2.666666666666667
442 441 -0.33333333333333337
472 441 -0.33333333333333337
2037 441 -0.083333333333333343
2038 441 -0.083333333333333343
2039 441 0.16666666666666669
2041 441 -0.083333333333333343
2042 441 -0.16666666666666669
2132 441 -0.083333333333333287
2134 441 -0.16666666666666669
2135 441 -0.083333333333333343
2136 441 -0.083333333333333315
2137 441 0.16666666666666669
2139 441 -0.083333333333333343
2230 441 -0.083333333333333329
442 442 2.666666666666667
443 442 -0.33333333333333337
473 442 -0.33333333333333337
2040 442 -0.083333333333333343
2041 442 -0.083333333333333343
2042 442 0.16666666666666669
2044 442 -0.083333333333333343
2045 442 -0.16666666666666669
2135 442 -0.083333333333333287
2137 442 -0.16666666666666669
2138 442 -0.083333333333333343
2139 442 -0.083333333333333315
2140 442 0.16666666666666669
2142 442 -0.083333333333333343
2233 442 -0.083333333333333329
443 443 2.666666666666667
444 443 -0.33333333333333337
474 443 -0.33333333333333337
2043 443 -0.083333333333333343
2044 443 -0.083333333333333343
2045 443 0.16666666666666669
2047 443 -0.083333333333333343
2048 443 -0.16666666666666669
2138 443 -0.083333333333333287
2140 443 -0.16666666666666669
2141 443 -0.083333333333333343
2142 443 -0.083333333333333315
2143 443 0.16666666666666669
2145 443 -0.083333333333333343
2236 443 -0.083333333333333329
444 444 2.666666666666667
445 444 -0.33333333333333337
475 444 -0.33333333333333337
2046 444 -0.083333333333333343
2047 444 -0.083333333333333343
2048 444 0.16666666666666669
2050 444 -0.083333333333333343
2051 444 -0.16666666666666669
2141 444 -0.083333333333333287
2143 444 -0.16666666666666669
2144 444 -0.083333333333333343
2145 444 -0.083333333333333315
2146 444 0.16666666666666669
2148 444 -0.083333333333333343
2239 444 -0.083333333333333329
445 445 2.666666666666667
446 445 -0.33333333333333337
476 445 -0.33333333333333337
2049 445 -0.083333333333333343
2050 445 -0.083333333333333343
2051 445 0.16666666666666669
2053 445 -0.083333333333333343
2054 445 -0.16666666666666669
2144 445 -0.083333333333333287
2146 445 -0.16666666666666669
2147 445 -0.083333333333333343
2148 445 -0.083333333333333315
2149 445 0.16666666666666669
2151 445 -0.083333333333333343
2242 445 -0.083333333333333329
446 446 2.666666666666667
447 446 -0.33333333333333337
477 446 -0.33333333333333337
2052 446 -0.083333333333333343
2053 446 -0.083333333333333343
2054 446 0.16666666666666669
2056 446 -0.083333333333333343
2057 446 -0.16666666666666669
2147 446 -0.083333333333333287
2149 446 -0.16666666666666669
2150 446 -0.083333333333333343
2151 446 -0.083333333333333315
2152 446 0.16666666666666669
2154 446 -0.083333333333333343
2245 446 -0.083333333333333329
447 447 2.666666666666667
448 447 -0.33333333333333337
478 447 -0.33333333333333337
2055 447 -0.083333333333333343
2056 447 -0.083333333333333343
2057 447 0.16666666666666669
2059 447 -0.083333333333333343
2060 447 -0.16666666666666669
2150 447 -0.083333333333333287
2152 447 -0.16666666666666669
2153 447 -0.083333333333333343
2154 447 -0.083333333333333315
2155 447 0.16666666666666669
2157 447 -0.083333333333333343
2248 447 -0.083333333333333329
448 448 2.666666666666667
449 448 -0.33333333333333337
479 448 -0.33333333333333337
2058 448 -0.083333333333333343
2059 448 -0.083333333333333343
2060 448 0.16666666666666669
2062 448 -0.083333333333333343
2063 448 -0.16666666666666669
2153 448 -0.083333333333333287
2155 448 -0.16666666666666669
2156 448 -0.083333333333333343
2157 448 -0.083333333333333315
2158 448 0.16666666666666669
2160 448 -0.083333333333333343
2251 448 -0.083333333333333329
449 449 2.666666666666667
450 449 -0.33333333333333337
480 449 -0.33333333333333337
2061 449 -0.083333333333333343
2062 449 -0.083333333333333343
2063 449 0.16666666666666669
2065 449 -0.083333333333333343
2066 449 -0.16666666666666669
2156 449 -0.083333333333333287
2158 449 -0.16666666666666669
2159 449 -0.083333333333333343
2160 449 -0.083333333333333315
2161 449 0.16666666666666669
2163 449 -0.083333333333333343
2254 449 -0.083333333333333329
450 450 2.666666666666667
451 450 -0.33333333333333337
481 450 -0.33333333333333337
2064 450 -0.083333333333333343
2065 450 -0.083333333333333343
2066 450 0.16666666666666669
2068 450 -0.083333333333333343
2069 450 -0.16666666666666669
2159 450 -0.083333333333333287
2161 450 -0.16666666666666669
2162 450 -0.083333333333333343
2163 450 -0.083333333333333315
2164 450 0.16666666666666669
2166 450 -0.083333333333333343
2257 450 -0.083333333333333329
451 451 2.666666666666667
452 451 -0.33333333333333337
482 451 -0.33333333333333337
2067 451 -0.083333333333333343
2068 451 -0.083333333333333343
2069 451 0.16666666666666669
2071 451 -0.083333333333333343
2072 451 -0.16666666666666669
2162 451 -0.083333333333333287
2164 451 -0.16666666666666669
2165 451 -0.083333333333333343
2166 451 -0.083333333333333315
2167 451 0.16666666666666669
2169 451 -0.083333333333333343
2260 451 -0.083333333333333329
452 452 2.666666666666667
453 452 -0.33333333333333337
483 452 -0.33333333333333337
2070 452 -0.083333333333333343
2071 452 -0.083333333333333343
2072 452 0.16666666666666669
2074 452 -0.083333333333333343
2075 452 -0.16666666666666669
2165 452 -0.083333333333333287
2167 452 -0.16666666666666669
2168 452 -0.083333333333333343
2169 452 -0.083333333333333315
2170 452 0.16666666666666669
2172 452 -0.083333333333333343
2263 452 -0.083333333333333329
453 453 2.666666666666667
454 453 -0.33333333333333337
484 453 -0.33333333333333337
2073 453 -0.083333333333333343
2074 453 -0.083333333333333343
2075 453 0.16666666666666669
2077 453 -0.083333333333333343
2078 453 -0.16666666666666669
2168 453 -0.083333333333333287
2170 453 -0.16666666666666669
2171 453 -0.083333333333333343
2172 453 -0.083333333333333315
2173 453 0.16666666666666669
2175 453 -0.083333333333333343
2266 453 -0.083333333333333329
454 454 2.666666666666667
455 454 -0.33333333333333337
485 454 -0.33333333333333337
2076 454 -0.083333333333333343
2077 454 -0.083333333333333343
2078 454 0.16666666666666669
2080 454 -0.083333333333333343
2081 454 -0.16666666666666669
2171 454 -0.083333333333333287
2173 454 -0.16666666666666669
2174 454 -0.083333333333333343
2175 454 -0.083333333333333315
2176 454 0.16666666666666669
2178 454 -0.083333333333333343
2269 454 -0.083333333333333329
455 455 2.666666666666667
456 455 -0.33333333333333337
486 455 -0.33333333333333337
2079 455 -0.083333333333333343
2080 455 -0.083333333333333343
2081 455 0.16666666666666669
2083 455 -0.083333333333333343
2084 455 -0.16666666666666669
2174 455 -0.083333333333333287
2176 455 -0.16666666666666669
2177 455 -0.083333333333333343
2178 455 -0.083333333333333315
2179 455 0.16666666666666669
2181 455 -0.083333333333333343
2272 455 -0.083333333333333329
456 456 2.666666666666667
457 456 -0.33333333333333337
487 456 -0.33333333333333337
2082 456 -0.083333333333333343
2083 456 -0.083333333333333343
2084 456 0.16666666666666669
2086 456 -0.083333333333333343
2087 456 -0.16666666666666669
2177 456 -0.083333333333333287
2179 456 -0.16666666666666669
2180 456 -0.083333333333333343
2181 456 -0.083333333333333315
2182 456 0.16666666666666669
2184 456 -0.083333333333333343
2275 456 -0.083333333333333329
457 457 2.666666666666667
488 457 -0.33333333333333337
2085 457 -0.083333333333333343
2086 457 -0.083333333333333343
2087 457 0.16666666666666669
2089 457 -0.083333333333333343
2090 457 -0.16666666666666669
2180 457 -0.083333333333333287
2182 457 -0.16666666666666669
2183 457 -0.083333333333333343
2184 457 -0.083333333333333315
2185 457 0.16666666666666669
2278 457 -0.083333333333333329
458 458 2.666666666666667
459 458 -0.33333333333333337
489 458 -0.33333333333333337
2091 458 -0.083333333333333343
2092 458 0.16666666666666669
2094 458 -0.083333333333333343
2095 458 -0.16666666666666669
2186 458 -0.083333333333333287
2187 458 -0.16666666666666669
2188 458 -0.083333333333333343
2189 458 -0.083333333333333315
2190 458 0.16666666666666669
2192 458 -0.083333333333333343
2283 458 -0.083333333333333329
459 459 2.666666666666667
460 459 -0.33333333333333337
490 459 -0.33333333333333337
2093 459 -0.083333333333333343
2094 459 -0.083333333333333343
2095 459 0.16666666666666669
2097 459 -0.083333333333333343
2098 459 -0.16666666666666669
2188 459 -0.083333333333333287
2190 459 -0.16666666666666669
2191 459 -0.083333333333333343
2192 459 -0.083333333333333315
2193 459 0.16666666666666669
2195 459 -0.083333333333333343
2286 459 -0.083333333333333329
460 460 2.666666666666667
461 460 -0.33333333333333337
491 460 -0.33333333333333337
2096 460 -0.083333333333333343
2097 460 -0.083333333333333343
2098 460 0.16666666666666669
2100 460 -0.083333333333333343
2101 460 -0.16666666666666669
2191 460 -0.083333333333333287
2193 460 -0.16666666666666669
2194 460 -0.083333333333333343
2195 460 -0.083333333333333315
2196 460 0.16666666666666669
2198 460 -0.083333333333333343
2289 460 -0.083333333333333329
461 461 2.666666666666667
462 461 -0.33333333333333337
492 461 -0.33333333333333337
2099 461 -0.083333333333333343
2100 461 -0.083333333333333343
2101 461 0.16666666666666669
2103 461 -0.083333333333333343
2104 461 -0.16666666666666669
2194 461 -0.083333333333333287
2196 461 -0.16666666666666669
2197 461 -0.083333333333333343
2198 461 -0.083333333333333315
2199 461 0.16666666666666669
2201 461 -0.083333333333333343
2292 461 -0.083333333333333329
462 462 2.666666666666667
463 462 -0.33333333333333337
493 462 -0.33333333333333337
2102 462 -0.083333333333333343
2103 462 -0.083333333333333343
2104 462 0.16666666666666669
2106 462 -0.083333333333333343
2107 462 -0.16666666666666669
2197 462 -0.083333333333333287
2199 462 -0.16666666666666669
2200 462 -0.083333333333333343
2201 462 -0.083333333333333315
2202 462 0.16666666666666669
2204 462 -0.083333333333333343
2295 462 -0.083333333333333329
463 463 2.666666666666667
464 463 -0.33333333333333337
494 463 -0.33333333333333337
2105 463 -0.083333333333333343
2106 463 -0.083333333333333343
2107 463 0.16666666666666669
2109 463 -0.083333333333333343
2110 463 -0.16666666666666669
2200 463 -0.083333333333333287
2202 463 -0.16666666666666669
2203 463 -0.083333333333333343
2204 463 -0.083333333333333315
2205 463 0.16666666666666669
2207 463 -0.083333333333333343
2298 463 -0.083333333333333329
464 464 2.666666666666667
465 464 -0.33333333333333337
495 464 -0.33333333333333337
2108 464 -0.083333333333333343
2109 464 -0.083333333333333343
2110 464 0.16666666666666669
2112 464 -0.083333333333333343
2113 464 -0.16666666666666669
2203 464 -0.083333333333333287
2205 464 -0.16666666666666669
2206 464 -0.083333333333333343
2207 464 -0.083333333333333315
2208 464 0.16666666666666669
2210 464 -0.083333333333333343
2301 464 -0.083333333333333329
465 465 2.666666666666667
466 465 -0.33333333333333337
496 465 -0.33333333333333337
2111 465 -0.083333333333333343
2112 465 -0.083333333333333343
2113 465 0.16666666666666669
2115 465 -0.083333333333333343
2116 465 -0.16666666666666669
2206 465 -0.083333333333333287
2208 465 -0.16666666666666669
2209 465 -0.083333333333333343
2210 465 -0.083333333333333315
2211 465 0.16666666666666669
2213 465 -0.083333333333333343
2304 465 -0.083333333333333329
466 466 2.666666666666667
467 466 -0.33333333333333337
497 466 -0.33333333333333337
2114 466 -0.083333333333333343
2115 466 -0.083333333333333343
2116 466 0.16666666666666669
2118 466 -0.083333333333333343
2119 466 -0.16666666666666669
2209 466 -0.083333333333333287
2211 466 -0.16666666666666669
2212 466 -0.083333333333333343
2213 466 -0.083333333333333315
2214 466 0.16666666666666669
2216 466 -0.083333333333333343
2307 466 -0.083333333333333329
467 467 2.666666666666667
468 467 -0.33333333333333337
498 467 -0.33333333333333337
2117 467 -0.083333333333333343
2118 467 -0.083333333333333343
2119 467 0.16666666666666669
2121 467 -0.083333333333333343
2122 467 -0.16666666666666669
2212 467 -0.083333333333333287
2214 467 -0.16666666666666669
2215 467 -0.083333333333333343
2216 467 -0.083333333333333315
2217 467 0.16666666666666669
2219 467 -0.083333333333333343
2310 467 -0.083333333333333329
468 468 2.666666666666667
469 468 -0.33333333333333337
499 468 -0.33333333333333337
2120 468 -0.083333333333333343
2121 468 -0.083333333333333343
2122 468 0.16666666666666669
2124 468 -0.083333333333333343
2125 468 -0.16666666666666669
2215 468 -0.083333333333333287
2217 468 -0.16666666666666669
2218 468 -0.083333333333333343
2219 468 -0.083333333333333315
2220 468 0.16666666666666669
2222 468 -0.083333333333333343
2313 468 -0.083333333333333329
469 469 2.666666666666667
470 469 -0.33333333333333337
500 469 -0.33333333333333337
2123 469 -0.083333333333333343
2124 469 -0.083333333333333343
2125 469 0.16666666666666669
2127 469 -0.083333333333333343
2128 469 -0.16666666666666669
2218 469 -0.083333333333333287
2220 469 -0.16666666666666669
2221 469 -0.083333333333333343
2222 469 -0.083333333333333315
2223 469 0.16666666666666669
2225 469 -0.083333333333333343
2316 469 -0.083333333333333329
470 470 2.666666666666667
471 470 -0.33333333333333337
501 470 -0.33333333333333337
2126 470 -0.083333333333333343
2127 470 -0.083333333333333343
2128 470 0.16666666666666669
2130 470 -0.083333333333333343
2131 470 -0.16666666666666669
2221 470 -0.083333333333333287
2223 470 -0.16666666666666669
2224 470 -0.083333333333333343
2225 470 -0.083333333333333315
2226 470 0.16666666666666669
2228 470 -0.083333333333333343
2319 470 -0.083333333333333329
471 471 2.666666666666667
472 471 -0.33333333333333337
502 471 -0.33333333333333337
2129 471 -0.083333333333333343
2130 471 -0.083333333333333343
2131 471 0.16666666666666669
2133 471 -0.083333333333333343
2134 471 -0.16666666666666669
2224 471 -0.083333333333333287
2226 471 -0.16666666666666669
2227 471 -0.083333333333333343
2228 471 -0.083333333333333315
2229 471 0.16666666666666669
2231 471 -0.083333333333333343
2322 471 -0.083333333333333329
472 472 2.666666666666667
473 472 -0.33333333333333337
503 472 -0.33333333333333337
2132 472 -0.083333333333333343
2133 472 -0.083333333333333343
2134 472 0.16666666666666669
2136 472 -0.083333333333333343
2137 472 -0.16666666666666669
2227 472 -0.083333333333333287
2229 472 -0.16666666666666669
2230 472 -0.083333333333333343
2231 472 -0.083333333333333315
2232 472 0.16666666666666669
2234 472 -0.083333333333333343
2325 472 -0.083333333333333329
473 473 2.666666666666667
474 473 -0.33333333333333337
504 473 -0.33333333333333337
2135 473 -0.083333333333333343
2136 473 -0.083333333333333343
2137 473 0.16666666666666669
2139 473 -0.083333333333333343
2140 473 -0.16666666666666669
2230 473 -0.083333333333333287
2232 473 -0.16666666666666669
2233 473 -0.083333333333333343
2234 473 -0.083333333333333315
2235 473 0.16666666666666669
2237 473 -0.083333333333333343
2328 473 -0.083333333333333329
474 474 2.666666666666667
475 474 -0.33333333333333337
505 474 -0.33333333333333337
2138 474 -0.083333333333333343
2139 474 -0.083333333333333343
2140 474 0.16666666666666669
2142 474 -0.083333333333333343
2143 474 -0.16666666666666669
2233 474 -0.083333333333333287
2235 474 -0.16666666666666669
2236 474 -0.083333333333333343
2237 474 -0.083333333333333315
2238 474 0.16666666666666669
2240 474 -0.083333333333333343
2331 474 -0.083333333333333329
475 475 2.666666666666667
476 475 -0.33333333333333337
506 475 -0.33333333333333337
2141 475 -0.083333333333333343
2142 475 -0.083333333333333343
2143 475 0.16666666666666669
2145 475 -0.083333333333333343
2146 475 -0.16666666666666669
2236 475 -0.083333333333333287
2238 475 -0.16666666666666669
2239 475 -0.083333333333333343
2240 475 -0.083333333333333315
2241 475 0.16666666666666669
2243 475 -0.083333333333333343
2334 475 -0.083333333333333329
476 476 2.666666666666667
477 476 -0.33333333333333337
507 476 -0.33333333333333337
2144 476 -0.083333333333333343
2145 476 -0.083333333333333343
2146 476 0.16666666666666669
2148 476 -0.083333333333333343
2149 476 -0.16666666666666669
2239 476 -0.083333333333333287
2241 476 -0.16666666666666669
2242 476 -0.083333333333333343
2243 476 -0.083333333333333315
2244 476 0.16666666666666669
2246 476 -0.083333333333333343
2337 476 -0.083333333333333329
477 477 2.666666666666667
478 477 -0.33333333333333337
508 477 -0.33333333333333337
2147 477 -0.083333333333333343
2148 477 -0.083333333333333343
2149 477 0.16666666666666669
2151 477 -0.083333333333333343
2152 477 -0.16666666666666669
2242 477 -0.083333333333333287
2244 477 -0.16666666666666669
2245 477 -0.083333333333333343
2246 477 -0.083333333333333315
2247 477 0.16666666666666669
2249 477 -0.083333333333333343
2340 477 -0.083333333333333329
478 478 2.666666666666667
479 478 -0.33333333333333337
509 478 -0.33333333333333337
2150 478 -0.083333333333333343
2151 478 -0.083333333333333343
2152 478 0.16666666666666669
2154 478 -0.083333333333333343
2155 478 -0.16666666666666669
2245 478 -0.083333333333333287
2247 478 -0.16666666666666669
2248 478 -0.083333333333333343
2249 478 -0.083333333333333315
2250 478 0.16666666666666669
2252 478 -0.083333333333333343
2343 478 -0.083333333333333329
479 479 2.666666666666667
480 479 -0.33333333333333337
510 479 -0.33333333333333337
2153 479 -0.083333333333333343
2154 479 -0.083333333333333343
2155 479 0.16666666666666669
2157 479 -0.083333333333333343
2158 479 -0.16666666666666669
2248 479 -0.083333333333333287
2250 479 -0.16666666666666669
2251 479 -0.083333333333333343
2252 479 -0.083333333333333315
2253 479 0.16666666666666669
2255 479 -0.083333333333333343
2346 479 -0.083333333333333329
480 480 2.666666666666667
481 480 -0.33333333333333337
511 480 -0.33333333333333337
2156 480 -0.083333333333333343
2157 480 -0.083333333333333343
2158 480 0.16666666666666669
2160 480 -0.083333333333333343
2161 480 -0.16666666666666669
2251 480 -0.083333333333333287
2253 480 -0.16666666666666669
2254 480 -0.083333333333333343
2255 480 -0.083333333333333315
2256 480 0.16666666666666669
2258 480 -0.083333333333333343
2349 480 -0.083333333333333329
481 481 2.666666666666667
482 481 -0.33333333333333337
512 481 -0.33333333333333337
2159 481 -0.083333333333333343
2160 481 -0.083333333333333343
2161 481 0.16666666666666669
2163 481 -0.083333333333333343
2164 481 -0.16666666666666669
2254 481 -0.083333333333333287
2256 481 -0.16666666666666669
2257 481 -0.083333333333333343
2258 481 -0.083333333333333315
2259 481 0.16666666666666669
2261 481 -0.083333333333333343
2352 481 -0.083333333333333329
482 482 2.666666666666667
483 482 -0.33333333333333337
513 482 -0.33333333333333337
2162 482 -0.083333333333333343
2163 482 -0.083333333333333343
2164 482 0.16666666666666669
2166 482 -0.083333333333333343
2167 482 -0.16666666666666669
2257 482 -0.083333333333333287
2259 482 -0.16666666666666669
2260 482 -0.083333333333333343
2261 482 -0.083333333333333315
2262 482 0.16666666666666669
2264 482 -0.083333333333333343
2355 482 -0.083333333333333329
483 483 2.666666666666667
484 483 -0.33333333333333337
514 483 -0.33333333333333337
2165 483 -0.083333333333333343
2166 483 -0.083333333333333343
2167 483 0.16666666666666669
2169 483 -0.083333333333333343
2170 483 -0.16666666666666669
2260 483 -0.083333333333333287
2262 483 -0.16666666666666669
2263 483 -0.083333333333333343
2264 483 -0.083333333333333315
2265 483 0.16666666666666669
2267 483 -0.083333333333333343
2358 483 -0.083333333333333329
484 484 2.666666666666667
485 484 -0.33333333333333337
515 484 -0.33333333333333337
2168 484 -0.083333333333333343
2169 484 -0.083333333333333343
2170 484 0.16666666666666669
2172 484 -0.083333333333333343
2173 484 -0.16666666666666669
2263 484 -0.083333333333333287
2265 484 -0.16666666666666669
2266 484 -0.083333333333333343
2267 484 -0.083333333333333315
2268 484 0.16666666666666669
2270 484 -0.083333333333333343
2361 484 -0.083333333333333329
485 485 2.666666666666667
486 485 -0.33333333333333337
516 485 -0.33333333333333337
2171 485 -0.083333333333333343
2172 485 -0.083333333333333343
2173 485 0.16666666666666669
2175 485 -0.083333333333333343
2176 485 -0.16666666666666669
2266 485 -0.083333333333333287
2268 485 -0.16666666666666669
2269 485 -0.083333333333333343
2270 485 -0.083333333333333315
2271 485 0.16666666666666669
2273 485 -0.083333333333333343
2364 485 -0.083333333333333329
486 486 2.666666666666667
487 486 -0.33333333333333337
517 486 -0.33333333333333337
2174 486 -0.083333333333333343
2175 486 -0.083333333333333343
2176 486 0.16666666666666669
2178 486 -0.083333333333333343
2179 486 -0.16666666666666669
2269 486 -0.083333333333333287
2271 486 -0.16666666666666669
2272 486 -0.083333333333333343
2273 486 -0.083333333333333315
2274 486 0.16666666666666669
2276 486 -0.083333333333333343
2367 486 -0.083333333333333329
487 487 2.666666666666667
488 487 -0.33333333333333337
518 487 -0.33333333333333337
2177 487 -0.083333333333333343
2178 487 -0.083333333333333343
2179 487 0.16666666666666669
2181 487 -0.083333333333333343
2182 487 -0.16666666666666669
2272 487 -0.083333333333333287
2274 487 -0.16666666666666669
2275 487 -0.083333333333333343
2276 487 -0.083333333333333315
2277 487 0.16666666666666669
2279 487 -0.083333333333333343
2370 487 -0.083333333333333329
488 488 2.666666666666667
519 488 -0.33333333333333337
2180 488 -0.083333333333333343
2181 488 -0.083333333333333343
2182 488 0.16666666666666669
2184 488 -0.083333333333333343
2185 488 -0.16666666666666669
2275 488 -0.083333333333333287
2277 488 -0.16666666666666669
2278 488 -0.083333333333333343
2279 488 -0.083333333333333315
2280 488 0.16666666666666669
2373 488 -0.083333333333333329
489 489 2.666666666666667
490 489 -0.33333333333333337
520 489 -0.33333333333333337
2186 489 -0.083333333333333343
2187 489 0.16666666666666669
2189 489 -0.083333333333333343
2190 489 -0.16666666666666669
2281 489 -0.083333333333333287
2282 489 -0.16666666666666669
2283 489 -0.083333333333333343
2284 489 -0.083333333333333315
2285 489 0.16666666666666669
2287 489 -0.083333333333333343
2378 489 -0.083333333333333329
490 490 2.666666666666667
491 490 -0.33333333333333337
521 490 -0.33333333333333337
2188 490 -0.083333333333333343
2189 490 -0.083333333333333343
2190 490 0.16666666666666669
2192 490 -0.083333333333333343
2193 490 -0.16666666666666669
2283 490 -0.083333333333333287
2285 490 -0.16666666666666669
2286 490 -0.083333333333333343
2287 490 -0.083333333333333315
2288 490 0.16666666666666669
2290 490 -0.083333333333333343
2381 490 -0.083333333333333329
491 491 2.666666666666667
492 491 -0.33333333333333337
522 491 -0.33333333333333337
2191 491 -0.083333333333333343
2192 491 -0.083333333333333343
2193 491 0.16666666666666669
2195 491 -0.083333333333333343
2196 491 -0.16666666666666669
2286 491 -0.083333333333333287
2288 491 -0.16666666666666669
2289 491 -0.083333333333333343
2290 491 -0.083333333333333315
2291 491 0.16666666666666669
2293 491 -0.083333333333333343
2384 491 -0.083333333333333329
492 492 2.666666666666667
493 492 -0.33333333333333337
523 492 -0.33333333333333337
2194 492 -0.083333333333333343
2195 492 -0.083333333333333343
2196 492 0.16666666666666669
2198 492 -0.083333333333333343
2199 492 -0.16666666666666669
2289 492 -0.083333333333333287
2291 492 -0.16666666666666669
2292 492 -0.083333333333333343
2293 492 -0.083333333333333315
2294 492 0.16666666666666669
2296 492 -0.083333333333333343
2387 492 -0.083333333333333329
493 493 2.666666666666667
494 493 -0.33333333333333337
524 493 -0.33333333333333337
2197 493 -0.083333333333333343
2198 493 -0.083333333333333343
2199 493 0.16666666666666669
2201 493 -0.083333333333333343
2202 493 -0.16666666666666669
2292 493 -0.083333333333333287
2294 493 -0.16666666666666669
2295 493 -0.083333333333333343
2296 493 -0.083333333333333315
2297 493 0.16666666666666669
2299 493 -0.083333333333333343
2390 493 -0.083333333333333329
494 494 2.666666666666667
495 494 -0.33333333333333337
525 494 -0.33333333333333337
2200 494 -0.083333333333333343
2201 494 -0.083333333333333343
2202 494 0.16666666666666669
2204 494 -0.083333333333333343
2205 494 -0.16666666666666669
2295 494 -0.083333333333333287
2297 494 -0.16666666666666669
2298 494 -0.083333333333333343
2299 494 -0.083333333333333315
2300 494 0.16666666666666669
2302 494 -0.083333333333333343
2393 494 -0.083333333333333329
495 495 2.666666666666667
496 495 -0.33333333333333337
526 495 -0.33333333333333337
2203 495 -0.083333333333333343
2204 495 -0.083333333333333343
2205 495 0.16666666666666669
2207 495 -0.083333333333333343
2208 495 -0.16666666666666669
2298 495 -0.083333333333333287
2300 495 -0.16666666666666669
2301 495 -0.083333333333333343
2302 495 -0.083333333333333315
2303 495 0.16666666666666669
2305 495 -0.083333333333333343
2396 495 -0.083333333333333329
496 496 2.666666666666667
497 496 -0.33333333333333337
527 496 -0.33333333333333337
2206 496 -0.083333333333333343
2207 496 -0.083333333333333343
2208 496 0.16666666666666669
2210 496 -0.083333333333333343
2211 496 -0.16666666666666669
2301 496 -0.083333333333333287
2303 496 -0.16666666666666669
2304 496 -0.083333333333333343
2305 496 -0.083333333333333315
2306 496 0.16666666666666669
2308 496 -0.083333333333333343
2399 496 -0.083333333333333329
497 497 2.666666666666667
498 497 -0.33333333333333337
528 497 -0.33333333333333337
2209 497 -0.083333333333333343
2210 497 -0.083333333333333343
2211 497 0.16666666666666669
2213 497 -0.083333333333333343
2214 497 -0.16666666666666669
2304 497 -0.083333333333333287
2306 497 -0.16666666666666669
2307 497 -0.083333333333333343
2308 497 -0.083333333333333315
2309 497 0.16666666666666669
2311 497 -0.083333333333333343
2402 497 -0.083333333333333329
498 498 2.666666666666667
499 498 -0.33333333333333337
529 498 -0.33333333333333337
2212 498 -0.083333333333333343
2213 498 -0.083333333333333343
2214 498 0.16666666666666669
2216 498 -0.083333333333333343
2217 498 -0.16666666666666669
2307 498 -0.083333333333333287
2309 498 -0.16666666666666669
2310 498 -0.083333333333333343
2311 498 -0.083333333333333315
2312 498 0.16666666666666669
2314 498 -0.083333333333333343
2405 498 -0.083333333333333329
499 499 2.666666666666667
500 499 -0.33333333333333337
530 499 -0.33333333333333337
2215 499 -0.083333333333333343
2216 499 -0.083333333333333343
2217 499 0.16666666666666669
2219 499 -0.083333333333333343
2220 499 -0.16666666666666669
2310 499 -0.083333333333333287
2312 499 -0.16666666666666669
2313 499 -0.083333333333333343
2314 499 -0.083333333333333315
2315 499 0.16666666666666669
2317 499 -0.083333333333333343
2408 499 -0.083333333333333329
500 500 2.666666666666667
501 500 -0.33333333333333337
531 500 -0.33333333333333337
2218 500 -0.083333333333333343
2219 500 -0.083333333333333343
2220 500 0.16666666666666669
2222 500 -0.083333333333333343
2223 500 -0.16666666666666669
2313 500 -0.083333333333333287
2315 500 -0.16666666666666669
2316 500 -0.083333333333333343
2317 500 -0.083333333333333315
2318 500 0.16666666666666669
2320 500 -0.083333333333333343
2411 500 -0.083333333333333329
501 501 2.666666666666667
502 501 -0.33333333333333337
532 501 -0.33333333333333337
2221 501 -0.083333333333333343
2222 501 -0.083333333333333343
2223 501 0.16666666666666669
2225 501 -0.083333333333333343
2226 501 -0.16666666666666669
2316 501 -0.083333333333333287
2318 501 -0.16666666666666669
2319 501 -0.083333333333333343
2320 501 -0.083333333333333315
2321 501 0.16666666666666669
2323 501 -0.083333333333333343
2414 501 -0.083333333333333329
502 502 2.666666666666667
503 502 -0.33333333333333337
533 502 -0.33333333333333337
2224 502 -0.083333333333333343
2225 502 -0.083333333333333343
2226 502 0.16666666666666669
2228 502 -0.083333333333333343
2229 502 -0.16666666666666669
2319 502 -0.083333333333333287
2321 502 -0.16666666666666669
2322 502 -0.083333333333333343
2323 502 -0.083333333333333315
2324 502 0.16666666666666669
2326 502 -0.083333333333333343
2417 502 -0.083333333333333329
503 503 2.666666666666667
504 503 -0.33333333333333337
534 503 -0.33333333333333337
2227 503 -0.083333333333333343
2228 503 -0.083333333333333343
2229 503 0.16666666666666669
2231 503 -0.083333333333333343
2232 503 -0.16666666666666669
2322 503 -0.083333333333333287
2324 503 -0.16666666666666669
2325 503 -0.083333333333333343
2326 503 -0.083333333333333315
2327 503 0.16666666666666669
2329 503 -0.083333333333333343
2420 503 -0.083333333333333329
504 504 2.666666666666667
505 504 -0.33333333333333337
535 504 -0.33333333333333337
2230 504 -0.083333333333333343
2231 504 -0.083333333333333343
2232 504 0.16666666666666669
2234 504 -0.083333333333333343
2235 504 -0.16666666666666669
2325 504 -0.083333333333333287
2327 504 -0.16666666666666669
2328 504 -0.083333333333333343
2329 504 -0.083333333333333315
2330 504 0.16666666666666669
2332 504 -0.083333333333333343
2423 504 -0.083333333333333329
505 505 2.666666666666667
506 505 -0.33333333333333337
536 505 -0.33333333333333337
2233 505 -0.083333333333333343
2234 505 -0.083333333333333343
2235 505 0.16666666666666669
2237 505 -0.083333333333333343
2238 505 -0.16666666666666669
2328 505 -0.083333333333333287
2330 505 -0.16666666666666669
2331 505 -0.083333333333333343
2332 505 -0.083333333333333315
2333 505 0.16666666666666669
2335 505 -0.083333333333333343
2426 505 -0.083333333333333329
506 506 2.666666666666667
507 506 -0.33333333333333337
537 506 -0.33333333333333337
2236 506 -0.083333333333333343
2237 506 -0.083333333333333343
2238 506 0.16666666666666669
2240 506 -0.083333333333333343
2241 506 -0.16666666666666669
2331 506 -0.083333333333333287
2333 506 -0.16666666666666669
2334 506 -0.083333333333333343
2335 506 -0.083333333333333315
2336 506 0.16666666666666669
2338 506 -0.083333333333333343
2429 506 -0.083333333333333329
507 507 2.666666666666667
508 507 -0.33333333333333337
538 507 -0.33333333333333337
2239 507 -0.083333333333333343
2240 507 -0.083333333333333343
2241 507 0.16666666666666669
2243 507 -0.083333333333333343
2244 507 -0.16666666666666669
2334 507 -0.083333333333333287
2336 507 -0.16666666666666669
2337 507 -0.083333333333333343
2338 507 -0.083333333333333315
2339 507 0.16666666666666669
2341 507 -0.083333333333333343
2432 507 -0.083333333333333329
508 508 2.666666666666667
509 508 -0.33333333333333337
539 508 -0.33333333333333337
2242 508 -0.083333333333333343
2243 508 -0.083333333333333343
2244 508 0.16666666666666669
2246 508 -0.083333333333333343
2247 508 -0.16666666666666669
2337 508 -0.083333333333333287
2339 508 -0.16666666666666669
2340 508 -0.083333333333333343
2341 508 -0.083333333333333315
2342 508 0.16666666666666669
2344 508 -0.083333333333333343
2435 508 -0.083333333333333329
509 509 2.666666666666667
510 509 -0.33333333333333337
540 509 -0.33333333333333337
2245 509 -0.083333333333333343
2246 509 -0.083333333333333343
2247 509 0.16666666666666669
2249 509 -0.083333333333333343
2250 509 -0.16666666666666669
2340 509 -0.083333333333333287
2342 509 -0.16666666666666669
2343 509 -0.083333333333333343
2344 509 -0.083333333333333315
2345 509 0.16666666666666669
2347 509 -0.083333333333333343
2438 509 -0.083333333333333329
510 510 2.666666666666667
511 510 -0.33333333333333337
541 510 -0.33333333333333337
2248 510 -0.083333333333333343
2249 510 -0.083333333333333343
2250 510 0.16666666666666669
2252 510 -0.083333333333333343
2253 510 -0.16666666666666669
2343 510 -0.083333333333333287
2345 510 -0.16666666666666669
2346 510 -0.083333333333333343
2347 510 -0.083333333333333315
2348 510 0.16666666666666669
2350 510 -0.083333333333333343
2441 510 -0.083333333333333329
511 511 2.666666666666667
512 511 -0.33333333333333337
542 511 -0.33333333333333337
2251 511 -0.083333333333333343
2252 511 -0.083333333333333343
2253 511 0.16666666666666669
2255 511 -0.083333333333333343
2256 511 -0.16666666666666669
2346 511 -0.083333333333333287
2348 511 -0.16666666666666669
2349 511 -0.083333333333333343
2350 511 -0.083333333333333315
2351 511 0.16666666666666669
2353 511 -0.083333333333333343
2444 511 -0.083333333333333329
512 512 2.666666666666667
513 512 -0.33333333333333337
543 512 -0.33333333333333337
2254 512 -0.083333333333333343
2255 512 -0.083333333333333343
2256 512 0.16666666666666669
2258 512 -0.083333333333333343
2259 512 -0.16666666666666669
2349 512 -0.083333333333333287
2351 512 -0.16666666666666669
2352 512 -0.083333333333333343
2353 512 -0.083333333333333315
2354 512 0.16666666666666669
2356 512 -0.083333333333333343
2447 512 -0.083333333333333329
513 513 2.666666666666667
514 513 -0.33333333333333337
544 513 -0.33333333333333337
2257 513 -0.083333333333333343
2258 513 -0.083333333333333343
2259 513 0.16666666666666669
2261 513 -0.083333333333333343
2262 513 -0.16666666666666669
2352 513 -0.083333333333333287
2354 513 -0.16666666666666669
2355 513 -0.083333333333333343
2356 513 -0.083333333333333315
2357 513 0.16666666666666669
2359 513 -0.083333333333333343
2450 513 -0.083333333333333329
514 514 2.666666666666667
515 514 -0.33333333333333337
545 514 -0.33333333333333337
2260 514 -0.083333333333333343
2261 514 -0.083333333333333343
2262 514 0.16666666666666669
2264 514 -0.083333333333333343
2265 514 -0.16666666666666669
2355 514 -0.083333333333333287
2357 514 -0.16666666666666669
2358 514 -0.083333333333333343
2359 514 -0.083333333333333315
2360 514 0.16666666666666669
2362 514 -0.083333333333333343
2453 514 -0.083333333333333329
515 515 2.666666666666667
516 515 -0.33333333333333337
546 515 -0.33333333333333337
2263 515 -0.083333333333333343
2264 515 -0.083333333333333343
2265 515 0.16666666666666669
2267 515 -0.083333333333333343
2268 515 -0.16666666666666669
2358 515 -0.083333333333333287
2360 515 -0.16666666666666669
2361 515 -0.083333333333333343
2362 515 -0.083333333333333315
2363 515 0.16666666666666669
2365 515 -0.083333333333333343
2456 515 -0.083333333333333329
516 516 2.666666666666667
517 516 -0.33333333333333337
547 516 -0.33333333333333337
2266 516 -0.083333333333333343
2267 516 -0.083333333333333343
2268 516 0.16666666666666669
2270 516 -0.083333333333333343
2271 516 -0.16666666666666669
2361 516 -0.083333333333333287
2363 516 -0.16666666666666669
2364 516 -0.083333333333333343
2365 516 -0.083333333333333315
2366 516 0.16666666666666669
2368 516 -0.083333333333333343
2459 516 -0.083333333333333329
517 517 2.666666666666667
518 517 -0.33333333333333337
548 517 -0.33333333333333337
2269 517 -0.083333333333333343
2270 517 -0.083333333333333343
2271 517 0.16666666666666669
2273 517 -0.083333333333333343
2274 517 -0.16666666666666669
2364 517 -0.083333333333333287
2366 517 -0.16666666666666669
2367 517 -0.083333333333333343
2368 517 -0.083333333333333315
2369 517 0.16666666666666669
2371 517 -0.083333333333333343
2462 517 -0.083333333333333329
518 518 2.666666666666667
519 518 -0.33333333333333337
549 518 -0.33333333333333337
2272 518 -0.083333333333333343
2273 518 -0.083333333333333343
2274 518 0.16666666666666669
2276 518 -0.083333333333333343
2277 518 -0.16666666666666669
2367 518 -0.083333333333333287
2369 518 -0.16666666666666669
2370 518 -0.083333333333333343
2371 518 -0.083333333333333315
2372 518 0.16666666666666669
2374 518 -0.083333333333333343
2465 518 -0.083333333333333329
519 519 2.666666666666667
550 519 -0.33333333333333337
2275 519 -0.083333333333333343
2276 519 -0.083333333333333343
2277 519 0.16666666666666669
2279 519 -0.083333333333333343
2280 519 -0.16666666666666669
2370 519 -0.083333333333333287
2372 519 -0.16666666666666669
2373 519 -0.083333333333333343
2374 519 -0.083333333333333315
2375 519 0.16666666666666669
2468 519 -0.083333333333333329
520 520 2.666666666666667
521 520 -0.33333333333333337
551 520 -0.33333333333333337
2281 520 -0.083333333333333343
2282 520 0.16666666666666669
2284 520 -0.083333333333333343
2285 520 -0.16666666666666669
2376 520 -0.083333333333333287
2377 520 -0.16666666666666669
2378 520 -0.083333333333333343
2379 520 -0.083333333333333315
2380 520 0.16666666666666669
2382 520 -0.083333333333333343
2473 520 -0.083333333333333329
521 521 2.666666666666667
522 521 -0.33333333333333337
552 521 -0.33333333333333337
2283 521 -0.083333333333333343
2284 521 -0.083333333333333343
2285 521 0.16666666666666669
2287 521 -0.083333333333333343
2288 521 -0.16666666666666669
2378 521 -0.083333333333333287
2380 521 -0.16666666666666669
2381 521 -0.083333333333333343
2382 521 -0.083333333333333315
2383 521 0.16666666666666669
2385 521 -0.083333333333333343
2476 521 -0.083333333333333329
522 522 2.666666666666667
523 522 -0.33333333333333337
553 522 -0.33333333333333337
2286 522 -0.083333333333333343
2287 522 -0.083333333333333343
2288 522 0.16666666666666669
2290 522 -0.083333333333333343
2291 522 -0.16666666666666669
2381 522 -0.083333333333333287
2383 522 -0.16666666666666669
2384 522 -0.083333333333333343
2385 522 -0.083333333333333315
2386 522 0.16666666666666669
2388 522 -0.083333333333333343
2479 522 -0.083333333333333329
523 523 2.666666666666667
524 523 -0.33333333333333337
554 523 -0.33333333333333337
2289 523 -0.083333333333333343
2290 523 -0.083333333333333343
2291 523 0.16666666666666669
2293 523 -0.083333333333333343
2294 523 -0.16666666666666669
2384 523 -0.083333333333333287
2386 523 -0.16666666666666669
2387 523 -0.083333333333333343
2388 523 -0.083333333333333315
2389 523 0.16666666666666669
2391 523 -0.083333333333333343
2482 523 -0.083333333333333329
524 524 2.666666666666667
525 524 -0.33333333333333337
555 524 -0.33333333333333337
2292 524 -0.083333333333333343
2293 524 -0.083333333333333343
2294 524 0.16666666666666669
2296 524 -0.083333333333333343
2297 524 -0.16666666666666669
2387 524 -0.083333333333333287
2389 524 -0.16666666666666669
2390 524 -0.083333333333333343
2391 524 -0.083333333333333315
2392 524 0.16666666666666669
2394 524 -0.083333333333333343
2485 524 -0.083333333333333329
525 525 2.666666666666667
526 525 -0.33333333333333337
556 525 -0.33333333333333337
2295 525 -0.083333333333333343
2296 525 -0.083333333333333343
2297 525 0.16666666666666669
2299 525 -0.083333333333333343
2300 525 -0.16666666666666669
2390 525 -0.083333333333333287
2392 525 -0.16666666666666669
2393 525 -0.083333333333333343
2394 525 -0.083333333333333315
2395 525 0.16666666666666669
2397 525 -0.083333333333333343
2488 525 -0.083333333333333329
526 526 2.666666666666667
527 526 -0.33333333333333337
557 526 -0.33333333333333337
2298 526 -0.083333333333333343
2299 526 -0.083333333333333343
2300 526 0.16666666666666669
2302 526 -0.083333333333333343
2303 526 -0.16666666666666669
2393 526 -0.083333333333333287
2395 526 -0.16666666666666669
2396 526 -0.083333333333333343
2397 526 -0.083333333333333315
2398 526 0.16666666666666669
2400 526 -0.083333333333333343
2491 526 -0.083333333333333329
527 527 2.666666666666667
528 527 -0.33333333333333337
558 527 -0.33333333333333337
2301 527 -0.083333333333333343
2302 527 -0.083333333333333343
2303 527 0.16666666666666669
2305 527 -0.083333333333333343
2306 527 -0.16666666666666669
2396 527 -0.083333333333333287
2398 527 -0.16666666666666669
2399 527 -0.083333333333333343
2400 527 -0.083333333333333315
2401 527 0.16666666666666669
2403 527 -0.083333333333333343
2494 527 -0.083333333333333329
528 528 2.666666666666667
529 528 -0.33333333333333337
559 528 -0.33333333333333337
2304 528 -0.083333333333333343
2305 528 -0.083333333333333343
2306 528 0.16666666666666669
2308 528 -0.083333333333333343
2309 528 -0.16666666666666669
2399 528 -0.083333333333333287
2401 528 -0.16666666666666669
2402 528 -0.083333333333333343
2403 528 -0.083333333333333315
2404 528 0.16666666666666669
2406 528 -0.083333333333333343
2497 528 -0.083333333333333329
529 529 2.666666666666667
530 529 -0.33333333333333337
560 529 -0.33333333333333337
2307 529 -0.083333333333333343
2308 529 -0.083333333333333343
2309 529 0.16666666666666669
2311 529 -0.083333333333333343
2312 529 -0.16666666666666669
2402 529 -0.083333333333333287
2404 529 -0.16666666666666669
2405 529 -0.083333333333333343
2406 529 -0.083333333333333315
2407 529 0.16666666666666669
2409 529 -0.083333333333333343
2500 529 -0.083333333333333329
530 530 2.666666666666667
531 530 -0.33333333333333337
561 530 -0.33333333333333337
2310 530 -0.083333333333333343
2311 530 -0.083333333333333343
2312 530 0.16666666666666669
2314 530 -0.083333333333333343
2315 530 -0.16666666666666669
2405 530 -0.083333333333333287
2407 530 -0.16666666666666669
2408 530 -0.083333333333333343
2409 530 -0.083333333333333315
2410 530 0.16666666666666669
2412 530 -0.083333333333333343
2503 530 -0.083333333333333329
531 531 2.666666666666667
532 531 -0.33333333333333337
562 531 -0.33333333333333337
2313 531 -0.083333333333333343
2314 531 -0.083333333333333343
2315 531 0.16666666666666669
2317 531 -0.083333333333333343
2318 531 -0.16666666666666669
2408 531 -0.083333333333333287
2410 531 -0.16666666666666669
2411 531 -0.083333333333333343
2412 531 -0.083333333333333315
2413 531 0.16666666666666669
2415 531 -0.083333333333333343
2506 531 -0.083333333333333329
532 532 2.666666666666667
533 532 -0.33333333333333337
563 532 -0.33333333333333337
2316 532 -0.083333333333333343
2317 532 -0.083333333333333343
2318 532 0.16666666666666669
2320 532 -0.083333333333333343
2321 532 -0.16666666666666669
2411 532 -0.083333333333333287
2413 532 -0.16666666666666669
2414 532 -0.083333333333333343
2415 532 -0.083333333333333315
2416 532 0.16666666666666669
2418 532 -0.083333333333333343
2509 532 -0.083333333333333329
533 533 2.666666666666667
534 533 -0.33333333333333337
564 533 -0.33333333333333337
2319 533 -0.083333333333333343
2320 533 -0.083333333333333343
2321 533 0.16666666666666669
2323 533 -0.083333333333333343
2324 533 -0.16666666666666669
2414 533 -0.083333333333333287
2416 533 -0.16666666666666669
2417 533 -0.083333333333333343
2418 533 -0.083333333333333315
2419 533 0.16666666666666669
2421 533 -0.083333333333333343
2512 533 -0.083333333333333329
534 534 2.666666666666667
535 534 -0.33333333333333337
565 534 -0.33333333333333337
2322 534 -0.083333333333333343
2323 534 -0.083333333333333343
2324 534 0.16666666666666669
2326 534 -0.083333333333333343
2327 534 -0.16666666666666669
2417 534 -0.083333333333333287
2419 534 -0.16666666666666669
2420 534 -0.083333333333333343
2421 534 -0.083333333333333315
2422 534 0.16666666666666669
2424 534 -0.083333333333333343
2515 534 -0.083333333333333329
535 535 2.666666666666667
536 535 -0.33333333333333337
566 535 -0.33333333333333337
2325 535 -0.083333333333333343
2326 535 -0.083333333333333343
2327 535 0.16666666666666669
2329 535 -0.083333333333333343
2330 535 -0.16666666666666669
2420 535 -0.083333333333333287
2422 535 -0.16666666666666669
2423 535 -0.083333333333333343
2424 535 -0.083333333333333315
2425 535 0.16666666666666669
2427 535 -0.083333333333333343
2518 535 -0.083333333333333329
536 536 2.666666666666667
537 536 -0.33333333333333337
567 536 -0.33333333333333337
2328 536 -0.083333333333333343
2329 536 -0.083333333333333343
2330 536 0.16666666666666669
2332 536 -0.083333333333333343
2333 536 -0.16666666666666669
2423 536 -0.083333333333333287
2425 536 -0.16666666666666669
2426 536 -0.083333333333333343
2427 536 -0.083333333333333315
2428 536 0.16666666666666669
2430 536 -0.083333333333333343
2521 536 -0.083333333333333329
537 537 2.666666666666667
538 537 -0.33333333333333337
568 537 -0.33333333333333337
2331 537 -0.083333333333333343
2332 537 -0.083333333333333343
2333 537 0.16666666666666669
2335 537 -0.083333333333333343
2336 537 -0.16666666666666669
2426 537 -0.083333333333333287
2428 537 -0.16666666666666669
2429 537 -0.083333333333333343
2430 537 -0.083333333333333315
2431 537 0.16666666666666669
2433 537 -0.083333333333333343
2524 537 -0.083333333333333329
538 538 2.666666666666667
539 538 -0.33333333333333337
569 538 -0.33333333333333337
2334 538 -0.083333333333333343
2335 538 -0.083333333333333343
2336 538 0.16666666666666669
2338 538 -0.083333333333333343
2339 538 -0.16666666666666669
2429 538 -0.083333333333333287
2431 538 -0.16666666666666669
2432 538 -0.083333333333333343
2433 538 -0.083333333333333315
2434 538 0.16666666666666669
2436 538 -0.083333333333333343
2527 538 -0.083333333333333329
539 539 2.666666666666667
540 539 -0.33333333333333337
570 539 -0.33333333333333337
2337 539 -0.083333333333333343
2338 539 -0.083333333333333343
2339 539 0.16666666666666669
2341 539 -0.083333333333333343
2342 539 -0.16666666666666669
2432 539 -0.083333333333333287
2434 539 -0.16666666666666669
2435 539 -0.083333333333333343
2436 539 -0.083333333333333315
2437 539 0.16666666666666669
2439 539 -0.083333333333333343
2530 539 -0.083333333333333329
540 540 2.666666666666667
541 540 -0.33333333333333337
571 540 -0.33333333333333337
2340 540 -0.083333333333333343
2341 540 -0.083333333333333343
2342 540 0.16666666666666669
2344 540 -0.083333333333333343
2345 540 -0.16666666666666669
2435 540 -0.083333333333333287
2437 540 -0.16666666666666669
2438 540 -0.083333333333333343
2439 540 -0.083333333333333315
2440 540 0.16666666666666669
2442 540 -0.083333333333333343
2533 540 -0.083333333333333329
541 541 2.666666666666667
542 541 -0.33333333333333337
572 541 -0.33333333333333337
2343 541 -0.083333333333333343
2344 541 -0.083333333333333343
2345 541 0.16666666666666669
2347 541 -0.083333333333333343
2348 541 -0.16666666666666669
2438 541 -0.083333333333333287
2440 541 -0.16666666666666669
2441 541 -0.083333333333333343
2442 541 -0.083333333333333315
2443 541 0.16666666666666669
2445 541 -0.083333333333333343
2536 541 -0.083333333333333329
542 542 2.666666666666667
543 542 -0.33333333333333337
573 542 -0.33333333333333337
2346 542 -0.083333333333333343
2347 542 -0.083333333333333343
2348 542 0.16666666666666669
2350 542 -0.083333333333333343
2351 542 -0.16666666666666669
2441 542 -0.083333333333333287
2443 542 -0.16666666666666669
2444 542 -0.083333333333333343
2445 542 -0.083333333333333315
2446 542 0.16666666666666669
2448 542 -0.083333333333333343
2539 542 -0.083333333333333329
543 543 2.666666666666667
544 543 -0.33333333333333337
574 543 -0.33333333333333337
2349 543 -0.083333333333333343
2350 543 -0.083333333333333343
2351 543 0.16666666666666669
2353 543 -0.083333333333333343
2354 543 -0.16666666666666669
2444 543 -0.083333333333333287
2446 543 -0.16666666666666669
2447 543 -0.083333333333333343
2448 543 -0.083333333333333315
2449 543 0.16666666666666669
2451 543 -0.083333333333333343
2542 543 -0.083333333333333329
544 544 2.666666666666667
545 544 -0.33333333333333337
575 544 -0.33333333333333337
2352 544 -0.083333333333333343
2353 544 -0.083333333333333343
2354 544 0.16666666666666669
2356 544 -0.083333333333333343
2357 544 -0.16666666666666669
2447 544 -0.083333333333333287
2449 544 -0.16666666666666669
2450 544 -0.083333333333333343
2451 544 -0.083333333333333315
2452 544 0.16666666666666669
2454 544 -0.083333333333333343
2545 544 -0.083333333333333329
545 545 2.666666666666667
546 545 -0.33333333333333337
576 545 -0.33333333333333337
2355 545 -0.083333333333333343
2356 545 -0.083333333333333343
2357 545 0.16666666666666669
2359 545 -0.083333333333333343
2360 545 -0.16666666666666669
2450 545 -0.083333333333333287
2452 545 -0.16666666666666669
2453 545 -0.083333333333333343
2454 545 -0.083333333333333315
2455 545 0.16666666666666669
2457 545 -0.083333333333333343
2548 545 -0.083333333333333329
546 546 2.666666666666667
547 546 -0.33333333333333337
577 546 -0.33333333333333337
2358 546 -0.083333333333333343
2359 546 -0.083333333333333343
2360 546 0.16666666666666669
2362 546 -0.083333333333333343
2363 546 -0.16666666666666669
2453 546 -0.083333333333333287
2455 546 -0.16666666666666669
2456 546 -0.083333333333333343
2457 546 -0.083333333333333315
2458 546 0.16666666666666669
2460 546 -0.083333333333333343
2551 546 -0.083333333333333329
547 547 2.666666666666667
548 547 -0.33333333333333337
578 547 -0.33333333333333337
2361 547 -0.083333333333333343
2362 547 -0.083333333333333343
2363 547 0.16666666666666669
2365 547 -0.083333333333333343
2366 547 -0.16666666666666669
2456 547 -0.083333333333333287
2458 547 -0.16666666666666669
2459 547 -0.083333333333333343
2460 547 -0.083333333333333315
2461 547 0.16666666666666669
2463 547 -0.083333333333333343
2554 547 -0.083333333333333329
548 548 2.666666666666667
549 548 -0.33333333333333337
579 548 -0.33333333333333337
2364 548 -0.083333333333333343
2365 548 -0.083333333333333343
2366 548 0.16666666666666669
2368 548 -0.083333333333333343
2369 548 -0.16666666666666669
2459 548 -0.083333333333333287
2461 548 -0.16666666666666669
2462 548 -0.083333333333333343
2463 548 -0.083333333333333315
2464 548 0.16666666666666669
2466 548 -0.083333333333333343
2557 548 -0.083333333333333329
549 549 2.666666666666667
550 549 -0.33333333333333337
580 549 -0.33333333333333337
2367 549 -0.083333333333333343
2368 549 -0.083333333333333343
2369 549 0.16666666666666669
2371 549 -0.083333333333333343
2372 549 -0.16666666666666669
2462 549 -0.083333333333333287
2464 549 -0.16666666666666669
2465 549 -0.083333333333333343
2466 549 -0.083333333333333315
2467 549 0.16666666666666669
2469 549 -0.083333333333333343
2560 549 -0.083333333333333329
550 550 2.666666666666667
581 550 -0.33333333333333337
2370 550 -0.083333333333333343
2371 550 -0.083333333333333343
2372 550 0.16666666666666669
2374 550 -0.083333333333333343
2375 550 -0.16666666666666669
2465 550 -0.083333333333333287
2467 550 -0.16666666666666669
2468 550 -0.083333333333333343
2469 550 -0.083333333333333315
2470 550 0.16666666666666669
2563 550 -0.083333333333333329
551 551 2.666666666666667
552 551 -0.33333333333333337
582 551 -0.33333333333333337
2376 551 -0.083333333333333343
2377 551 0.16666666666666669
2379 551 -0.083333333333333343
2380 551 -0.16666666666666669
2471 551 -0.083333333333333287
2472 551 -0.16666666666666669
2473 551 -0.083333333333333343
2474 551 -0.083333333333333315
2475 551 0.16666666666666669
2477 551 -0.083333333333333343
2568 551 -0.083333333333333329
552 552 2.666666666666667
553 552 -0.33333333333333337
583 552 -0.33333333333333337
2378 552 -0.083333333333333343
2379 552 -0.083333333333333343
2380 552 0.16666666666666669
2382 552 -0.083333333333333343
2383 552 -0.16666666666666669
2473 552 -0.083333333333333287
2475 552 -0.16666666666666669
2476 552 -0.083333333333333343
2477 552 -0.083333333333333315
2478 552 0.16666666666666669
2480 552 -0.083333333333333343
2571 552 -0.083333333333333329
553 553 2.666666666666667
554 553 -0.33333333333333337
584 553 -0.33333333333333337
2381 553 -0.083333333333333343
2382 553 -0.083333333333333343
2383 553 0.16666666666666669
2385 553 -0.083333333333333343
2386 553 -0.16666666666666669
2476 553 -0.083333333333333287
2478 553 -0.16666666666666669
2479 553 -0.083333333333333343
2480 553 -0.083333333333333315
2481 553 0.16666666666666669
2483 553 -0.083333333333333343
2574 553 -0.083333333333333329
554 554 2.666666666666667
555 554 -0.33333333333333337
585 554 -0.33333333333333337
2384 554 -0.083333333333333343
2385 554 -0.083333333333333343
2386 554 0.16666666666666669
2388 554 -0.083333333333333343
2389 554 -0.16666666666666669
2479 554 -0.083333333333333287
2481 554 -0.16666666666666669
2482 554 -0.083333333333333343
2483 554 -0.083333333333333315
2484 554 0.16666666666666669
2486 554 -0.083333333333333343
2577 554 -0.083333333333333329
555 555 2.666666666666667
556 555 -0.33333333333333337
586 555 -0.33333333333333337
2387 555 -0.083333333333333343
2388 555 -0.083333333333333343
2389 555 0.16666666666666669
2391 555 -0.083333333333333343
2392 555 -0.16666666666666669
2482 555 -0.083333333333333287
2484 555 -0.16666666666666669
2485 555 -0.083333333333333343
2486 555 -0.083333333333333315
2487 555 0.16666666666666669
2489 555 -0.083333333333333343
2580 555 -0.083333333333333329
556 556 2.666666666666667
557 556 -0.33333333333333337
587 556 -0.33333333333333337
2390 556 -0.083333333333333343
2391 556 -0.083333333333333343
2392 556 0.16666666666666669
2394 556 -0.083333333333333343
2395 556 -0.16666666666666669
2485 556 -0.083333333333333287
2487 556 -0.16666666666666669
2488 556 -0.083333333333333343
2489 556 -0.083333333333333315
2490 556 0.16666666666666669
2492 556 -0.083333333333333343
2583 556 -0.083333333333333329
557 557 2.666666666666667
558 557 -0.33333333333333337
588 557 -0.33333333333333337
2393 557 -0.083333333333333343
2394 557 -0.083333333333333343
2395 557 0.16666666666666669
2397 557 -0.083333333333333343
2398 557 -0.16666666666666669
2488 557 -0.083333333333333287
2490 557 -0.16666666666666669
2491 557 -0.083333333333333343
2492 557 -0.083333333333333315
2493 557 0.16666666666666669
2495 557 -0.083333333333333343
2586 557 -0.083333333333333329
558 558 2.666666666666667
559 558 -0.33333333333333337
589 558 -0.33333333333333337
2396 558 -0.083333333333333343
2397 558 -0.083333333333333343
2398 558 0.16666666666666669
2400 558 -0.083333333333333343
2401 558 -0.16666666666666669
2491 558 -0.083333333333333287
2493 558 -0.16666666666666669
2494 558 -0.083333333333333343
2495 558 -0.083333333333333315
2496 558 0.16666666666666669
2498 558 -0.083333333333333343
2589 558 -0.083333333333333329
559 559 2.666666666666667
560 559 -0.33333333333333337
590 559 -0.33333333333333337
2399 559 -0.083333333333333343
2400 559 -0.083333333333333343
2401 559 0.16666666666666669
2403 559 -0.083333333333333343
2404 559 -0.16666666666666669
2494 559 -0.083333333333333287
2496 559 -0.16666666666666669
2497 559 -0.083333333333333343
2498 559 -0.083333333333333315
2499 559 0.16666666666666669
2501 559 -0.083333333333333343
2592 559 -0.083333333333333329
560 560 2.666666666666667
561 560 -0.33333333333333337
591 560 -0.33333333333333337
2402 560 -0.083333333333333343
2403 560 -0.083333333333333343
2404 560 0.16666666666666669
2406 560 -0.083333333333333343
2407 560 -0.16666666666666669
2497 560 -0.083333333333333287
2499 560 -0.16666666666666669
2500 560 -0.083333333333333343
2501 560 -0.083333333333333315
2502 560 0.16666666666666669
2504 560 -0.083333333333333343
2595 560 -0.083333333333333329
561 561 2.666666666666667
562 561 -0.33333333333333337
592 561 -0.33333333333333337
2405 561 -0.083333333333333343
2406 561 -0.083333333333333343
2407 561 0.16666666666666669
2409 561 -0.083333333333333343
2410 561 -0.16666666666666669
2500 561 -0.083333333333333287
2502 561 -0.16666666666666669
2503 561 -0.083333333333333343
2504 561 -0.083333333333333315
2505 561 0.16666666666666669
2507 561 -0.083333333333333343
2598 561 -0.083333333333333329
562 562 2.666666666666667
563 562 -0.33333333333333337
593 562 -0.33333333333333337
2408 562 -0.083333333333333343
2409 562 -0.083333333333333343
2410 562 0.16666666666666669
2412 562 -0.083333333333333343
2413 562 -0.16666666666666669
2503 562 -0.083333333333333287
2505 562 -0.16666666666666669
2506 562 -0.083333333333333343
2507 562 -0.083333333333333315
2508 562 0.16666666666666669
2510 562 -0.083333333333333343
2601 562 -0.083333333333333329
563 563 2.666666666666667
564 563 -0.33333333333333337
594 563 -0.33333333333333337
2411 563 -0.083333333333333343
2412 563 -0.083333333333333343
2413 563 0.16666666666666669
2415 563 -0.083333333333333343
2416 563 -0.16666666666666669
2506 563 -0.083333333333333287
2508 563 -0.16666666666666669
2509 563 -0.083333333333333343
2510 563 -0.083333333333333315
2511 563 0.16666666666666669
2513 563 -0.083333333333333343
2604 563 -0.083333333333333329
564 564 2.666666666666667
565 564 -0.33333333333333337
595 564 -0.33333333333333337
2414 564 -0.083333333333333343
2415 564 -0.083333333333333343
2416 564 0.16666666666666669
2418 564 -0.083333333333333343
2419 564 -0.16666666666666669
2509 564 -0.083333333333333287
2511 564 -0.16666666666666669
2512 564 -0.083333333333333343
2513 564 -0.083333333333333315
2514 564 0.16666666666666669
2516 564 -0.083333333333333343
2607 564 -0.083333333333333329
565 565 2.666666666666667
566 565 -0.33333333333333337
596 565 -0.33333333333333337
2417 565 -0.083333333333333343
2418 565 -0.083333333333333343
2419 565 0.16666666666666669
2421 565 -0.083333333333333343
2422 565 -0.16666666666666669
2512 565 -0.083333333333333287
2514 565 -0.16666666666666669
2515 565 -0.083333333333333343
2516 565 -0.083333333333333315
2517 565 0.16666666666666669
2519 565 -0.083333333333333343
2610 565 -0.083333333333333329
566 566 2.666666666666667
567 566 -0.33333333333333337
597 566 -0.33333333333333337
2420 566 -0.083333333333333343
2421 566 -0.083333333333333343
2422 566 0.16666666666666669
2424 566 -0.083333333333333343
2425 566 -0.16666666666666669
2515 566 -0.083333333333333287
2517 566 -0.16666666666666669
2518 566 -0.083333333333333343
2519 566 -0.083333333333333315
2520 566 0.16666666666666669
2522 566 -0.083333333333333343
2613 566 -0.083333333333333329
567 567 2.666666666666667
568 567 -0.33333333333333337
598 567 -0.33333333333333337
2423 567 -0.083333333333333343
2424 567 -0.083333333333333343
2425 567 0.16666666666666669
2427 567 -0.083333333333333343
2428 567 -0.16666666666666669
2518 567 -0.083333333333333287
2520 567 -0.16666666666666669
2521 567 -0.083333333333333343
2522 567 -0.083333333333333315
2523 567 0.16666666666666669
2525 567 -0.083333333333333343
2616 567 -0.083333333333333329
568 568 2.666666666666667
569 568 -0.33333333333333337
599 568 -0.33333333333333337
2426 568 -0.083333333333333343
2427 568 -0.083333333333333343
2428 568 0.16666666666666669
2430 568 -0.083333333333333343
2431 568 -0.16666666666666669
2521 568 -0.083333333333333287
2523 568 -0.16666666666666669
2524 568 -0.083333333333333343
2525 568 -0.083333333333333315
2526 568 0.16666666666666669
2528 568 -0.083333333333333343
2619 568 -0.083333333333333329
569 569 2.666666666666667
570 569 -0.33333333333333337
600 569 -0.33333333333333337
2429 569 -0.083333333333333343
2430 569 -0.083333333333333343
2431 569 0.16666666666666669
2433 569 -0.083333333333333343
2434 569 -0.16666666666666669
2524 569 -0.083333333333333287
2526 569 -0.16666666666666669
2527 569 -0.083333333333333343
2528 569 -0.083333333333333315
2529 569 0.16666666666666669
2531 569 -0.083333333333333343
2622 569 -0.083333333333333329
570 570 2.666666666666667
571 570 -0.33333333333333337
601 570 -0.33333333333333337
2432 570 -0.083333333333333343
2433 570 -0.083333333333333343
2434 570 0.16666666666666669
2436 570 -0.083333333333333343
2437 570 -0.16666666666666669
2527 570 -0.083333333333333287
2529 570 -0.16666666666666669
2530 570 -0.083333333333333343
2531 570 -0.083333333333333315
2532 570 0.16666666666666669
2534 570 -0.083333333333333343
2625 570 -0.083333333333333329
571 571 2.666666666666667
572 571 -0.33333333333333337
602 571 -0.33333333333333337
2435 571 -0.083333333333333343
2436 571 -0.083333333333333343
2437 571 0.16666666666666669
2439 571 -0.083333333333333343
2440 571 -0.16666666666666669
2530 571 -0.083333333333333287
2532 571 -0.16666666666666669
2533 571 -0.083333333333333343
2534 571 -0.083333333333333315
2535 571 0.16666666666666669
2537 571 -0.083333333333333343
2628 571 -0.083333333333333329
572 572 2.666666666666667
573 572 -0.33333333333333337
603 572 -0.33333333333333337
2438 572 -0.083333333333333343
2439 572 -0.083333333333333343
2440 572 0.16666666666666669
2442 572 -0.083333333333333343
2443 572 -0.16666666666666669
2533 572 -0.083333333333333287
2535 572 -0.16666666666666669
2536 572 -0.083333333333333343
2537 572 -0.083333333333333315
2538 572 0.16666666666666669
2540 572 -0.083333333333333343
2631 572 -0.083333333333333329
573 573 2.666666666666667
574 573 -0.33333333333333337
604 573 -0.33333333333333337
2441 573 -0.083333333333333343
2442 573 -0.083333333333333343
2443 573 0.16666666666666669
2445 573 -0.083333333333333343
2446 573 -0.16666666666666669
2536 573 -0.083333333333333287
2538 573 -0.16666666666666669
2539 573 -0.083333333333333343
2540 573 -0.083333333333333315
2541 573 0.16666666666666669
2543 573 -0.083333333333333343
2634 573 -0.083333333333333329
574 574 2.666666666666667
575 574 -0.33333333333333337
605 574 -0.33333333333333337
2444 574 -0.083333333333333343
2445 574 -0.083333333333333343
2446 574 0.16666666666666669
2448 574 -0.083333333333333343
2449 574 -0.16666666666666669
2539 574 -0.083333333333333287
2541 574 -0.16666666666666669
2542 574 -0.083333333333333343
2543 574 -0.083333333333333315
2544 574 0.16666666666666669
2546 574 -0.083333333333333343
2637 574 -0.083333333333333329
575 575 2.666666666666667
576 575 -0.33333333333333337
606 575 -0.33333333333333337
2447 575 -0.083333333333333343
2448 575 -0.083333333333333343
2449 575 0.16666666666666669
2451 575 -0.083333333333333343
2452 575 -0.16666666666666669
2542 575 -0.083333333333333287
2544 575 -0.16666666666666669
2545 575 -0.083333333333333343
2546 575 -0.083333333333333315
2547 575 0.16666666666666669
2549 575 -0.083333333333333343
2640 575 -0.083333333333333329
576 576 2.666666666666667
577 576 -0.33333333333333337
607 576 -0.33333333333333337
2450 576 -0.083333333333333343
2451 576 -0.083333333333333343
2452 576 0.16666666666666669
2454 576 -0.083333333333333343
2455 576 -0.16666666666666669
2545 576 -0.083333333333333287
2547 576 -0.16666666666666669
2548 576 -0.083333333333333343
2549 576 -0.083333333333333315
2550 576 0.16666666666666669
2552 576 -0.083333333333333343
2643 576 -0.083333333333333329
577 577 2.666666666666667
578 577 -0.33333333333333337
608 577 -0.33333333333333337
2453 577 -0.083333333333333343
2454 577 -0.083333333333333343
2455 577 0.16666666666666669
2457 577 -0.083333333333333343
2458 577 -0.16666666666666669
2548 577 -0.083333333333333287
2550 577 -0.16666666666666669
2551 577 -0.083333333333333343
2552 577 -0.083333333333333315
2553 577 0.16666666666666669
2555 577 -0.083333333333333343
2646 577 -0.083333333333333329
578 578 2.666666666666667
579 578 -0.33333333333333337
609 578 -0.33333333333333337
2456 578 -0.083333333333333343
2457 578 -0.083333333333333343
2458 578 0.16666666666666669
2460 578 -0.083333333333333343
2461 578 -0.16666666666666669
2551 578 -0.083333333333333287
2553 578 -0.16666666666666669
2554 578 -0.083333333333333343
2555 578 -0.083333333333333315
2556 578 0.16666666666666669
2558 578 -0.083333333333333343
2649 578 -0.083333333333333329
579 579 2.666666666666667
580 579 -0.33333333333333337
610 579 -0.33333333333333337
2459 579 -0.083333333333333343
2460 579 -0.083333333333333343
2461 579 0.16666666666666669
2463 579 -0.083333333333333343
2464 579 -0.16666666666666669
2554 579 -0.083333333333333287
2556 579 -0.16666666666666669
2557 579 -0.083333333333333343
2558 579 -0.083333333333333315
2559 579 0.16666666666666669
2561 579 -0.083333333333333343
2652 579 -0.083333333333333329
580 580 2.666666666666667
581 580 -0.33333333333333337
611 580 -0.33333333333333337
2462 580 -0.083333333333333343
2463 580 -0.083333333333333343
2464 580 0.16666666666666669
2466 580 -0.083333333333333343
2467 580 -0.16666666666666669
2557 580 -0.083333333333333287
2559 580 -0.16666666666666669
2560 580 -0.083333333333333343
2561 580 -0.083333333333333315
2562 580 0.16666666666666669
2564 580 -0.083333333333333343
2655 580 -0.083333333333333329
581 581 2.666666666666667
612 581 -0.33333333333333337
2465 581 -0.083333333333333343
2466 581 -0.083333333333333343
2467 581 0.16666666666666669
2469 581 -0.083333333333333343
2470 581 -0.16666666666666669
2560 581 -0.083333333333333287
2562 581 -0.16666666666666669
2563 581 -0.083333333333333343
2564 581 -0.083333333333333315
2565 581 0.16666666666666669
2658 581 -0.083333333333333329
582 582 2.666666666666667
583 582 -0.33333333333333337
613 582 -0.33333333333333337
2471 582 -0.083333333333333343
2472 582 0.16666666666666669
2474 582 -0.083333333333333343
2475 582 -0.16666666666666669
2566 582 -0.083333333333333287
2567 582 -0.16666666666666669
2568 582 -0.083333333333333343
2569 582 -0.083333333333333315
2570 582 0.16666666666666669
2572 582 -0.083333333333333343
2663 582 -0.083333333333333329
583 583 2.666666666666667
584 583 -0.33333333333333337
614 583 -0.33333333333333337
2473 583 -0.083333333333333343
2474 583 -0.083333333333333343
2475 583 0.16666666666666669
2477 583 -0.083333333333333343
2478 583 -0.16666666666666669
2568 583 -0.083333333333333287
2570 583 -0.16666666666666669
2571 583 -0.083333333333333343
2572 583 -0.083333333333333315
2573 583 0.16666666666666669
2575 583 -0.083333333333333343
2666 583 -0.083333333333333329
584 584 2.666666666666667
585 584 -0.33333333333333337
615 584 -0.33333333333333337
2476 584 -0.083333333333333343
2477 584 -0.083333333333333343
2478 584 0.16666666666666669
2480 584 -0.083333333333333343
2481 584 -0.16666666666666669
2571 584 -0.083333333333333287
2573 584 -0.16666666666666669
2574 584 -0.083333333333333343
2575 584 -0.083333333333333315
2576 584 0.16666666666666669
2578 584 -0.083333333333333343
2669 584 -0.083333333333333329
585 585 2.666666666666667
586 585 -0.33333333333333337
616 585 -0.33333333333333337
2479 585 -0.083333333333333343
2480 585 -0.083333333333333343
2481 585 0.16666666666666669
2483 585 -0.083333333333333343
2484 585 -0.16666666666666669
2574 585 -0.083333333333333287
2576 585 -0.16666666666666669
2577 585 -0.083333333333333343
2578 585 -0.083333333333333315
2579 585 0.16666666666666669
2581 585 -0.083333333333333343
2672 585 -0.083333333333333329
586 586 2.666666666666667
587 586 -0.33333333333333337
617 586 -0.33333333333333337
2482 586 -0.083333333333333343
2483 586 -0.083333333333333343
2484 586 0.16666666666666669
2486 586 -0.083333333333333343
2487 586 -0.16666666666666669
2577 586 -0.083333333333333287
2579 586 -0.16666666666666669
2580 586 -0.083333333333333343
2581 586 -0.083333333333333315
2582 586 0.16666666666666669
2584 586 -0.083333333333333343
2675 586 -0.083333333333333329
587 587 2.666666666666667
588 587 -0.33333333333333337
618 587 -0.33333333333333337
2485 587 -0.083333333333333343
2486 587 -0.083333333333333343
2487 587 0.16666666666666669
2489 587 -0.083333333333333343
2490 587 -0.16666666666666669
2580 587 -0.083333333333333287
2582 587 -0.16666666666666669
2583 587 -0.083333333333333343
2584 587 -0.083333333333333315
2585 587 0.16666666666666669
2587 587 -0.083333333333333343
2678 587 -0.083333333333333329
588 588 2.666666666666667
589 588 -0.33333333333333337
619 588 -0.33333333333333337
2488 588 -0.083333333333333343
2489 588 -0.083333333333333343
2490 588 0.16666666666666669
2492 588 -0.083333333333333343
2493 588 -0.16666666666666669
2583 588 -0.083333333333333287
2585 588 -0.16666666666666669
2586 588 -0.083333333333333343
2587 588 -0.083333333333333315
2588 588 0.16666666666666669
2590 588 -0.083333333333333343
2681 588 -0.083333333333333329
589 589 2.666666666666667
590 589 -0.33333333333333337
620 589 -0.33333333333333337
2491 589 -0.083333333333333343
2492 589 -0.083333333333333343
2493 589 0.16666666666666669
2495 589 -0.083333333333333343
2496 589 -0.16666666666666669
2586 589 -0.083333333333333287
2588 589 -0.16666666666666669
2589 589 -0.083333333333333343
2590 589 -0.083333333333333315
2591 589 0.16666666666666669
2593 589 -0.083333333333333343
2684 589 -0.083333333333333329
590 590 2.666666666666667
591 590 -0.33333333333333337
621 590 -0.33333333333333337
2494 590 -0.083333333333333343
2495 590 -0.083333333333333343
2496 590 0.16666666666666669
2498 590 -0.083333333333333343
2499 590 -0.16666666666666669
2589 590 -0.083333333333333287
2591 590 -0.16666666666666669
2592 590 -0.083333333333333343
2593 590 -0.083333333333333315
2594 590 0.16666666666666669
2596 590 -0.083333333333333343
2687 590 -0.083333333333333329
591 591 2.666666666666667
592 591 -0.33333333333333337
622 591 -0.33333333333333337
2497 591 -0.083333333333333343
2498 591 -0.083333333333333343
2499 591 0.16666666666666669
2501 591 -0.083333333333333343
2502 591 -0.16666666666666669
2592 591 -0.083333333333333287
2594 591 -0.16666666666666669
2595 591 -0.083333333333333343
2596 591 -0.083333333333333315
2597 591 0.16666666666666669
2599 591 -0.083333333333333343
2690 591 -0.083333333333333329
592 592 2.666666666666667
593 592 -0.33333333333333337
623 592 -0.33333333333333337
2500 592 -0.083333333333333343
2501 592 -0.083333333333333343
2502 592 0.16666666666666669
2504 592 -0.083333333333333343
2505 592 -0.16666666666666669
2595 592 -0.083333333333333287
2597 592 -0.16666666666666669
2598 592 -0.083333333333333343
2599 592 -0.083333333333333315
2600 592 0.16666666666666669
2602 592 -0.083333333333333343
2693 592 -0.083333333333333329
593 593 2.666666666666667
594 593 -0.33333333333333337
624 593 -0.33333333333333337
2503 593 -0.083333333333333343
2504 593 -0.083333333333333343
2505 593 0.16666666666666669
2507 593 -0.083333333333333343
2508 593 -0.16666666666666669
2598 593 -0.083333333333333287
2600 593 -0.16666666666666669
2601 593 -0.083333333333333343
2602 593 -0.083333333333333315
2603 593 0.16666666666666669
2605 593 -0.083333333333333343
2696 593 -0.083333333333333329
594 594 2.666666666666667
595 594 -0.33333333333333337
625 594 -0.33333333333333337
2506 594 -0.083333333333333343
2507 594 -0.083333333333333343
2508 594 0.16666666666666669
2510 594 -0.083333333333333343
2511 594 -0.16666666666666669
2601 594 -0.083333333333333287
2603 594 -0.16666666666666669
2604 594 -0.083333333333333343
2605 594 -0.083333333333333315
2606 594 0.16666666666666669
2608 594 -0.083333333333333343
2699 594 -0.083333333333333329
595 595 2.666666666666667
596 595 -0.33333333333333337
626 595 -0.33333333333333337
2509 595 -0.083333333333333343
2510 595 -0.083333333333333343
2511 595 0.16666666666666669
2513 595 -0.083333333333333343
2514 595 -0.16666666666666669
2604 595 -0.083333333333333287
2606 595 -0.16666666666666669
2607 595 -0.083333333333333343
2608 595 -0.083333333333333315
2609 595 0.16666666666666669
2611 595 -0.083333333333333343
2702 595 -0.083333333333333329
596 596 2.666666666666667
597 596 -0.33333333333333337
627 596 -0.33333333333333337
2512 596 -0.083333333333333343
2513 596 -0.083333333333333343
2514 596 0.16666666666666669
2516 596 -0.083333333333333343
2517 596 -0.16666666666666669
2607 596 -0.083333333333333287
2609 596 -0.16666666666666669
2610 596 -0.083333333333333343
2611 596 -0.083333333333333315
2612 596 0.16666666666666669
2614 596 -0.083333333333333343
2705 596 -0.083333333333333329
597 597 2.666666666666667
598 597 -0.33333333333333337
628 597 -0.33333333333333337
2515 597 -0.083333333333333343
2516 597 -0.083333333333333343
2517 597 0.16666666666666669
2519 597 -0.083333333333333343
2520 597 -0.16666666666666669
2610 597 -0.083333333333333287
2612 597 -0.16666666666666669
2613 597 -0.083333333333333343
2614 597 -0.083333333333333315
2615 597 0.16666666666666669
2617 597 -0.083333333333333343
2708 597 -0.083333333333333329
598 598 2.666666666666667
599 598 -0.33333333333333337
629 598 -0.33333333333333337
2518 598 -0.083333333333333343
2519 598 -0.083333333333333343
2520 598 0.16666666666666669
2522 598 -0.083333333333333343
2523 598 -0.16666666666666669
2613 598 -0.083333333333333287
2615 598 -0.16666666666666669
2616 598 -0.083333333333333343
2617 598 -0.083333333333333315
2618 598 0.16666666666666669
2620 598 -0.083333333333333343
2711 598 -0.083333333333333329
599 599 2.666666666666667
600 599 -0.33333333333333337
630 599 -0.33333333333333337
2521 599 -0.083333333333333343
2522 599 -0.083333333333333343
2523 599 0.16666666666666669
2525 599 -0.083333333333333343
2526 599 -0.16666666666666669
2616 599 -0.083333333333333287
2618 599 -0.16666666666666669
2619 599 -0.083333333333333343
2620 599 -0.083333333333333315
2621 599 0.16666666666666669
2623 599 -0.083333333333333343
2714 599 -0.083333333333333329
600 600 2.666666666666667
601 600 -0.33333333333333337
631 600 -0.33333333333333337
2524 600 -0.083333333333333343
2525 600 -0.083333333333333343
2526 600 0.16666666666666669
2528 600 -0.083333333333333343
2529 600 -0.16666666666666669
2619 600 -0.083333333333333287
2621 600 -0.16666666666666669
2622 600 -0.083333333333333343
2623 600 -0.083333333333333315
2624 600 0.16666666666666669
2626 600 -0.083333333333333343
2717 600 -0.083333333333333329
601 601 2.666666666666667
602 601 -0.33333333333333337
632 601 -0.33333333333333337
2527 601 -0.083333333333333343
2528 601 -0.083333333333333343
2529 601 0.16666666666666669
2531 601 -0.083333333333333343
2532 601 -0.16666666666666669
2622 601 -0.083333333333333287
2624 601 -0.16666666666666669
2625 601 -0.083333333333333343
2626 601 -0.083333333333333315
2627 601 0.16666666666666669
2629 601 -0.083333333333333343
2720 601 -0.083333333333333329
602 602 2.666666666666667
603 602 -0.33333333333333337
633 602 -0.33333333333333337
2530 602 -0.083333333333333343
2531 602 -0.083333333333333343
2532 602 0.16666666666666669
2534 602 -0.083333333333333343
2535 602 -0.16666666666666669
2625 602 -0.083333333333333287
2627 602 -0.16666666666666669
2628 602 -0.083333333333333343
2629 602 -0.083333333333333315
2630 602 0.16666666666666669
2632 602 -0.083333333333333343
2723 602 -0.083333333333333329
603 603 2.666666666666667
604 603 -0.33333333333333337
634 603 -0.33333333333333337
2533 603 -0.083333333333333343
2534 603 -0.083333333333333343
2535 603 0.16666666666666669
2537 603 -0.083333333333333343
2538 603 -0.16666666666666669
2628 603 -0.083333333333333287
2630 603 -0.16666666666666669
2631 603 -0.083333333333333343
2632 603 -0.083333333333333315
2633 603 0.16666666666666669
2635 603 -0.083333333333333343
2726 603 -0.083333333333333329
604 604 2.666666666666667
605 604 -0.33333333333333337
635 604 -0.33333333333333337
2536 604 -0.083333333333333343
2537 604 -0.083333333333333343
2538 604 0.16666666666666669
2540 604 -0.083333333333333343
2541 604 -0.16666666666666669
2631 604 -0.083333333333333287
2633 604 -0.16666666666666669
2634 604 -0.083333333333333343
2635 604 -0.083333333333333315
2636 604 0.16666666666666669
2638 604 -0.083333333333333343
2729 604 -0.083333333333333329
605 605 2.666666666666667
606 605 -0.33333333333333337
636 605 -0.33333333333333337
2539 605 -0.083333333333333343
2540 605 -0.083333333333333343
2541 605 0.16666666666666669
2543 605 -0.083333333333333343
2544 605 -0.16666666666666669
2634 605 -0.083333333333333287
2636 605 -0.16666666666666669
2637 605 -0.083333333333333343
2638 605 -0.083333333333333315
2639 605 0.16666666666666669
2641 605 -0.083333333333333343
2732 605 -0.083333333333333329
606 606 2.666666666666667
607 606 -0.33333333333333337
637 606 -0.33333333333333337
2542 606 -0.083333333333333343
2543 606 -0.083333333333333343
2544 606 0.16666666666666669
2546 606 -0.083333333333333343
2547 606 -0.16666666666666669
2637 606 -0.083333333333333287
2639 606 -0.16666666666666669
2640 606 -0.083333333333333343
2641 606 -0.083333333333333315
2642 606 0.16666666666666669
2644 606 -0.083333333333333343
2735 606 -0.083333333333333329
607 607 2.666666666666667
608 607 -0.33333333333333337
638 607 -0.33333333333333337
2545 607 -0.083333333333333343
2546 607 -0.083333333333333343
2547 607 0.16666666666666669
2549 607 -0.083333333333333343
2550 607 -0.16666666666666669
2640 607 -0.083333333333333287
2642 607 -0.16666666666666669
2643 607 -0.083333333333333343
2644 607 -0.083333333333333315
2645 607 0.16666666666666669
2647 607 -0.083333333333333343
2738 607 -0.083333333333333329
608 608 2.666666666666667
609 608 -0.33333333333333337
639 608 -0.33333333333333337
2548 608 -0.083333333333333343
2549 608 -0.083333333333333343
2550 608 0.16666666666666669
2552 608 -0.083333333333333343
2553 608 -0.16666666666666669
2643 608 -0.083333333333333287
2645 608 -0.16666666666666669
2646 608 -0.083333333333333343
2647 608 -0.083333333333333315
2648 608 0.16666666666666669
2650 608 -0.083333333333333343
2741 608 -0.083333333333333329
609 609 2.666666666666667
610 609 -0.33333333333333337
640 609 -0.33333333333333337
2551 609 -0.083333333333333343
2552 609 -0.083333333333333343
2553 609 0.16666666666666669
2555 609 -0.083333333333333343
2556 609 -0.16666666666666669
2646 609 -0.083333333333333287
2648 609 -0.16666666666666669
2649 609 -0.083333333333333343
2650 609 -0.083333333333333315
2651 609 0.16666666666666669
2653 609 -0.083333333333333343
2744 609 -0.083333333333333329
610 610 2.666666666666667
611 610 -0.33333333333333337
641 610 -0.33333333333333337
2554 610 -0.083333333333333343
2555 610 -0.083333333333333343
2556 610 0.16666666666666669
2558 610 -0.083333333333333343
2559 610 -0.16666666666666669
2649 610 -0.083333333333333287
2651 610 -0.16666666666666669
2652 610 -0.083333333333333343
2653 610 -0.083333333333333315
2654 610 0.16666666666666669
2656 610 -0.083333333333333343
2747 610 -0.083333333333333329
611 611 2.666666666666667
612 611 -0.33333333333333337
642 611 -0.33333333333333337
2557 611 -0.083333333333333343
2558 611 -0.083333333333333343
2559 611 0.16666666666666669
2561 611 -0.083333333333333343
2562 611 -0.16666666666666669
2652 611 -0.083333333333333287
2654 611 -0.16666666666666669
2655 611 -0.083333333333333343
2656 611 -0.083333333333333315
2657 611 0.16666666666666669
2659 611 -0.083333333333333343
2750 611 -0.083333333333333329
612 612 2.666666666666667
643 612 -0.33333333333333337
2560 612 -0.083333333333333343
2561 612 -0.083333333333333343
2562 612 0.16666666666666669
2564 612 -0.083333333333333343
2565 612 -0.16666666666666669
2655 612 -0.083333333333333287
2657 612 -0.16666666666666669
2658 612 -0.083333333333333343
2659 612 -0.083333333333333315
2660 612 0.16666666666666669
2753 612 -0.083333333333333329
613 613 2.666666666666667
614 613 -0.33333333333333337
644 613 -0.33333333333333337
2566 613 -0.083333333333333343
2567 613 0.16666666666666669
2569 613 -0.083333333333333343
2570 613 -0.16666666666666669
2661 613 -0.083333333333333287
2662 613 -0.16666666666666669
2663 613 -0.083333333333333343
2664 613 -0.083333333333333315
2665 613 0.16666666666666669
2667 613 -0.083333333333333343
2758 613 -0.083333333333333329
614 614 2.666666666666667
615 614 -0.33333333333333337
645 614 -0.33333333333333337
2568 614 -0.083333333333333343
2569 614 -0.083333333333333343
2570 614 0.16666666666666669
2572 614 -0.083333333333333343
2573 614 -0.16666666666666669
2663 614 -0.083333333333333287
2665 614 -0.16666666666666669
2666 614 -0.083333333333333343
2667 614 -0.083333333333333315
2668 614 0.16666666666666669
2670 614 -0.083333333333333343
2761 614 -0.083333333333333329
615 615 2.666666666666667
616 615 -0.33333333333333337
646 615 -0.33333333333333337
2571 615 -0.083333333333333343
2572 615 -0.083333333333333343
2573 615 0.16666666666666669
2575 615 -0.083333333333333343
2576 615 -0.16666666666666669
2666 615 -0.083333333333333287
2668 615 -0.16666666666666669
2669 615 -0.083333333333333343
2670 615 -0.083333333333333315
2671 615 0.16666666666666669
2673 615 -0.083333333333333343
2764 615 -0.083333333333333329
616 616 2.666666666666667
617 616 -0.33333333333333337
647 616 -0.33333333333333337
2574 616 -0.083333333333333343
2575 616 -0.083333333333333343
2576 616 0.16666666666666669
2578 616 -0.083333333333333343
2579 616 -0.16666666666666669
2669 616 -0.083333333333333287
2671 616 -0.16666666666666669
2672 616 -0.083333333333333343
2673 616 -0.083333333333333315
2674 616 0.16666666666666669
2676 616 -0.083333333333333343
2767 616 -0.083333333333333329
617 617 2.666666666666667
618 617 -0.33333333333333337
648 617 -0.33333333333333337
2577 617 -0.083333333333333343
2578 617 -0.083333333333333343
2579 617 0.16666666666666669
2581 617 -0.083333333333333343
2582 617 -0.16666666666666669
2672 617 -0.083333333333333287
2674 617 -0.16666666666666669
2675 617 -0.083333333333333343
2676 617 -0.083333333333333315
2677 617 0.16666666666666669
2679 617 -0.083333333333333343
2770 617 -0.083333333333333329
618 618 2.666666666666667
619 618 -0.33333333333333337
649 618 -0.33333333333333337
2580 618 -0.083333333333333343
2581 618 -0.083333333333333343
2582 618 0.16666666666666669
2584 618 -0.083333333333333343
2585 618 -0.16666666666666669
2675 618 -0.083333333333333287
2677 618 -0.16666666666666669
2678 618 -0.083333333333333343
2679 618 -0.083333333333333315
2680 618 0.16666666666666669
2682 618 -0.083333333333333343
2773 618 -0.083333333333333329
619 619 2.666666666666667
620 619 -0.33333333333333337
650 619 -0.33333333333333337
2583 619 -0.083333333333333343
2584 619 -0.083333333333333343
2585 619 0.16666666666666669
2587 619 -0.083333333333333343
2588 619 -0.16666666666666669
2678 619 -0.083333333333333287
2680 619 -0.16666666666666669
2681 619 -0.083333333333333343
2682 619 -0.083333333333333315
2683 619 0.16666666666666669
2685 619 -0.083333333333333343
2776 619 -0.083333333333333329
620 620 2.666666666666667
621 620 -0.33333333333333337
651 620 -0.33333333333333337
2586 620 -0.083333333333333343
2587 620 -0.083333333333333343
2588 620 0.16666666666666669
2590 620 -0.083333333333333343
2591 620 -0.16666666666666669
2681 620 -0.083333333333333287
2683 620 -0.16666666666666669
2684 620 -0.083333333333333343
2685 620 -0.083333333333333315
2686 620 0.16666666666666669
2688 620 -0.083333333333333343
2779 620 -0.083333333333333329
621 621 2.666666666666667
622 621 -0.33333333333333337
652 621 -0.33333333333333337
2589 621 -0.083333333333333343
2590 621 -0.083333333333333343
2591 621 0.16666666666666669
2593 621 -0.083333333333333343
2594 621 -0.16666666666666669
2684 621 -0.083333333333333287
2686 621 -0.16666666666666669
2687 621 -0.083333333333333343
2688 621 -0.083333333333333315
2689 621 0.16666666666666669
2691 621 -0.083333333333333343
2782 621 -0.083333333333333329
622 622 2.666666666666667
623 622 -0.33333333333333337
653 622 -0.33333333333333337
2592 622 -0.083333333333333343
2593 622 -0.083333333333333343
2594 622 0.16666666666666669
2596 622 -0.083333333333333343
2597 622 -0.16666666666666669
2687 622 -0.083333333333333287
2689 622 -0.16666666666666669
2690 622 -0.083333333333333343
2691 622 -0.083333333333333315
2692 622 0.16666666666666669
2694 622 -0.083333333333333343
2785 622 -0.083333333333333329
623 623 2.666666666666667
624 623 -0.33333333333333337
654 623 -0.33333333333333337
2595 623 -0.083333333333333343
2596 623 -0.083333333333333343
2597 623 0.16666666666666669
2599 623 -0.083333333333333343
2600 623 -0.16666666666666669
2690 623 -0.083333333333333287
2692 623 -0.16666666666666669
2693 623 -0.083333333333333343
2694 623 -0.083333333333333315
2695 623 0.16666666666666669
2697 623 -0.083333333333333343
2788 623 -0.083333333333333329
624 624 2.666666666666667
625 624 -0.33333333333333337
655 624 -0.33333333333333337
2598 624 -0.083333333333333343
2599 624 -0.083333333333333343
2600 624 0.16666666666666669
2602 624 -0.083333333333333343
2603 624 -0.16666666666666669
2693 624 -0.083333333333333287
2695 624 -0.16666666666666669
2696 624 -0.083333333333333343
2697 624 -0.083333333333333315
2698 624 0.16666666666666669
2700 624 -0.083333333333333343
2791 624 -0.083333333333333329
625 625 2.666666666666667
626 625 -0.33333333333333337
656 625 -0.33333333333333337
2601 625 -0.083333333333333343
2602 625 -0.083333333333333343
2603 625 0.16666666666666669
2605 625 -0.083333333333333343
2606 625 -0.16666666666666669
2696 625 -0.083333333333333287
2698 625 -0.16666666666666669
2699 625 -0.083333333333333343
2700 625 -0.083333333333333315
2701 625 0.16666666666666669
2703 625 -0.083333333333333343
2794 625 -0.083333333333333329
626 626 2.666666666666667
627 626 -0.33333333333333337
657 626 -0.33333333333333337
2604 626 -0.083333333333333343
2605 626 -0.083333333333333343
2606 626 0.16666666666666669
2608 626 -0.083333333333333343
2609 626 -0.16666666666666669
2699 626 -0.083333333333333287
2701 626 -0.16666666666666669
2702 626 -0.083333333333333343
2703 626 -0.083333333333333315
2704 626 0.16666666666666669
2706 626 -0.083333333333333343
2797 626 -0.083333333333333329
627 627 2.666666666666667
628 627 -0.33333333333333337
658 627 -0.33333333333333337
2607 627 -0.083333333333333343
2608 627 -0.083333333333333343
2609 627 0.16666666666666669
2611 627 -0.083333333333333343
2612 627 -0.16666666666666669
2702 627 -0.083333333333333287
2704 627 -0.16666666666666669
2705 627 -0.083333333333333343
2706 627 -0.083333333333333315
2707 627 0.16666666666666669
2709 627 -0.083333333333333343
2800 627 -0.083333333333333329
628 628 2.666666666666667
629 628 -0.33333333333333337
659 628 -0.33333333333333337
2610 628 -0.083333333333333343
2611 628 -0.083333333333333343
2612 628 0.16666666666666669
2614 628 -0.083333333333333343
2615 628 -0.16666666666666669
2705 628 -0.083333333333333287
2707 628 -0.16666666666666669
2708 628 -0.083333333333333343
2709 628 -0.083333333333333315
2710 628 0.16666666666666669
2712 628 -0.083333333333333343
2803 628 -0.083333333333333329
629 629 2.666666666666667
630 629 -0.33333333333333337
660 629 -0.33333333333333337
2613 629 -0.083333333333333343
2614 629 -0.083333333333333343
2615 629 0.16666666666666669
2617 629 -0.083333333333333343
2618 629 -0.16666666666666669
2708 629 -0.083333333333333287
2710 629 -0.16666666666666669
2711 629 -0.083333333333333343
2712 629 -0.083333333333333315
2713 629 0.16666666666666669
2715 629 -0.083333333333333343
2806 629 -0.083333333333333329
630 630 2.666666666666667
631 630 -0.33333333333333337
661 630 -0.33333333333333337
2616 630 -0.083333333333333343
2617 630 -0.083333333333333343
2618 630 0.16666666666666669
2620 630 -0.083333333333333343
2621 630 -0.16666666666666669
2711 630 -0.083333333333333287
2713 630 -0.16666666666666669
2714 630 -0.083333333333333343
2715 630 -0.083333333333333315
2716 630 0.16666666666666669
2718 630 -0.083333333333333343
2809 630 -0.083333333333333329
631 631 2.666666666666667
632 631 -0.33333333333333337
662 631 -0.33333333333333337
2619 631 -0.083333333333333343
2620 631 -0.083333333333333343
2621 631 0.16666666666666669
2623 631 -0.083333333333333343
2624 631 -0.16666666666666669
2714 631 -0.083333333333333287
2716 631 -0.16666666666666669
2717 631 -0.083333333333333343
2718 631 -0.083333333333333315
2719 631 0.16666666666666669
2721 631 -0.083333333333333343
2812 631 -0.083333333333333329
632 632 2.666666666666667
633 632 -0.33333333333333337
663 632 -0.33333333333333337
2622 632 -0.083333333333333343
2623 632 -0.083333333333333343
2624 632 0.16666666666666669
2626 632 -0.083333333333333343
2627 632 -0.16666666666666669
2717 632 -0.083333333333333287
2719 632 -0.16666666666666669
2720 632 -0.083333333333333343
2721 632 -0.083333333333333315
2722 632 0.16666666666666669
2724 632 -0.083333333333333343
2815 632 -0.083333333333333329
633 633 2.666666666666667
634 633 -0.33333333333333337
664 633 -0.33333333333333337
2625 633 -0.083333333333333343
2626 633 -0.083333333333333343
2627 633 0.16666666666666669
2629 633 -0.083333333333333343
2630 633 -0.16666666666666669
2720 633 -0.083333333333333287
2722 633 -0.16666666666666669
2723 633 -0.083333333333333343
2724 633 -0.083333333333333315
2725 633 0.16666666666666669
2727 633 -0.083333333333333343
2818 633 -0.083333333333333329
634 634 2.666666666666667
635 634 -0.33333333333333337
665 634 -0.33333333333333337
2628 634 -0.083333333333333343
2629 634 -0.083333333333333343
2630 634 0.16666666666666669
2632 634 -0.083333333333333343
2633 634 -0.16666666666666669
2723 634 -0.083333333333333287
2725 634 -0.16666666666666669
2726 634 -0.083333333333333343
2727 634 -0.083333333333333315
2728 634 0.16666666666666669
2730 634 -0.083333333333333343
2821 634 -0.083333333333333329
635 635 2.666666666666667
636 635 -0.33333333333333337
666 635 -0.33333333333333337
2631 635 -0.083333333333333343
2632 635 -0.083333333333333343
2633 635 0.16666666666666669
2635 635 -0.083333333333333343
2636 635 -0.16666666666666669
2726 635 -0.083333333333333287
2728 635 -0.16666666666666669
2729 635 -0.083333333333333343
2730 635 -0.083333333333333315
2731 635 0.16666666666666669
2733 635 -0.083333333333333343
2824 635 -0.083333333333333329
636 636 2.666666666666667
637 636 -0.33333333333333337
667 636 -0.33333333333333337
2634 636 -0.083333333333333343
2635 636 -0.083333333333333343
2636 636 0.16666666666666669
2638 636 -0.083333333333333343
2639 636 -0.16666666666666669
2729 636 -0.083333333333333287
2731 636 -0.16666666666666669
2732 636 -0.083333333333333343
2733 636 -0.083333333333333315
2734 636 0.16666666666666669
2736 636 -0.083333333333333343
2827 636 -0.083333333333333329
637 637 2.666666666666667
638 637 -0.33333333333333337
668 637 -0.33333333333333337
2637 637 -0.083333333333333343
2638 637 -0.083333333333333343
2639 637 0.16666666666666669
2641 637 -0.083333333333333343
2642 637 -0.16666666666666669
2732 637 -0.083333333333333287
2734 637 -0.16666666666666669
2735 637 -0.083333333333333343
2736 637 -0.083333333333333315
2737 637 0.16666666666666669
2739 637 -0.083333333333333343
2830 637 -0.083333333333333329
638 638 2.666666666666667
639 638 -0.33333333333333337
669 638 -0.33333333333333337
2640 638 -0.083333333333333343
2641 638 -0.083333333333333343
2642 638 0.16666666666666669
2644 638 -0.083333333333333343
2645 638 -0.16666666666666669
2735 638 -0.083333333333333287
2737 638 -0.16666666666666669
2738 638 -0.083333333333333343
2739 638 -0.083333333333333315
2740 638 0.16666666666666669
2742 638 -0.083333333333333343
2833 638 -0.083333333333333329
639 639 2.666666666666667
640 639 -0.33333333333333337
670 639 -0.33333333333333337
2643 639 -0.083333333333333343
2644 639 -0.083333333333333343
2645 639 0.16666666666666669
2647 639 -0.083333333333333343
2648 639 -0.16666666666666669
2738 639 -0.083333333333333287
2740 639 -0.16666666666666669
2741 639 -0.083333333333333343
2742 639 -0.083333333333333315
2743 639 0.16666666666666669
2745 639 -0.083333333333333343
2836 639 -0.083333333333333329
640 640 2.666666666666667
641 640 -0.33333333333333337
671 640 -0.33333333333333337
2646 640 -0.083333333333333343
2647 640 -0.083333333333333343
2648 640 0.16666666666666669
2650 640 -0.083333333333333343
2651 640 -0.16666666666666669
2741 640 -0.083333333333333287
2743 640 -0.16666666666666669
2744 640 -0.083333333333333343
2745 640 -0.083333333333333315
2746 640 0.16666666666666669
2748 640 -0.083333333333333343
2839 640 -0.083333333333333329
641 641 2.666666666666667
642 641 -0.33333333333333337
672 641 -0.33333333333333337
2649 641 -0.083333333333333343
2650 641 -0.083333333333333343
2651 641 0.16666666666666669
2653 641 -0.083333333333333343
2654 641 -0.16666666666666669
2744 641 -0.083333333333333287
2746 641 -0.16666666666666669
2747 641 -0.083333333333333343
2748 641 -0.083333333333333315
2749 641 0.16666666666666669
2751 641 -0.083333333333333343
2842 641 -0.083333333333333329
642 642 2.666666666666667
643 642 -0.33333333333333337
673 642 -0.33333333333333337
2652 642 -0.083333333333333343
2653 642 -0.083333333333333343
2654 642 0.16666666666666669
2656 642 -0.083333333333333343
2657 642 -0.16666666666666669
2747 642 -0.083333333333333287
2749 642 -0.16666666666666669
2750 642 -0.083333333333333343
2751 642 -0.083333333333333315
2752 642 0.16666666666666669
2754 642 -0.083333333333333343
2845 642 -0.083333333333333329
643 643 2.666666666666667
674 643 -0.33333333333333337
2655 643 -0.083333333333333343
2656 643 -0.083333333333333343
2657 643 0.16666666666666669
2659 643 -0.083333333333333343
2660 643 -0.16666666666666669
2750 643 -0.083333333333333287
2752 643 -0.16666666666666669
2753 643 -0.083333333333333343
2754 643 -0.083333333333333315
2755 643 0.16666666666666669
2848 643 -0.083333333333333329
644 644 2.666666666666667
645 644 -0.33333333333333337
675 644 -0.33333333333333337
2661 644 -0.083333333333333343
2662 644 0.16666666666666669
2664 644 -0.083333333333333343
2665 644 -0.16666666666666669
2756 644 -0.083333333333333287
2757 644 -0.16666666666666669
2758 644 -0.083333333333333343
2759 644 -0.083333333333333315
2760 644 0.16666666666666669
2762 644 -0.083333333333333343
2853 644 -0.083333333333333329
645 645 2.666666666666667
646 645 -0.33333333333333337
676 645 -0.33333333333333337
2663 645 -0.083333333333333343
2664 645 -0.083333333333333343
2665 645 0.16666666666666669
2667 645 -0.083333333333333343
2668 645 -0.16666666666666669
2758 645 -0.083333333333333287
2760 645 -0.16666666666666669
2761 645 -0.083333333333333343
2762 645 -0.083333333333333315
2763 645 0.16666666666666669
2765 645 -0.083333333333333343
2856 645 -0.083333333333333329
646 646 2.666666666666667
647 646 -0.33333333333333337
677 646 -0.33333333333333337
2666 646 -0.083333333333333343
2667 646 -0.083333333333333343
2668 646 0.16666666666666669
2670 646 -0.083333333333333343
2671 646 -0.16666666666666669
2761 646 -0.083333333333333287
2763 646 -0.16666666666666669
2764 646 -0.083333333333333343
2765 646 -0.083333333333333315
2766 646 0.16666666666666669
2768 646 -0.083333333333333343
2859 646 -0.083333333333333329
647 647 2.666666666666667
648 647 -0.33333333333333337
678 647 -0.33333333333333337
2669 647 -0.083333333333333343
2670 647 -0.083333333333333343
2671 647 0.16666666666666669
2673 647 -0.083333333333333343
2674 647 -0.16666666666666669
2764 647 -0.083333333333333287
2766 647 -0.16666666666666669
2767 647 -0.083333333333333343
2768 647 -0.083333333333333315
2769 647 0.16666666666666669
2771 647 -0.083333333333333343
2862 647 -0.083333333333333329
648 648 2.666666666666667
649 648 -0.33333333333333337
679 648 -0.33333333333333337
2672 648 -0.083333333333333343
2673 648 -0.083333333333333343
2674 648 0.16666666666666669
2676 648 -0.083333333333333343
2677 648 -0.16666666666666669
2767 648 -0.083333333333333287
2769 648 -0.16666666666666669
2770 648 -0.083333333333333343
2771 648 -0.083333333333333315
2772 648 0.16666666666666669
2774 648 -0.083333333333333343
2865 648 -0.083333333333333329
649 649 2.666666666666667
650 649 -0.33333333333333337
680 649 -0.33333333333333337
2675 649 -0.083333333333333343
2676 649 -0.083333333333333343
2677 649 0.16666666666666669
2679 649 -0.083333333333333343
2680 649 -0.16666666666666669
2770 649 -0.083333333333333287
2772 649 -0.16666666666666669
2773 649 -0.083333333333333343
2774 649 -0.083333333333333315
2775 649 0.16666666666666669
2777 649 -0.083333333333333343
2868 649 -0.083333333333333329
650 650 2.666666666666667
651 650 -0.33333333333333337
681 650 -0.33333333333333337
2678 650 -0.083333333333333343
2679 650 -0.083333333333333343
2680 650 0.16666666666666669
2682 650 -0.083333333333333343
2683 650 -0.16666666666666669
2773 650 -0.083333333333333287
2775 650 -0.16666666666666669
2776 650 -0.083333333333333343
2777 650 -0.083333333333333315
2778 650 0.16666666666666669
2780 650 -0.083333333333333343
2871 650 -0.083333333333333329
651 651 2.666666666666667
652 651 -0.33333333333333337
682 651 -0.33333333333333337
2681 651 -0.083333333333333343
2682 651 -0.083333333333333343
2683 651 0.16666666666666669
2685 651 -0.083333333333333343
2686 651 -0.16666666666666669
2776 651 -0.083333333333333287
2778 651 -0.16666666666666669
2779 651 -0.083333333333333343
2780 651 -0.083333333333333315
2781 651 0.16666666666666669
2783 651 -0.083333333333333343
2874 651 -0.083333333333333329
652 652 2.666666666666667
653 652 -0.33333333333333337
683 652 -0.33333333333333337
2684 652 -0.083333333333333343
2685 652 -0.083333333333333343
2686 652 0.16666666666666669
2688 652 -0.083333333333333343
2689 652 -0.16666666666666669
2779 652 -0.083333333333333287
2781 652 -0.16666666666666669
2782 652 -0.083333333333333343
2783 652 -0.083333333333333315
2784 652 0.16666666666666669
2786 652 -0.083333333333333343
2877 652 -0.083333333333333329
653 653 2.666666666666667
654 653 -0.33333333333333337
684 653 -0.33333333333333337
2687 653 -0.083333333333333343
2688 653 -0.083333333333333343
2689 653 0.16666666666666669
2691 653 -0.083333333333333343
2692 653 -0.16666666666666669
2782 653 -0.083333333333333287
2784 653 -0.16666666666666669
2785 653 -0.083333333333333343
2786 653 -0.083333333333333315
2787 653 0.16666666666666669
2789 653 -0.083333333333333343
2880 653 -0.083333333333333329
654 654 2.666666666666667
655 654 -0.33333333333333337
685 654 -0.33333333333333337
2690 654 -0.083333333333333343
2691 654 -0.083333333333333343
2692 654 0.16666666666666669
2694 654 -0.083333333333333343
2695 654 -0.16666666666666669
2785 654 -0.083333333333333287
2787 654 -0.16666666666666669
2788 654 -0.083333333333333343
2789 654 -0.083333333333333315
2790 654 0.16666666666666669
2792 654 -0.083333333333333343
2883 654 -0.083333333333333329
655 655 2.666666666666667
656 655 -0.33333333333333337
686 655 -0.33333333333333337
2693 655 -0.083333333333333343
2694 655 -0.083333333333333343
2695 655 0.16666666666666669
2697 655 -0.083333333333333343
2698 655 -0.16666666666666669
2788 655 -0.083333333333333287
2790 655 -0.16666666666666669
2791 655 -0.083333333333333343
2792 655 -0.083333333333333315
2793 655 0.16666666666666669
2795 655 -0.083333333333333343
2886 655 -0.083333333333333329
656 656 2.666666666666667
657 656 -0.33333333333333337
687 656 -0.33333333333333337
2696 656 -0.083333333333333343
2697 656 -0.083333333333333343
2698 656 0.16666666666666669
2700 656 -0.083333333333333343
2701 656 -0.16666666666666669
2791 656 -0.083333333333333287
2793 656 -0.16666666666666669
2794 656 -0.083333333333333343
2795 656 -0.083333333333333315
2796 656 0.16666666666666669
2798 656 -0.083333333333333343
2889 656 -0.083333333333333329
657 657 2.666666666666667
658 657 -0.33333333333333337
688 657 -0.33333333333333337
2699 657 -0.083333333333333343
2700 657 -0.083333333333333343
2701 657 0.16666666666666669
2703 657 -0.083333333333333343
2704 657 -0.16666666666666669
2794 657 -0.083333333333333287
2796 657 -0.16666666666666669
2797 657 -0.083333333333333343
2798 657 -0.083333333333333315
2799 657 0.16666666666666669
2801 657 -0.083333333333333343
2892 657 -0.083333333333333329
658 658 2.666666666666667
659 658 -0.33333333333333337
689 658 -0.33333333333333337
2702 658 -0.083333333333333343
2703 658 -0.083333333333333343
2704 658 0.16666666666666669
2706 658 -0.083333333333333343
2707 658 -0.16666666666666669
2797 658 -0.083333333333333287
2799 658 -0.16666666666666669
2800 658 -0.083333333333333343
2801 658 -0.083333333333333315
2802 658 0.16666666666666669
2804 658 -0.083333333333333343
2895 658 -0.083333333333333329
659 659 2.666666666666667
660 659 -0.33333333333333337
690 659 -0.33333333333333337
2705 659 -0.083333333333333343
2706 659 -0.083333333333333343
2707 659 0.16666666666666669
2709 659 -0.083333333333333343
2710 659 -0.16666666666666669
2800 659 -0.083333333333333287
2802 659 -0.16666666666666669
2803 659 -0.083333333333333343
2804 659 -0.083333333333333315
2805 659 0.16666666666666669
2807 659 -0.083333333333333343
2898 659 -0.083333333333333329
660 660 2.666666666666667
661 660 -0.33333333333333337
691 660 -0.33333333333333337
2708 660 -0.083333333333333343
2709 660 -0.083333333333333343
2710 660 0.16666666666666669
2712 660 -0.083333333333333343
2713 660 -0.16666666666666669
2803 660 -0.083333333333333287
2805 660 -0.16666666666666669
2806 660 -0.083333333333333343
2807 660 -0.083333333333333315
2808 660 0.16666666666666669
2810 660 -0.083333333333333343
2901 660 -0.083333333333333329
661 661 2.666666666666667
662 661 -0.33333333333333337
692 661 -0.33333333333333337
2711 661 -0.083333333333333343
2712 661 -0.083333333333333343
2713 661 0.16666666666666669
2715 661 -0.083333333333333343
2716 661 -0.16666666666666669
2806 661 -0.083333333333333287
2808 661 -0.16666666666666669
2809 661 -0.083333333333333343
2810 661 -0.083333333333333315
2811 661 0.16666666666666669
2813 661 -0.083333333333333343
2904 661 -0.083333333333333329
662 662 2.666666666666667
663 662 -0.33333333333333337
693 662 -0.33333333333333337
2714 662 -0.083333333333333343
2715 662 -0.083333333333333343
2716 662 0.16666666666666669
2718 662 -0.083333333333333343
2719 662 -0.16666666666666669
2809 662 -0.083333333333333287
2811 662 -0.16666666666666669
2812 662 -0.083333333333333343
2813 662 -0.083333333333333315
2814 662 0.16666666666666669
2816 662 -0.083333333333333343
2907 662 -0.083333333333333329
663 663 2.666666666666667
664 663 -0.33333333333333337
694 663 -0.33333333333333337
2717 663 -0.083333333333333343
2718 663 -0.083333333333333343
2719 663 0.16666666666666669
2721 663 -0.083333333333333343
2722 663 -0.16666666666666669
2812 663 -0.083333333333333287
2814 663 -0.16666666666666669
2815 663 -0.083333333333333343
2816 663 -0.083333333333333315
2817 663 0.16666666666666669
2819 663 -0.083333333333333343
2910 663 -0.083333333333333329
664 664 2.666666666666667
665 664 -0.33333333333333337
695 664 -0.33333333333333337
2720 664 -0.083333333333333343
2721 664 -0.083333333333333343
2722 664 0.16666666666666669
2724 664 -0.083333333333333343
2725 664 -0.16666666666666669
2815 664 -0.083333333333333287
2817 664 -0.16666666666666669
2818 664 -0.083333333333333343
2819 664 -0.083333333333333315
2820 664 0.16666666666666669
2822 664 -0.083333333333333343
2913 664 -0.083333333333333329
665 665 2.666666666666667
666 665 -0.33333333333333337
696 665 -0.33333333333333337
2723 665 -0.083333333333333343
2724 665 -0.083333333333333343
2725 665 0.16666666666666669
2727 665 -0.083333333333333343
2728 665 -0.16666666666666669
2818 665 -0.083333333333333287
2820 665 -0.16666666666666669
2821 665 -0.083333333333333343
2822 665 -0.083333333333333315
2823 665 0.16666666666666669
2825 665 -0.083333333333333343
2916 665 -0.083333333333333329
666 666 2.666666666666667
667 666 -0.33333333333333337
697 666 -0.33333333333333337
2726 666 -0.083333333333333343
2727 666 -0.083333333333333343
2728 666 0.16666666666666669
2730 666 -0.083333333333333343
2731 666 -0.16666666666666669
2821 666 -0.083333333333333287
2823 666 -0.16666666666666669
2824 666 -0.083333333333333343
2825 666 -0.083333333333333315
2826 666 0.16666666666666669
2828 666 -0.083333333333333343
2919 666 -0.083333333333333329
667 667 2.666666666666667
668 667 -0.33333333333333337
698 667 -0.33333333333333337
2729 667 -0.083333333333333343
2730 667 -0.083333333333333343
2731 667 0.16666666666666669
2733 667 -0.083333333333333343
2734 667 -0.16666666666666669
2824 667 -0.083333333333333287
2826 667 -0.16666666666666669
2827 667 -0.083333333333333343
2828 667 -0.083333333333333315
2829 667 0.16666666666666669
2831 667 -0.083333333333333343
2922 667 -0.083333333333333329
668 668 2.666666666666667
669 668 -0.33333333333333337
699 668 -0.33333333333333337
2732 668 -0.083333333333333343
2733 668 -0.083333333333333343
2734 668 0.16666666666666669
2736 668 -0.083333333333333343
2737 668 -0.16666666666666669
2827 668 -0.083333333333333287
2829 668 -0.16666666666666669
2830 668 -0.083333333333333343
2831 668 -0.083333333333333315
2832 668 0.16666666666666669
2834 668 -0.083333333333333343
2925 668 -0.083333333333333329
669 669 2.666666666666667
670 669 -0.33333333333333337
700 669 -0.33333333333333337
2735 669 -0.083333333333333343
2736 669 -0.083333333333333343
2737 669 0.16666666666666669
2739 669 -0.083333333333333343
2740 669 -0.16666666666666669
2830 669 -0.083333333333333287
2832 669 -0.16666666666666669
2833 669 -0.083333333333333343
2834 669 -0.083333333333333315
2835 669 0.16666666666666669
2837 669 -0.083333333333333343
2928 669 -0.083333333333333329
670 670 2.666666666666667
671 670 -0.33333333333333337
701 670 -0.33333333333333337
2738 670 -0.083333333333333343
2739 670 -0.083333333333333343
2740 670 0.16666666666666669
2742 670 -0.083333333333333343
2743 670 -0.16666666666666669
2833 670 -0.083333333333333287
2835 670 -0.16666666666666669
2836 670 -0.083333333333333343
2837 670 -0.083333333333333315
2838 670 0.16666666666666669
2840 670 -0.083333333333333343
2931 670 -0.083333333333333329
671 671 2.666666666666667
672 671 -0.33333333333333337
702 671 -0.33333333333333337
2741 671 -0.083333333333333343
2742 671 -0.083333333333333343
2743 671 0.16666666666666669
2745 671 -0.083333333333333343
2746 671 -0.16666666666666669
2836 671 -0.083333333333333287
2838 671 -0.16666666666666669
2839 671 -0.083333333333333343
2840 671 -0.083333333333333315
2841 671 0.16666666666666669
2843 671 -0.083333333333333343
2934 671 -0.083333333333333329
672 672 2.666666666666667
673 672 -0.33333333333333337
703 672 -0.33333333333333337
2744 672 -0.083333333333333343
2745 672 -0.083333333333333343
2746 672 0.16666666666666669
2748 672 -0.083333333333333343
2749 672 -0.16666666666666669
2839 672 -0.083333333333333287
2841 672 -0.16666666666666669
2842 672 -0.083333333333333343
2843 672 -0.083333333333333315
2844 672 0.16666666666666669
2846 672 -0.083333333333333343
2937 672 -0.083333333333333329
673 673 2.666666666666667
674 673 -0.33333333333333337
704 673 -0.33333333333333337
2747 673 -0.083333333333333343
2748 673 -0.083333333333333343
2749 673 0.16666666666666669
2751 673 -0.083333333333333343
2752 673 -0.16666666666666669
2842 673 -0.083333333333333287
2844 673 -0.16666666666666669
2845 673 -0.083333333333333343
2846 673 -0.083333333333333315
2847 673 0.16666666666666669
2849 673 -0.083333333333333343
2940 673 -0.083333333333333329
674 674 2.666666666666667
705 674 -0.33333333333333337
2750 674 -0.083333333333333343
2751 674 -0.083333333333333343
2752 674 0.16666666666666669
2754 674 -0.083333333333333343
2755 674 -0.16666666666666669
2845 674 -0.083333333333333287
2847 674 -0.16666666666666669
2848 674 -0.083333333333333343
2849 674 -0.083333333333333315
2850 674 0.16666666666666669
2943 674 -0.083333333333333329
675 675 2.666666666666667
676 675 -0.33333333333333337
2756 675 -0.083333333333333343
2757 675 0.16666666666666669
2759 675 -0.083333333333333343
2760 675 -0.16666666666666669
2851 675 -0.083333333333333287
2852 675 -0.16666666666666669
2853 675 -0.083333333333333343
2854 675 -0.083333333333333315
2855 675 0.16666666666666669
2857 675 -0.083333333333333343
676 676 2.666666666666667
677 676 -0.33333333333333337
2758 676 -0.083333333333333343
2759 676 -0.083333333333333343
2760 676 0.16666666666666669
2762 676 -0.083333333333333343
2763 676 -0.16666666666666669
2853 676 -0.083333333333333287
2855 676 -0.16666666666666669
2856 676 -0.083333333333333343
2857 676 -0.083333333333333315
2858 676 0.16666666666666669
2860 676 -0.083333333333333343
677 677 2.666666666666667
678 677 -0.33333333333333337
2761 677 -0.083333333333333343
2762 677 -0.083333333333333343
2763 677 0.16666666666666669
2765 677 -0.083333333333333343
2766 677 -0.16666666666666669
2856 677 -0.083333333333333287
2858 677 -0.16666666666666669
2859 677 -0.083333333333333343
2860 677 -0.083333333333333315
2861 677 0.16666666666666669
2863 677 -0.083333333333333343
678 678 2.666666666666667
679 678 -0.33333333333333337
2764 678 -0.083333333333333343
2765 678 -0.083333333333333343
2766 678 0.16666666666666669
2768 678 -0.083333333333333343
2769 678 -0.16666666666666669
2859 678 -0.083333333333333287
2861 678 -0.16666666666666669
2862 678 -0.083333333333333343
2863 678 -0.083333333333333315
2864 678 0.16666666666666669
2866 678 -0.083333333333333343
679 679 2.666666666666667
680 679 -0.33333333333333337
2767 679 -0.083333333333333343
2768 679 -0.083333333333333343
2769 679 0.16666666666666669
2771 679 -0.083333333333333343
2772 679 -0.16666666666666669
2862 679 -0.083333333333333287
2864 679 -0.16666666666666669
2865 679 -0.083333333333333343
2866 679 -0.083333333333333315
2867 679 0.16666666666666669
2869 679 -0.083333333333333343
680 680 2.666666666666667
681 680 -0.33333333333333337
2770 680 -0.083333333333333343
2771 680 -0.083333333333333343
2772 680 0.16666666666666669
2774 680 -0.083333333333333343
2775 680 -0.16666666666666669
2865 680 -0.083333333333333287
2867 680 -0.16666666666666669
2868 680 -0.083333333333333343
2869 680 -0.083333333333333315
2870 680 0.16666666666666669
2872 680 -0.083333333333333343
681 681 2.666666666666667
682 681 -0.33333333333333337
2773 681 -0.083333333333333343
2774 681 -0.083333333333333343
2775 681 0.16666666666666669
2777 681 -0.083333333333333343
2778 681 -0.16666666666666669
2868 681 -0.083333333333333287
2870 681 -0.16666666666666669
2871 681 -0.083333333333333343
2872 681 -0.083333333333333315
2873 681 0.16666666666666669
2875 681 -0.083333333333333343
682 682 2.666666666666667
683 682 -0.33333333333333337
2776 682 -0.083333333333333343
2777 682 -0.083333333333333343
2778 682 0.16666666666666669
2780 682 -0.083333333333333343
2781 682 -0.16666666666666669
2871 682 -0.083333333333333287
2873 682 -0.16666666666666669
2874 682 -0.083333333333333343
2875 682 -0.083333333333333315
2876 682 0.16666666666666669
2878 682 -0.083333333333333343
683 683 2.666666666666667
684 683 -0.33333333333333337
2779 683 -0.083333333333333343
2780 683 -0.083333333333333343
2781 683 0.16666666666666669
2783 683 -0.083333333333333343
2784 683 -0.16666666666666669
2874 683 -0.083333333333333287
2876 683 -0.16666666666666669
2877 683 -0.083333333333333343
2878 683 -0.083333333333333315
2879 683 0.16666666666666669
2881 683 -0.083333333333333343
684 684 2.666666666666667
685 684 -0.33333333333333337
2782 684 -0.083333333333333343
2783 684 -0.083333333333333343
2784 684 0.16666666666666669
2786 684 -0.083333333333333343
2787 684 -0.16666666666666669
2877 684 -0.083333333333333287
2879 684 -0.16666666666666669
2880 684 -0.083333333333333343
2881 684 -0.083333333333333315
2882 684 0.16666666666666669
2884 684 -0.083333333333333343
685 685 2.666666666666667
686 685 -0.33333333333333337
2785 685 -0.083333333333333343
2786 685 -0.083333333333333343
2787 685 0.16666666666666669
2789 685 -0.083333333333333343
2790 685 -0.16666666666666669
2880 685 -0.083333333333333287
2882 685 -0.16666666666666669
2883 685 -0.083333333333333343
2884 685 -0.083333333333333315
2885 685 0.16666666666666669
2887 685 -0.083333333333333343
686 686 2.666666666666667
687 686 -0.33333333333333337
2788 686 -0.083333333333333343
2789 686 -0.083333333333333343
2790 686 0.16666666666666669
2792 686 -0.083333333333333343
2793 686 -0.16666666666666669
2883 686 -0.083333333333333287
2885 686 -0.16666666666666669
2886 686 -0.083333333333333343
2887 686 -0.083333333333333315
2888 686 0.16666666666666669
2890 686 -0.083333333333333343
687 687 2.666666666666667
688 687 -0.33333333333333337
2791 687 -0.083333333333333343
2792 687 -0.083333333333333343
2793 687 0.16666666666666669
2795 687 -0.083333333333333343
2796 687 -0.16666666666666669
2886 687 -0.083333333333333287
2888 687 -0.16666666666666669
2889 687 -0.083333333333333343
2890 687 -0.083333333333333315
2891 687 0.16666666666666669
2893 687 -0.083333333333333343
688 688 2.666666666666667
689 688 -0.33333333333333337
2794 688 -0.083333333333333343
2795 688 -0.083333333333333343
2796 688 0.16666666666666669
2798 688 -0.083333333333333343
2799 688 -0.16666666666666669
2889 688 -0.083333333333333287
2891 688 -0.16666666666666669
2892 688 -0.083333333333333343
2893 688 -0.083333333333333315
2894 688 0.16666666666666669
2896 688 -0.083333333333333343
689 689 2.666666666666667
690 689 -0.33333333333333337
2797 689 -0.083333333333333343
2798 689 -0.083333333333333343
2799 689 0.16666666666666669
2801 689 -0.083333333333333343
2802 689 -0.16666666666666669
2892 689 -0.083333333333333287
2894 689 -0.16666666666666669
2895 689 -0.083333333333333343
2896 689 -0.083333333333333315
2897 689 0.16666666666666669
2899 689 -0.083333333333333343
690 690 2.666666666666667
691 690 -0.33333333333333337
2800 690 -0.083333333333333343
2801 690 -0.083333333333333343
2802 690 0.16666666666666669
2804 690 -0.083333333333333343
2805 690 -0.16666666666666669
2895 690 -0.083333333333333287
2897 690 -0.16666666666666669
2898 690 -0.083333333333333343
2899 690 -0.083333333333333315
2900 690 0.16666666666666669
2902 690 -0.083333333333333343
691 691 2.666666666666667
692 691 -0.33333333333333337
2803 691 -0.083333333333333343
2804 691 -0.083333333333333343
2805 691 0.16666666666666669
2807 691 -0.083333333333333343
2808 691 -0.16666666666666669
2898 691 -0.083333333333333287
2900 691 -0.16666666666666669
2901 691 -0.083333333333333343
2902 691 -0.083333333333333315
2903 691 0.16666666666666669
2905 691 -0.083333333333333343
692 692 2.666666666666667
693 692 -0.33333333333333337
2806 692 -0.083333333333333343
2807 692 -0.083333333333333343
2808 692 0.16666666666666669
2810 692 -0.083333333333333343
2811 692 -0.16666666666666669
2901 692 -0.083333333333333287
2903 692 -0.16666666666666669
2904 692 -0.083333333333333343
2905 692 -0.083333333333333315
2906 692 0.16666666666666669
2908 692 -0.083333333333333343
693 693 2.666666666666667
694 693 -0.33333333333333337
2809 693 -0.083333333333333343
2810 693 -0.083333333333333343
2811 693 0.16666666666666669
2813 693 -0.083333333333333343
2814 693 -0.16666666666666669
2904 693 -0.083333333333333287
2906 693 -0.16666666666666669
2907 693 -0.083333333333333343
2908 693 -0.083333333333333315
2909 693 0.16666666666666669
2911 693 -0.083333333333333343
694 694 2.666666666666667
695 694 -0.33333333333333337
2812 694 -0.083333333333333343
2813 694 -0.083333333333333343
2814 694 0.16666666666666669
2816 694 -0.083333333333333343
2817 694 -0.16666666666666669
2907 694 -0.083333333333333287
2909 694 -0.16666666666666669
2910 694 -0.083333333333333343
2911 694 -0.083333333333333315
2912 694 0.16666666666666669
2914 694 -0.083333333333333343
695 695 2.666666666666667
696 695 -0.33333333333333337
2815 695 -0.083333333333333343
2816 695 -0.083333333333333343
2817 695 0.16666666666666669
2819 695 -0.083333333333333343
2820 695 -0.16666666666666669
2910 695 -0.083333333333333287
2912 695 -0.16666666666666669
2913 695 -0.083333333333333343
2914 695 -0.083333333333333315
2915 695 0.16666666666666669
2917 695 -0.083333333333333343
696 696 2.666666666666667
697 696 -0.33333333333333337
2818 696 -0.083333333333333343
2819 696 -0.083333333333333343
2820 696 0.16666666666666669
2822 696 -0.083333333333333343
2823 696 -0.16666666666666669
2913 696 -0.083333333333333287
2915 696 -0.16666666666666669
2916 696 -0.083333333333333343
2917 696 -0.083333333333333315
2918 696 0.16666666666666669
2920 696 -0.083333333333333343
697 697 2.666666666666667
698 697 -0.33333333333333337
2821 697 -0.083333333333333343
2822 697 -0.083333333333333343
2823 697 0.16666666666666669
2825 697 -0.083333333333333343
2826 697 -0.16666666666666669
2916 697 -0.083333333333333287
2918 697 -0.16666666666666669
2919 697 -0.083333333333333343
2920 697 -0.083333333333333315
2921 697 0.16666666666666669
2923 697 -0.083333333333333343
698 698 2.666666666666667
699 698 -0.33333333333333337
2824 698 -0.083333333333333343
2825 698 -0.083333333333333343
2826 698 0.16666666666666669
2828 698 -0.083333333333333343
2829 698 -0.16666666666666669
2919 698 -0.083333333333333287
2921 698 -0.16666666666666669
2922 698 -0.083333333333333343
2923 698 -0.083333333333333315
2924 698 0.16666666666666669
2926 698 -0.083333333333333343
699 699 2.666666666666667
700 699 -0.33333333333333337
2827 699 -0.083333333333333343
2828 699 -0.083333333333333343
2829 699 0.16666666666666669
2831 699 -0.083333333333333343
2832 699 -0.16666666666666669
2922 699 -0.083333333333333287
2924 699 -0.16666666666666669
2925 699 -0.083333333333333343
2926 699 -0.083333333333333315
2927 699 0.16666666666666669
2929 699 -0.083333333333333343
700 700 2.666666666666667
701 700 -0.33333333333333337
2830 700 -0.083333333333333343
2831 700 -0.083333333333333343
2832 700 0.16666666666666669
2834 700 -0.083333333333333343
2835 700 -0.16666666666666669
2925 700 -0.083333333333333287
2927 700 -0.16666666666666669
2928 700 -0.083333333333333343
2929 700 -0.083333333333333315
2930 700 0.16666666666666669
2932 700 -0.083333333333333343
701 701 2.666666666666667
702 701 -0.33333333333333337
2833 701 -0.083333333333333343
2834 701 -0.083333333333333343
2835 701 0.16666666666666669
2837 701 -0.083333333333333343
2838 701 -0.16666666666666669
2928 701 -0.083333333333333287
2930 701 -0.16666666666666669
2931 701 -0.083333333333333343
2932 701 -0.083333333333333315
2933 701 0.16666666666666669
2935 701 -0.083333333333333343
702 702 2.666666666666667
703 702 -0.33333333333333337
2836 702 -0.083333333333333343
2837 702 -0.083333333333333343
2838 702 0.16666666666666669
2840 702 -0.083333333333333343
2841 702 -0.16666666666666669
2931 702 -0.083333333333333287
2933 702 -0.16666666666666669
2934 702 -0.083333333333333343
2935 702 -0.083333333333333315
2936 702 0.16666666666666669
2938 702 -0.083333333333333343
703 703 2.666666666666667
704 703 -0.33333333333333337
2839 703 -0.083333333333333343
2840 703 -0.083333333333333343
2841 703 0.16666666666666669
2843 703 -0.083333333333333343
2844 703 -0.16666666666666669
2934 703 -0.083333333333333287
2936 703 -0.16666666666666669
2937 703 -0.083333333333333343
2938 703 -0.083333333333333315
2939 703 0.16666666666666669
2941 703 -0.083333333333333343
704 704 2.666666666666667
705 704 -0.33333333333333337
2842 704 -0.083333333333333343
2843 704 -0.083333333333333343
2844 704 0.16666666666666669
2846 704 -0.083333333333333343
2847 704 -0.16666666666666669
2937 704 -0.083333333333333287
2939 704 -0.16666666666666669
2940 704 -0.083333333333333343
2941 704 -0.083333333333333315
2942 704 0.16666666666666669
2944 704 -0.083333333333333343
705 705 2.666666666666667
2845 705 -0.083333333333333343
2846 705 -0.083333333333333343
2847 705 0.16666666666666669
2849 705 -0.083333333333333343
2850 705 -0.16666666666666669
2940 705 -0.083333333333333287
2942 705 -0.16666666666666669
2943 705 -0.083333333333333343
2944 705 -0.083333333333333315
2945 705 0.16666666666666669
706 706 0.33333333333333337
707 706 -0.083333333333333343
737 706 -0.083333333333333329
707 707 0.33333333333333337
708 707 -0.083333333333333343
708 708 0.33333333333333337
709 708 -0.083333333333333343
739 708 -0.083333333333333329
709 709 0.33333333333333337
710 709 -0.083333333333333343
710 710 0.33333333333333337
711 710 -0.083333333333333343
742 710 -0.083333333333333329
711 711 0.33333333333333337
712 711 -0.083333333333333343
712 712 0.33333333333333337
713 712 -0.083333333333333343
745 712 -0.083333333333333329
713 713 0.33333333333333337
714 713 -0.083333333333333343
714 714 0.33333333333333337
715 714 -0.083333333333333343
748 714 -0.083333333333333329
715 715 0.33333333333333337
716 715 -0.083333333333333343
716 716 0.33333333333333337
717 716 -0.083333333333333343
751 716 -0.083333333333333329
717 717 0.33333333333333337
718 717 -0.083333333333333343
718 718 0.33333333333333337
719 718 -0.083333333333333343
754 718 -0.083333333333333329
719 719 0.33333333333333337
720 719 -0.083333333333333343
720 720 0.33333333333333337
721 720 -0.083333333333333343
757 720 -0.083333333333333329
721 721 0.33333333333333337
722 721 -0.083333333333333343
722 722 0.33333333333333337
723 722 -0.083333333333333343
760 722 -0.083333333333333329
723 723 0.33333333333333337
724 723 -0.083333333333333343
724 724 0.33333333333333337
725 724 -0.083333333333333343
763 724 -0.083333333333333329
725 725 0.33333333333333337
726 725 -0.083333333333333343
726 726 0.33333333333333337
727 726 -0.083333333333333343
766 726 -0.083333333333333329
727 727 0.33333333333333337
728 727 -0.083333333333333343
728 728 0.33333333333333337
729 728 -0.083333333333333343
769 728 -0.083333333333333329
729 729 0.33333333333333337
730 729 -0.083333333333333343
730 730 0.33333333333333337
731 730 -0.083333333333333343
772 730 -0.083333333333333329
731 731 0.33333333333333337
732 731 -0.083333333333333343
732 732 0.33333333333333337
733 732 -0.083333333333333343
775 732 -0.083333333333333329
733 733 0.33333333333333337
734 733 -0.083333333333333343
734 734 0.33333333333333337
735 734 -0.083333333333333343
778 734 -0.083333333333333329
735 735 0.33333333333333337
736 735 -0.083333333333333343
736 736 0.33333333333333337
781 736 -0.083333333333333329
737 737 0.33333333333333337
738 737 -0.083333333333333343
738 738 0.33333333333333337
740 738 -0.083333333333333343
784 738 -0.083333333333333329
739 739 0.33333333333333337
741 739 -0.083333333333333343
740 740 0.33333333333333337
741 740 -0.083333333333333343
741 741 0.33333333333333337
743 741 -0.083333333333333343
786 741 -0.083333333333333329
742 742 0.33333333333333337
744 742 -0.083333333333333343
743 743 0.33333333333333337
744 743 -0.083333333333333343
744 744 0.33333333333333337
746 744 -0.083333333333333343
789 744 -0.083333333333333329
745 745 0.33333333333333337
747 745 -0.083333333333333343
746 746 0.33333333333333337
747 746 -0.083333333333333343
747 747 0.33333333333333337
749 747 -0.083333333333333343
792 747 -0.083333333333333329
748 748 0.33333333333333337
750 748 -0.083333333333333343
749 749 0.33333333333333337
750 749 -0.083333333333333343
750 750 0.33333333333333337
752 750 -0.083333333333333343
795 750 -0.083333333333333329
751 751 0.33333333333333337
753 751 -0.083333333333333343
752 752 0.33333333333333337
753 752 -0.083333333333333343
753 753 0.33333333333333337
755 753 -0.083333333333333343
798 753 -0.083333333333333329
754 754 0.33333333333333337
756 754 -0.083333333333333343
755 755 0.33333333333333337
756 755 -0.083333333333333343
756 756 0.33333333333333337
758 756 -0.083333333333333343
801 756 -0.083333333333333329
757 757 0.33333333333333337
759 757 -0.083333333333333343
758 758 0.33333333333333337
759 758 -0.083333333333333343
759 759 0.33333333333333337
761 759 -0.083333333333333343
804 759 -0.083333333333333329
760 760 0.33333333333333337
762 760 -0.083333333333333343
761 761 0.33333333333333337
762 761 -0.083333333333333343
762 762 0.33333333333333337
764 762 -0.083333333333333343
807 762 -0.083333333333333329
763 763 0.33333333333333337
765 763 -0.083333333333333343
764 764 0.33333333333333337
765 764 -0.083333333333333343
765 765 0.33333333333333337
767 765 -0.083333333333333343
810 765 -0.083333333333333329
766 766 0.33333333333333337
768 766 -0.083333333333333343
767 767 0.33333333333333337
768 767 -0.083333333333333343
768 768 0.33333333333333337
770 768 -0.083333333333333343
813 768 -0.083333333333333329
769 769 0.33333333333333337
771 769 -0.083333333333333343
770 770 0.33333333333333337
771 770 -0.083333333333333343
771 771 0.33333333333333337
773 771 -0.083333333333333343
816 771 -0.083333333333333329
772 772 0.33333333333333337
774 772 -0.083333333333333343
773 773 0.33333333333333337
774 773 -0.083333333333333343
774 774 0.33333333333333337
776 774 -0.083333333333333343
819 774 -0.083333333333333329
775 775 0.33333333333333337
777 775 -0.083333333333333343
776 776 0.33333333333333337
777 776 -0.083333333333333343
777 777 0.33333333333333337
779 777 -0.083333333333333343
822 777 -0.083333333333333329
778 778 0.33333333333333337
780 778 -0.083333333333333343
779 779 0.33333333333333337
780 779 -0.083333333333333343
780 780 0.33333333333333337
782 780 -0.083333333333333343
825 780 -0.083333333333333329
781 781 0.33333333333333337
783 781 -0.083333333333333343
782 782 0.33333333333333337
783 782 -0.083333333333333343
783 783 0.33333333333333337
828 783 -0.083333333333333329
784 784 0.33333333333333337
785 784 -0.083333333333333343
785 785 0.33333333333333337
787 785 -0.083333333333333343
831 785 -0.083333333333333329
786 786 0.33333333333333337
788 786 -0.083333333333333343
787 787 0.33333333333333337
788 787 -0.083333333333333343
788 788 0.33333333333333337
790 788 -0.083333333333333343
833 788 -0.083333333333333329
789 789 0.33333333333333337
791 789 -0.083333333333333343
790 790 0.33333333333333337
791 790 -0.083333333333333343
791 791 0.33333333333333337
793 791 -0.083333333333333343
836 791 -0.083333333333333329
792 792 0.33333333333333337
794 792 -0.083333333333333343
793 793 0.33333333333333337
794 793 -0.083333333333333343
794 794 0.33333333333333337
796 794 -0.083333333333333343
839 794 -0.083333333333333329
795 795 0.33333333333333337
797 795 -0.083333333333333343
796 796 0.33333333333333337
797 796 -0.083333333333333343
797 797 0.33333333333333337
799 797 -0.083333333333333343
842 797 -0.083333333333333329
798 798 0.33333333333333337
800 798 -0.083333333333333343
799 799 0.33333333333333337
800 799 -0.083333333333333343
800 800 0.33333333333333337
802 800 -0.083333333333333343
845 800 -0.083333333333333329
801 801 0.33333333333333337
803 801 -0.083333333333333343
802 802 0.33333333333333337
803 802 -0.083333333333333343
803 803 0.33333333333333337
805 803 -0.083333333333333343
848 803 -0.083333333333333329
804 804 0.33333333333333337
806 804 -0.083333333333333343
805 805 0.33333333333333337
806 805 -0.083333333333333343
806 806 0.33333333333333337
808 806 -0.083333333333333343
851 806 -0.083333333333333329
807 807 0.33333333333333337
809 807 -0.083333333333333343
808 808 0.33333333333333337
809 808 -0.083333333333333343
809 809 0.33333333333333337
811 809 -0.083333333333333343
854 809 -0.083333333333333329
810 810 0.33333333333333337
812 810 -0.083333333333333343
811 811 0.33333333333333337
812 811 -0.083333333333333343
812 812 0.33333333333333337
814 812 -0.083333333333333343
857 812 -0.083333333333333329
813 813 0.33333333333333337
815 813 -0.083333333333333343
814 814 0.33333333333333337
815 814 -0.083333333333333343
815 815 0.33333333333333337
817 815 -0.083333333333333343
860 815 -0.083333333333333329
816 816 0.33333333333333337
818 816 -0.083333333333333343
817 817 0.33333333333333337
818 817 -0.083333333333333343
818 818 0.33333333333333337
820 818 -0.083333333333333343
863 818 -0.083333333333333329
819 819 0.33333333333333337
821 819 -0.083333333333333343
820 820 0.33333333333333337
821 820 -0.083333333333333343
821 821 0.33333333333333337
823 821 -0.083333333333333343
866 821 -0.083333333333333329
822 822 0.33333333333333337
824 822 -0.083333333333333343
823 823 0.33333333333333337
824 823 -0.083333333333333343
824 824 0.33333333333333337
826 824 -0.083333333333333343
869 824 -0.083333333333333329
825 825 0.33333333333333337
827 825 -0.083333333333333343
826 826 0.33333333333333337
827 826 -0.083333333333333343
827 827 0.33333333333333337
829 827 -0.083333333333333343
872 827 -0.083333333333333329
828 828 0.33333333333333337
830 828 -0.083333333333333343
829 829 0.33333333333333337
830 829 -0.083333333333333343
830 830 0.33333333333333337
875 830 -0.083333333333333329
831 831 0.33333333333333337
832 831 -0.083333333333333343
832 832 0.33333333333333337
834 832 -0.083333333333333343
878 832 -0.083333333333333329
833 833 0.33333333333333337
835 833 -0.083333333333333343
834 834 0.33333333333333337
835 834 -0.083333333333333343
835 835 0.33333333333333337
837 835 -0.083333333333333343
880 835 -0.083333333333333329
836 836 0.33333333333333337
838 836 -0.083333333333333343
837 837 0.33333333333333337
838 837 -0.083333333333333343
838 838 0.33333333333333337
840 838 -0.083333333333333343
883 838 -0.083333333333333329
839 839 0.33333333333333337
841 839 -0.083333333333333343
840 840 0.33333333333333337
841 840 -0.083333333333333343
841 841 0.33333333333333337
843 841 -0.083333333333333343
886 841 -0.083333333333333329
842 842 0.33333333333333337
844 842 -0.083333333333333343
843 843 0.33333333333333337
844 843 -0.083333333333333343
844 844 0.33333333333333337
846 844 -0.083333333333333343
889 844 -0.083333333333333329
845 845 0.33333333333333337
847 845 -0.083333333333333343
846 846 0.33333333333333337
847 846 -0.083333333333333343
847 847 0.33333333333333337
849 847 -0.083333333333333343
892 847 -0.083333333333333329
848 848 0.33333333333333337
850 848 -0.083333333333333343
849 849 0.33333333333333337
850 849 -0.083333333333333343
850 850 0.33333333333333337
852 850 -0.083333333333333343
895 850 -0.083333333333333329
851 851 0.33333333333333337
853 851 -0.083333333333333343
852 852 0.33333333333333337
853 852 -0.083333333333333343
853 853 0.33333333333333337
855 853 -0.083333333333333343
898 853 -0.083333333333333329
854 854 0.33333333333333337
856 854 -0.083333333333333343
855 855 0.33333333333333337
856 855 -0.083333333333333343
856 856 0.33333333333333337
858 856 -0.083333333333333343
901 856 -0.083333333333333329
857 857 0.33333333333333337
859 857 -0.083333333333333343
858 858 0.33333333333333337
859 858 -0.083333333333333343
859 859 0.33333333333333337
861 859 -0.083333333333333343
904 859 -0.083333333333333329
860 860 0.33333333333333337
862 860 -0.083333333333333343
861 861 0.33333333333333337
862 861 -0.083333333333333343
862 862 0.33333333333333337
864 862 -0.083333333333333343
907 862 -0.083333333333333329
863 863 0.33333333333333337
865 863 -0.083333333333333343
864 864 0.33333333333333337
865 864 -0.083333333333333343
865 865 0.33333333333333337
867 865 -0.083333333333333343
910 865 -0.083333333333333329
866 866 0.33333333333333337
868 866 -0.083333333333333343
867 867 0.33333333333333337
868 867 -0.083333333333333343
868 868 0.33333333333333337
870 868 -0.083333333333333343
913 868 -0.083333333333333329
869 869 0.33333333333333337
871 869 -0.083333333333333343
870 870 0.33333333333333337
871 870 -0.083333333333333343
871 871 0.33333333333333337
873 871 -0.083333333333333343
916 871 -0.083333333333333329
872 872 0.33333333333333337
874 872 -0.083333333333333343
873 873 0.33333333333333337
874 873 -0.083333333333333343
874 874 0.33333333333333337
876 874 -0.083333333333333343
919 874 -0.083333333333333329
875 875 0.33333333333333337
877 875 -0.083333333333333343
876 876 0.33333333333333337
877 876 -0.083333333333333343
877 877 0.33333333333333337
922 877 -0.083333333333333329
878 878 0.33333333333333337
879 878 -0.083333333333333343
879 879 0.33333333333333337
881 879 -0.083333333333333343
925 879 -0.083333333333333329
880 880 0.33333333333333337
882 880 -0.083333333333333343
881 881 0.33333333333333337
882 881 -0.083333333333333343
882 882 0.33333333333333337
884 882 -0.083333333333333343
927 882 -0.083333333333333329
883 883 0.33333333333333337
885 883 -0.083333333333333343
884 884 0.33333333333333337
885 884 -0.083333333333333343
885 885 0.33333333333333337
887 885 -0.083333333333333343
930 885 -0.083333333333333329
886 886 0.33333333333333337
888 886 -0.083333333333333343
887 887 0.33333333333333337
888 887 -0.083333333333333343
888 888 0.33333333333333337
890 888 -0.083333333333333343
933 888 -0.083333333333333329
889 889 0.33333333333333337
891 889 -0.083333333333333343
890 890 0.33333333333333337
891 890 -0.083333333333333343
891 891 0.33333333333333337
893 891 -0.083333333333333343
936 891 -0.083333333333333329
892 892 0.33333333333333337
894 892 -0.083333333333333343
893 893 0.33333333333333337
894 893 -0.083333333333333343
894 894 0.33333333333333337
896 894 -0.083333333333333343
939 894 -0.083333333333333329
895 895 0.33333333333333337
897 895 -0.083333333333333343
896 896 0.33333333333333337
897 896 -0.083333333333333343
897 897 0.33333333333333337
899 897 -0.083333333333333343
942 897 -0.083333333333333329
898 898 0.33333333333333337
900 898 -0.083333333333333343
899 899 0.33333333333333337
900 899 -0.083333333333333343
900 900 0.33333333333333337
902 900 -0.083333333333333343
945 900 -0.083333333333333329
901 901 0.33333333333333337
903 901 -0.083333333333333343
902 902 0.33333333333333337
903 902 -0.083333333333333343
903 903 0.33333333333333337
905 903 -0.083333333333333343
948 903 -0.083333333333333329
904 904 0.33333333333333337
906 904 -0.083333333333333343
905 905 0.33333333333333337
906 905 -0.083333333333333343
906 906 0.33333333333333337
908 906 -0.083333333333333343
951 906 -0.083333333333333329
907 907 0.33333333333333337
909 907 -0.083333333333333343
908 908 0.33333333333333337
909 908 -0.083333333333333343
909 909 0.33333333333333337
911 909 -0.083333333333333343
954 909 -0.083333333333333329
910 910 0.33333333333333337
912 910 -0.083333333333333343
911 911 0.33333333333333337
912 911 -0.083333333333333343
912 912 0.33333333333333337
914 912 -0.083333333333333343
957 912 -0.083333333333333329
913 913 0.33333333333333337
915 913 -0.083333333333333343
914 914 0.33333333333333337
915 914 -0.083333333333333343
915 915 0.33333333333333337
917 915 -0.083333333333333343
960 915 -0.083333333333333329
916 916 0.33333333333333337
918 916 -0.083333333333333343
917 917 0.33333333333333337
918 917 -0.083333333333333343
918 918 0.33333333333333337
920 918 -0.083333333333333343
963 918 -0.083333333333333329
919 919 0.33333333333333337
921 919 -0.083333333333333343
920 920 0.33333333333333337
921 920 -0.083333333333333343
921 921 0.33333333333333337
923 921 -0.083333333333333343
966 921 -0.083333333333333329
922 922 0.33333333333333337
924 922 -0.083333333333333343
923 923 0.33333333333333337
924 923 -0.083333333333333343
924 924 0.33333333333333337
969 924 -0.083333333333333329
925 925 0.33333333333333337
926 925 -0.083333333333333343
926 926 0.33333333333333337
928 926 -0.083333333333333343
972 926 -0.083333333333333329
927 927 0.33333333333333337
929 927 -0.083333333333333343
928 928 0.33333333333333337
929 928 -0.083333333333333343
929 929 0.33333333333333337
931 929 -0.083333333333333343
974 929 -0.083333333333333329
930 930 0.33333333333333337
932 930 -0.083333333333333343
931 931 0.33333333333333337
932 931 -0.083333333333333343
932 932 0.33333333333333337
934 932 -0.083333333333333343
977 932 -0.083333333333333329
933 933 0.33333333333333337
935 933 -0.083333333333333343
934 934 0.33333333333333337
935 934 -0.083333333333333343
935 935 0.33333333333333337
937 935 -0.083333333333333343
980 935 -0.083333333333333329
936 936 0.33333333333333337
938 936 -0.083333333333333343
937 937 0.33333333333333337
938 937 -0.083333333333333343
938 938 0.33333333333333337
940 938 -0.083333333333333343
983 938 -0.083333333333333329
939 939 0.33333333333333337
941 939 -0.083333333333333343
940 940 0.33333333333333337
941 940 -0.083333333333333343
941 941 0.33333333333333337
943 941 -0.083333333333333343
986 941 -0.083333333333333329
942 942 0.33333333333333337
944 942 -0.083333333333333343
943 943 0.33333333333333337
944 943 -0.083333333333333343
944 944 0.33333333333333337
946 944 -0.083333333333333343
989 944 -0.083333333333333329
945 945 0.33333333333333337
947 945 -0.083333333333333343
946 946 0.33333333333333337
947 946 -0.083333333333333343
947 947 0.33333333333333337
949 947 -0.083333333333333343
992 947 -0.083333333333333329
948 948 0.33333333333333337
950 948 -0.083333333333333343
949 949 0.33333333333333337
950 949 -0.083333333333333343
950 950 0.33333333333333337
952 950 -0.083333333333333343
995 950 -0.083333333333333329
951 951 0.33333333333333337
953 951 -0.083333333333333343
952 952 0.33333333333333337
953 952 -0.083333333333333343
953 953 0.33333333333333337
955 953 -0.083333333333333343
998 953 -0.083333333333333329
954 954 0.33333333333333337
956 954 -0.083333333333333343
955 955 0.33333333333333337
956 955 -0.083333333333333343
956 956 0.33333333333333337
958 956 -0.083333333333333343
1001 956 -0.083333333333333329
957 957 0.33333333333333337
959 957 -0.083333333333333343
958 958 0.33333333333333337
959 958 -0.083333333333333343
959 959 0.33333333333333337
961 959 -0.083333333333333343
1004 959 -0.083333333333333329
960 960 0.33333333333333337
962 960 -0.083333333333333343
961 961 0.33333333333333337
962 961 -0.083333333333333343
962 962 0.33333333333333337
964 962 -0.083333333333333343
1007 962 -0.083333333333333329
963 963 0.33333333333333337
965 963 -0.083333333333333343
964 964 0.33333333333333337
965 964 -0.083333333333333343
965 965 0.33333333333333337
967 965 -0.083333333333333343
1010 965 -0.083333333333333329
966 966 0.33333333333333337
968 966 -0.083333333333333343
967 967 0.33333333333333337
968 967 -0.083333333333333343
968 968 0.33333333333333337
970 968 -0.083333333333333343
1013 968 -0.083333333333333329
969 969 0.33333333333333337
971 969 -0.083333333333333343
970 970 0.33333333333333337
971 970 -0.083333333333333343
971 971 0.33333333333333337
1016 971 -0.083333333333333329
972 972 0.33333333333333337
973 972 -0.083333333333333343
973 973 0.33333333333333337
975 973 -0.083333333333333343
1019 973 -0.083333333333333329
974 974 0.33333333333333337
976 974 -0.083333333333333343
975 975 0.33333333333333337
976 975 -0.083333333333333343
976 976 0.33333333333333337
978 976 -0.083333333333333343
1021 976 -0.083333333333333329
977 977 0.33333333333333337
979 977 -0.083333333333333343
978 978 0.33333333333333337
979 978 -0.083333333333333343
979 979 0.33333333333333337
981 979 -0.083333333333333343
1024 979 -0.083333333333333329
980 980 0.33333333333333337
982 980 -0.083333333333333343
981 981 0.33333333333333337
982 981 -0.083333333333333343
982 982 0.33333333333333337
984 982 -0.083333333333333343
1027 982 -0.083333333333333329
983 983 0.33333333333333337
985 983 -0.083333333333333343
984 984 0.33333333333333337
985 984 -0.083333333333333343
985 985 0.33333333333333337
987 985 -0.083333333333333343
1030 985 -0.083333333333333329
986 986 0.33333333333333337
988 986 -0.083333333333333343
987 987 0.33333333333333337
988 987 -0.083333333333333343
988 988 0.33333333333333337
990 988 -0.083333333333333343
1033 988 -0.083333333333333329
989 989 0.33333333333333337
991 989 -0.083333333333333343
990 990 0.33333333333333337
991 990 -0.083333333333333343
991 991 0.33333333333333337
993 991 -0.083333333333333343
1036 991 -0.083333333333333329
992 992 0.33333333333333337
994 992 -0.083333333333333343
993 993 0.33333333333333337
994 993 -0.083333333333333343
994 994 0.33333333333333337
996 994 -0.083333333333333343
1039 994 -0.083333333333333329
995 995 0.33333333333333337
997 995 -0.083333333333333343
996 996 0.33333333333333337
997 996 -0.083333333333333343
997 997 0.33333333333333337
999 997 -0.083333333333333343
1042 997 -0.083333333333333329
998 998 0.33333333333333337
1000 998 -0.083333333333333343
999 999 0.33333333333333337
1000 999 -0.083333333333333343
1000 1000 0.33333333333333337
1002 1000 -0.083333333333333343
1045 1000 -0.083333333333333329
1001 1001 0.33333333333333337
1003 1001 -0.083333333333333343
1002 1002 0.33333333333333337
1003 1002 -0.083333333333333343
1003 1003 0.33333333333333337
1005 1003 -0.083333333333333343
1048 1003 -0.083333333333333329
1004 1004 0.33333333333333337
1006 1004 -0.083333333333333343
1005 1005 0.33333333333333337
1006 1005 -0.083333333333333343
1006 1006 0.33333333333333337
1008 1006 -0.083333333333333343
1051 1006 -0.083333333333333329
1007 1007 0.33333333333333337
1009 1007 -0.083333333333333343
1008 1008 0.33333333333333337
1009 1008 -0.083333333333333343
1009 1009 0.33333333333333337
1011 1009 -0.083333333333333343
1054 1009 -0.083333333333333329
1010 1010 0.33333333333333337
1012 1010 -0.083333333333333343
1011 1011 0.33333333333333337
1012 1011 -0.083333333333333343
1012 1012 0.33333333333333337
1014 1012 -0.083333333333333343
1057 1012 -0.083333333333333329
1013 1013 0.33333333333333337
1015 1013 -0.083333333333333343
1014 1014 0.33333333333333337
1015 1014 -0.083333333333333343
1015 1015 0.33333333333333337
1017 1015 -0.083333333333333343
1060 1015 -0.083333333333333329
1016 1016 0.33333333333333337
1018 1016 -0.083333333333333343
1017 1017 0.33333333333333337
1018 1017 -0.083333333333333343
1018 1018 0.33333333333333337
1063 1018 -0.083333333333333329
1019 1019 0.33333333333333337
1020 1019 -0.083333333333333343
1020 1020 0.33333333333333337
1022 1020 -0.083333333333333343
1066 1020 -0.083333333333333329
1021 1021 0.33333333333333337
1023 1021 -0.083333333333333343
1022 1022 0.33333333333333337
1023 1022 -0.083333333333333343
1023 1023 0.33333333333333337
1025 1023 -0.083333333333333343
1068 1023 -0.083333333333333329
1024 1024 0.33333333333333337
1026 1024 -0.083333333333333343
1025 1025 0.33333333333333337
1026 1025 -0.083333333333333343
1026 1026 0.33333333333333337
1028 1026 -0.083333333333333343
1071 1026 -0.083333333333333329
1027 1027 0.33333333333333337
1029 1027 -0.083333333333333343
1028 1028 0.33333333333333337
1029 1028 -0.083333333333333343
1029 1029 0.33333333333333337
1031 1029 -0.083333333333333343
1074 1029 -0.083333333333333329
1030 1030 0.33333333333333337
1032 1030 -0.083333333333333343
1031 1031 0.33333333333333337
1032 1031 -0.083333333333333343
1032 1032 0.33333333333333337
1034 1032 -0.083333333333333343
1077 1032 -0.083333333333333329
1033 1033 0.33333333333333337
1035 1033 -0.083333333333333343
1034 1034 0.33333333333333337
1035 1034 -0.083333333333333343
1035 1035 0.33333333333333337
1037 1035 -0.083333333333333343
1080 1035 -0.083333333333333329
1036 1036 0.33333333333333337
1038 1036 -0.083333333333333343
1037 1037 0.33333333333333337
1038 1037 -0.083333333333333343
1038 1038 0.33333333333333337
1040 1038 -0.083333333333333343
1083 1038 -0.083333333333333329
1039 1039 0.33333333333333337
1041 1039 -0.083333333333333343
1040 1040 0.33333333333333337
1041 1040 -0.083333333333333343
1041 1041 0.33333333333333337
1043 1041 -0.083333333333333343
1086 1041 -0.083333333333333329
1042 1042 0.33333333333333337
1044 1042 -0.083333333333333343
1043 1043 0.33333333333333337
1044 1043 -0.083333333333333343
1044 1044 0.33333333333333337
1046 1044 -0.083333333333333343
1089 1044 -0.083333333333333329
1045 1045 0.33333333333333337
1047 1045 -0.083333333333333343
1046 1046 0.33333333333333337
1047 1046 -0.083333333333333343
1047 1047 0.33333333333333337
1049 1047 -0.083333333333333343
1092 1047 -0.083333333333333329
1048 1048 0.33333333333333337
1050 1048 -0.083333333333333343
1049 1049 0.33333333333333337
1050 1049 -0.083333333333333343
1050 1050 0.33333333333333337
1052 1050 -0.083333333333333343
1095 1050 -0.083333333333333329
1051 1051 0.33333333333333337
1053 1051 -0.083333333333333343
1052 1052 0.33333333333333337
1053 1052 -0.083333333333333343
1053 1053 0.33333333333333337
1055 1053 -0.083333333333333343
1098 1053 -0.083333333333333329
1054 1054 0.33333333333333337
1056 1054 -0.083333333333333343
1055 1055 0.33333333333333337
1056 1055 -0.083333333333333343
1056 1056 0.33333333333333337
1058 1056 -0.083333333333333343
1101 1056 -0.083333333333333329
1057 1057 0.33333333333333337
1059 1057 -0.083333333333333343
1058 1058 0.33333333333333337
1059 1058 -0.083333333333333343
1059 1059 0.33333333333333337
1061 1059 -0.083333333333333343
1104 1059 -0.083333333333333329
1060 1060 0.33333333333333337
1062 1060 -0.083333333333333343
1061 1061 0.33333333333333337
1062 1061 -0.083333333333333343
1062 1062 0.33333333333333337
1064 1062 -0.083333333333333343
1107 1062 -0.083333333333333329
1063 1063 0.33333333333333337
1065 1063 -0.083333333333333343
1064 1064 0.33333333333333337
1065 1064 -0.083333333333333343
1065 1065 0.33333333333333337
1110 1065 -0.083333333333333329
1066 1066 0.33333333333333337
1067 1066 -0.083333333333333343
1067 1067 0.33333333333333337
1069 1067 -0.083333333333333343
1113 1067 -0.083333333333333329
1068 1068 0.33333333333333337
1070 1068 -0.083333333333333343
1069 1069 0.33333333333333337
1070 1069 -0.083333333333333343
1070 1070 0.33333333333333337
1072 1070 -0.083333333333333343
1115 1070 -0.083333333333333329
1071 1071 0.33333333333333337
1073 1071 -0.083333333333333343
1072 1072 0.33333333333333337
1073 1072 -0.083333333333333343
1073 1073 0.33333333333333337
1075 1073 -0.083333333333333343
1118 1073 -0.083333333333333329
1074 1074 0.33333333333333337
1076 1074 -0.083333333333333343
1075 1075 0.33333333333333337
1076 1075 -0.083333333333333343
1076 1076 0.33333333333333337
1078 1076 -0.083333333333333343
1121 1076 -0.083333333333333329
1077 1077 0.33333333333333337
1079 1077 -0.083333333333333343
1078 1078 0.33333333333333337
1079 1078 -0.083333333333333343
1079 1079 0.33333333333333337
1081 1079 -0.083333333333333343
1124 1079 -0.083333333333333329
1080 1080 0.33333333333333337
1082 1080 -0.083333333333333343
1081 1081 0.33333333333333337
1082 1081 -0.083333333333333343
1082 1082 0.33333333333333337
1084 1082 -0.083333333333333343
1127 1082 -0.083333333333333329
1083 1083 0.33333333333333337
1085 1083 -0.083333333333333343
1084 1084 0.33333333333333337
1085 1084 -0.083333333333333343
1085 1085 0.33333333333333337
1087 1085 -0.083333333333333343
1130 1085 -0.083333333333333329
1086 1086 0.33333333333333337
1088 1086 -0.083333333333333343
1087 1087 0.33333333333333337
1088 1087 -0.083333333333333343
1088 1088 0.33333333333333337
1090 1088 -0.083333333333333343
1133 1088 -0.083333333333333329
1089 1089 0.33333333333333337
1091 1089 -0.083333333333333343
1090 1090 0.33333333333333337
1091 1090 -0.083333333333333343
1091 1091 0.33333333333333337
1093 1091 -0.083333333333333343
1136 1091 -0.083333333333333329
1092 1092 0.33333333333333337
1094 1092 -0.083333333333333343
1093 1093 0.33333333333333337
1094 1093 -0.083333333333333343
1094 1094 0.33333333333333337
1096 1094 -0.083333333333333343
1139 1094 -0.083333333333333329
1095 1095 0.33333333333333337
1097 1095 -0.083333333333333343
1096 1096 0.33333333333333337
1097 1096 -0.083333333333333343
1097 1097 0.33333333333333337
1099 1097 -0.083333333333333343
1142 1097 -0.083333333333333329
1098 1098 0.33333333333333337
1100 1098 -0.083333333333333343
1099 1099 0.33333333333333337
1100 1099 -0.083333333333333343
1100 1100 0.33333333333333337
1102 1100 -0.083333333333333343
1145 1100 -0.083333333333333329
1101 1101 0.33333333333333337
1103 1101 -0.083333333333333343
1102 1102 0.33333333333333337
1103 1102 -0.083333333333333343
1103 1103 0.33333333333333337
1105 1103 -0.083333333333333343
1148 1103 -0.083333333333333329
1104 1104 0.33333333333333337
1106 1104 -0.083333333333333343
1105 1105 0.33333333333333337
1106 1105 -0.083333333333333343
1106 1106 0.33333333333333337
1108 1106 -0.083333333333333343
1151 1106 -0.083333333333333329
1107 1107 0.33333333333333337
1109 1107 -0.083333333333333343
1108 1108 0.33333333333333337
1109 1108 -0.083333333333333343
1109 1109 0.33333333333333337
1111 1109 -0.083333333333333343
1154 1109 -0.083333333333333329
1110 1110 0.33333333333333337
1112 1110 -0.083333333333333343
1111 1111 0.33333333333333337
1112 1111 -0.083333333333333343
1112 1112 0.33333333333333337
1157 1112 -0.083333333333333329
1113 1113 0.33333333333333337
1114 1113 -0.083333333333333343
1114 1114 0.33333333333333337
1116 1114 -0.083333333333333343
1160 1114 -0.083333333333333329
1115 1115 0.33333333333333337
1117 1115 -0.083333333333333343
1116 1116 0.33333333333333337
1117 1116 -0.083333333333333343
1117 1117 0.33333333333333337
1119 1117 -0.083333333333333343
1162 1117 -0.083333333333333329
1118 1118 0.33333333333333337
1120 1118 -0.083333333333333343
1119 1119 0.33333333333333337
1120 1119 -0.083333333333333343
1120 1120 0.33333333333333337
1122 1120 -0.083333333333333343
1165 1120 -0.083333333333333329
1121 1121 0.33333333333333337
1123 1121 -0.083333333333333343
1122 1122 0.33333333333333337
1123 1122 -0.083333333333333343
1123 1123 0.33333333333333337
1125 1123 -0.083333333333333343
1168 1123 -0.083333333333333329
1124 1124 0.33333333333333337
1126 1124 -0.083333333333333343
1125 1125 0.33333333333333337
1126 1125 -0.083333333333333343
1126 1126 0.33333333333333337
1128 1126 -0.083333333333333343
1171 1126 -0.083333333333333329
1127 1127 0.33333333333333337
1129 1127 -0.083333333333333343
1128 1128 0.33333333333333337
1129 1128 -0.083333333333333343
1129 1129 0.33333333333333337
1131 1129 -0.083333333333333343
1174 1129 -0.083333333333333329
1130 1130 0.33333333333333337
1132 1130 -0.083333333333333343
1131 1131 0.33333333333333337
1132 1131 -0.083333333333333343
1132 1132 0.33333333333333337
1134 1132 -0.083333333333333343
1177 1132 -0.083333333333333329
1133 1133 0.33333333333333337
1135 1133 -0.083333333333333343
1134 1134 0.33333333333333337
1135 1134 -0.083333333333333343
1135 1135 0.33333333333333337
1137 1135 -0.083333333333333343
1180 1135 -0.083333333333333329
1136 1136 0.33333333333333337
1138 1136 -0.083333333333333343
1137 1137 0.33333333333333337
1138 1137 -0.083333333333333343
1138 1138 0.33333333333333337
1140 1138 -0.083333333333333343
1183 1138 -0.083333333333333329
1139 1139 0.33333333333333337
1141 1139 -0.083333333333333343
1140 1140 0.33333333333333337
1141 1140 -0.083333333333333343
1141 1141 0.33333333333333337
1143 1141 -0.083333333333333343
1186 1141 -0.083333333333333329
1142 1142 0.33333333333333337
1144 1142 -0.083333333333333343
1143 1143 0.33333333333333337
1144 1143 -0.083333333333333343
1144 1144 0.33333333333333337
1146 1144 -0.083333333333333343
1189 1144 -0.083333333333333329
1145 1145 0.33333333333333337
1147 1145 -0.083333333333333343
1146 1146 0.33333333333333337
1147 1146 -0.083333333333333343
1147 1147 0.33333333333333337
1149 1147 -0.083333333333333343
1192 1147 -0.083333333333333329
1148 1148 0.33333333333333337
1150 1148 -0.083333333333333343
1149 1149 0.33333333333333337
1150 1149 -0.083333333333333343
1150 1150 0.33333333333333337
1152 1150 -0.083333333333333343
1195 1150 -0.083333333333333329
1151 1151 0.33333333333333337
1153 1151 -0.083333333333333343
1152 1152 0.33333333333333337
1153 1152 -0.083333333333333343
1153 1153 0.33333333333333337
1155 1153 -0.083333333333333343
1198 1153 -0.083333333333333329
1154 1154 0.33333333333333337
1156 1154 -0.083333333333333343
1155 1155 0.33333333333333337
1156 1155 -0.083333333333333343
1156 1156 0.33333333333333337
1158 1156 -0.083333333333333343
1201 1156 -0.083333333333333329
1157 1157 0.33333333333333337
1159 1157 -0.083333333333333343
1158 1158 0.33333333333333337
1159 1158 -0.083333333333333343
1159 1159 0.33333333333333337
1204 1159 -0.083333333333333329
1160 1160 0.33333333333333337
1161 1160 -0.083333333333333343
1161 1161 0.33333333333333337
1163 1161 -0.083333333333333343
1207 1161 -0.083333333333333329
1162 1162 0.33333333333333337
1164 1162 -0.083333333333333343
1163 1163 0.33333333333333337
1164 1163 -0.083333333333333343
1164 1164 0.33333333333333337
1166 1164 -0.083333333333333343
1209 1164 -0.083333333333333329
1165 1165 0.33333333333333337
1167 1165 -0.083333333333333343
1166 1166 0.33333333333333337
1167 1166 -0.083333333333333343
1167 1167 0.33333333333333337
1169 1167 -0.083333333333333343
1212 1167 -0.083333333333333329
1168 1168 0.33333333333333337
1170 1168 -0.083333333333333343
1169 1169 0.33333333333333337
1170 1169 -0.083333333333333343
1170 1170 0.33333333333333337
1172 1170 -0.083333333333333343
1215 1170 -0.083333333333333329
1171 1171 0.33333333333333337
1173 1171 -0.083333333333333343
1172 1172 0.33333333333333337
1173 1172 -0.083333333333333343
1173 1173 0.33333333333333337
1175 1173 -0.083333333333333343
1218 1173 -0.083333333333333329
1174 1174 0.33333333333333337
1176 1174 -0.083333333333333343
1175 1175 0.33333333333333337
1176 1175 -0.083333333333333343
1176 1176 0.33333333333333337
1178 1176 -0.083333333333333343
1221 1176 -0.083333333333333329
1177 1177 0.33333333333333337
1179 1177 -0.083333333333333343
1178 1178 0.33333333333333337
1179 1178 -0.083333333333333343
1179 1179 0.33333333333333337
1181 1179 -0.083333333333333343
1224 1179 -0.083333333333333329
1180 1180 0.33333333333333337
1182 1180 -0.083333333333333343
1181 1181 0.33333333333333337
1182 1181 -0.083333333333333343
1182 1182 0.33333333333333337
1184 1182 -0.083333333333333343
1227 1182 -0.083333333333333329
1183 1183 0.33333333333333337
1185 1183 -0.083333333333333343
1184 1184 0.33333333333333337
1185 1184 -0.083333333333333343
1185 1185 0.33333333333333337
1187 1185 -0.083333333333333343
1230 1185 -0.083333333333333329
1186 1186 0.33333333333333337
1188 1186 -0.083333333333333343
1187 1187 0.33333333333333337
1188 1187 -0.083333333333333343
1188 1188 0.33333333333333337
1190 1188 -0.083333333333333343
1233 1188 -0.083333333333333329
1189 1189 0.33333333333333337
1191 1189 -0.083333333333333343
1190 1190 0.33333333333333337
1191 1190 -0.083333333333333343
1191 1191 0.33333333333333337
1193 1191 -0.083333333333333343
1236 1191 -0.083333333333333329
1192 1192 0.33333333333333337
1194 1192 -0.083333333333333343
1193 1193 0.33333333333333337
1194 1193 -0.083333333333333343
1194 1194 0.33333333333333337
1196 1194 -0.083333333333333343
1239 1194 -0.083333333333333329
1195 1195 0.33333333333333337
1197 1195 -0.083333333333333343
1196 1196 0.33333333333333337
1197 1196 -0.083333333333333343
1197 1197 0.33333333333333337
1199 1197 -0.083333333333333343
1242 1197 -0.083333333333333329
1198 1198 0.33333333333333337
1200 1198 -0.083333333333333343
1199 1199 0.33333333333333337
1200 1199 -0.083333333333333343
1200 1200 0.33333333333333337
1202 1200 -0.083333333333333343
1245 1200 -0.083333333333333329
1201 1201 0.33333333333333337
1203 1201 -0.083333333333333343
1202 1202 0.33333333333333337
1203 1202 -0.083333333333333343
1203 1203 0.33333333333333337
1205 1203 -0.083333333333333343
1248 1203 -0.083333333333333329
1204 1204 0.33333333333333337
1206 1204 -0.083333333333333343
1205 1205 0.33333333333333337
1206 1205 -0.083333333333333343
1206 1206 0.33333333333333337
1251 1206 -0.083333333333333329
1207 1207 0.33333333333333337
1208 1207 -0.083333333333333343
1208 1208 0.33333333333333337
1210 1208 -0.083333333333333343
1254 1208 -0.083333333333333329
1209 1209 0.33333333333333337
1211 1209 -0.083333333333333343
1210 1210 0.33333333333333337
1211 1210 -0.083333333333333343
1211 1211 0.33333333333333337
1213 1211 -0.083333333333333343
1256 1211 -0.083333333333333329
1212 1212 0.33333333333333337
1214 1212 -0.083333333333333343
1213 1213 0.33333333333333337
1214 1213 -0.083333333333333343
1214 1214 0.33333333333333337
1216 1214 -0.083333333333333343
1259 1214 -0.083333333333333329
1215 1215 0.33333333333333337
1217 1215 -0.083333333333333343
1216 1216 0.33333333333333337
1217 1216 -0.083333333333333343
1217 1217 0.33333333333333337
1219 1217 -0.083333333333333343
1262 1217 -0.083333333333333329
1218 1218 0.33333333333333337
1220 1218 -0.083333333333333343
1219 1219 0.33333333333333337
1220 1219 -0.083333333333333343
1220 1220 0.33333333333333337
1222 1220 -0.083333333333333343
1265 1220 -0.083333333333333329
1221 1221 0.33333333333333337
1223 1221 -0.083333333333333343
1222 1222 0.33333333333333337
1223 1222 -0.083333333333333343
1223 1223 0.33333333333333337
1225 1223 -0.083333333333333343
1268 1223 -0.083333333333333329
1224 1224 0.33333333333333337
1226 1224 -0.083333333333333343
1225 1225 0.33333333333333337
1226 1225 -0.083333333333333343
1226 1226 0.33333333333333337
1228 1226 -0.083333333333333343
1271 1226 -0.083333333333333329
1227 1227 0.33333333333333337
1229 1227 -0.083333333333333343
1228 1228 0.33333333333333337
1229 1228 -0.083333333333333343
1229 1229 0.33333333333333337
1231 1229 -0.083333333333333343
1274 1229 -0.083333333333333329
1230 1230 0.33333333333333337
1232 1230 -0.083333333333333343
1231 1231 0.33333333333333337
1232 1231 -0.083333333333333343
1232 1232 0.33333333333333337
1234 1232 -0.083333333333333343
1277 1232 -0.083333333333333329
1233 1233 0.33333333333333337
1235 1233 -0.083333333333333343
1234 1234 0.33333333333333337
1235 1234 -0.083333333333333343
1235 1235 0.33333333333333337
1237 1235 -0.083333333333333343
1280 1235 -0.083333333333333329
1236 1236 0.33333333333333337
1238 1236 -0.083333333333333343
1237 1237 0.33333333333333337
1238 1237 -0.083333333333333343
1238 1238 0.33333333333333337
1240 1238 -0.083333333333333343
1283 1238 -0.083333333333333329
1239 1239 0.33333333333333337
1241 1239 -0.083333333333333343
1240 1240 0.33333333333333337
1241 1240 -0.083333333333333343
1241 1241 0.33333333333333337
1243 1241 -0.083333333333333343
1286 1241 -0.083333333333333329
1242 1242 0.33333333333333337
1244 1242 -0.083333333333333343
1243 1243 0.33333333333333337
1244 1243 -0.083333333333333343
1244 1244 0.33333333333333337
1246 1244 -0.083333333333333343
1289 1244 -0.083333333333333329
1245 1245 0.33333333333333337
1247 1245 -0.083333333333333343
1246 1246 0.33333333333333337
1247 1246 -0.083333333333333343
1247 1247 0.33333333333333337
1249 1247 -0.083333333333333343
1292 1247 -0.083333333333333329
1248 1248 0.33333333333333337
1250 1248 -0.083333333333333343
1249 1249 0.33333333333333337
1250 1249 -0.083333333333333343
1250 1250 0.33333333333333337
1252 1250 -0.083333333333333343
1295 1250 -0.083333333333333329
1251 1251 0.33333333333333337
1253 1251 -0.083333333333333343
1252 1252 0.33333333333333337
1253 1252 -0.083333333333333343
1253 1253 0.33333333333333337
1298 1253 -0.083333333333333329
1254 1254 0.33333333333333337
1255 1254 -0.083333333333333343
1255 1255 0.33333333333333337
1257 1255 -0.083333333333333343
1301 1255 -0.083333333333333329
1256 1256 0.33333333333333337
1258 1256 -0.083333333333333343
1257 1257 0.33333333333333337
1258 1257 -0.083333333333333343
1258 1258 0.33333333333333337
1260 1258 -0.083333333333333343
1303 1258 -0.083333333333333329
1259 1259 0.33333333333333337
1261 1259 -0.083333333333333343
1260 1260 0.33333333333333337
1261 1260 -0.083333333333333343
1261 1261 0.33333333333333337
1263 1261 -0.083333333333333343
1306 1261 -0.083333333333333329
1262 1262 0.33333333333333337
1264 1262 -0.083333333333333343
1263 1263 0.33333333333333337
1264 1263 -0.083333333333333343
1264 1264 0.33333333333333337
1266 1264 -0.083333333333333343
1309 1264 -0.083333333333333329
1265 1265 0.33333333333333337
1267 1265 -0.083333333333333343
1266 1266 0.33333333333333337
1267 1266 -0.083333333333333343
1267 1267 0.33333333333333337
1269 1267 -0.083333333333333343
1312 1267 -0.083333333333333329
1268 1268 0.33333333333333337
1270 1268 -0.083333333333333343
1269 1269 0.33333333333333337
1270 1269 -0.083333333333333343
1270 1270 0.33333333333333337
1272 1270 -0.083333333333333343
1315 1270 -0.083333333333333329
1271 1271 0.33333333333333337
1273 1271 -0.083333333333333343
1272 1272 0.33333333333333337
1273 1272 -0.083333333333333343
1273 1273 0.33333333333333337
1275 1273 -0.083333333333333343
1318 1273 -0.083333333333333329
1274 1274 0.33333333333333337
1276 1274 -0.083333333333333343
1275 1275 0.33333333333333337
1276 1275 -0.083333333333333343
1276 1276 0.33333333333333337
1278 1276 -0.083333333333333343
1321 1276 -0.083333333333333329
1277 1277 0.33333333333333337
1279 1277 -0.083333333333333343
1278 1278 0.33333333333333337
1279 1278 -0.083333333333333343
1279 1279 0.33333333333333337
1281 1279 -0.083333333333333343
1324 1279 -0.083333333333333329
1280 1280 0.33333333333333337
1282 1280 -0.083333333333333343
1281 1281 0.33333333333333337
1282 1281 -0.083333333333333343
1282 1282 0.33333333333333337
1284 1282 -0.083333333333333343
1327 1282 -0.083333333333333329
1283 1283 0.33333333333333337
1285 1283 -0.083333333333333343
1284 1284 0.33333333333333337
1285 1284 -0.083333333333333343
1285 1285 0.33333333333333337
1287 1285 -0.083333333333333343
1330 1285 -0.083333333333333329
1286 1286 0.33333333333333337
1288 1286 -0.083333333333333343
1287 1287 0.33333333333333337
1288 1287 -0.083333333333333343
1288 1288 0.33333333333333337
1290 1288 -0.083333333333333343
1333 1288 -0.083333333333333329
1289 1289 0.33333333333333337
1291 1289 -0.083333333333333343
1290 1290 0.33333333333333337
1291 1290 -0.083333333333333343
1291 1291 0.33333333333333337
1293 1291 -0.083333333333333343
1336 1291 -0.083333333333333329
1292 1292 0.33333333333333337
1294 1292 -0.083333333333333343
1293 1293 0.33333333333333337
1294 1293 -0.083333333333333343
1294 1294 0.33333333333333337
1296 1294 -0.083333333333333343
1339 1294 -0.083333333333333329
1295 1295 0.33333333333333337
1297 1295 -0.083333333333333343
1296 1296 0.33333333333333337
1297 1296 -0.083333333333333343
1297 1297 0.33333333333333337
1299 1297 -0.083333333333333343
1342 1297 -0.083333333333333329
1298 1298 0.33333333333333337
1300 1298 -0.083333333333333343
1299 1299 0.33333333333333337
1300 1299 -0.083333333333333343
1300 1300 0.33333333333333337
1345 1300 -0.083333333333333329
1301 1301 0.33333333333333337
1302 1301 -0.083333333333333343
1302 1302 0.33333333333333337
1304 1302 -0.083333333333333343
1348 1302 -0.083333333333333329
1303 1303 0.33333333333333337
1305 1303 -0.083333333333333343
1304 1304 0.33333333333333337
1305 1304 -0.083333333333333343
1305 1305 0.33333333333333337
1307 1305 -0.083333333333333343
1350 1305 -0.083333333333333329
1306 1306 0.33333333333333337
1308 1306 -0.083333333333333343
1307 1307 0.33333333333333337
1308 1307 -0.083333333333333343
1308 1308 0.33333333333333337
1310 1308 -0.083333333333333343
1353 1308 -0.083333333333333329
1309 1309 0.33333333333333337
1311 1309 -0.083333333333333343
1310 1310 0.33333333333333337
1311 1310 -0.083333333333333343
1311 1311 0.33333333333333337
1313 1311 -0.083333333333333343
1356 1311 -0.083333333333333329
1312 1312 0.33333333333333337
1314 1312 -0.083333333333333343
1313 1313 0.33333333333333337
1314 1313 -0.083333333333333343
1314 1314 0.33333333333333337
1316 1314 -0.083333333333333343
1359 1314 -0.083333333333333329
1315 1315 0.33333333333333337
1317 1315 -0.083333333333333343
1316 1316 0.33333333333333337
1317 1316 -0.083333333333333343
1317 1317 0.33333333333333337
1319 1317 -0.083333333333333343
1362 1317 -0.083333333333333329
1318 1318 0.33333333333333337
1320 1318 -0.083333333333333343
1319 1319 0.33333333333333337
1320 1319 -0.083333333333333343
1320 1320 0.33333333333333337
1322 1320 -0.083333333333333343
1365 1320 -0.083333333333333329
1321 1321 0.33333333333333337
1323 1321 -0.083333333333333343
1322 1322 0.33333333333333337
1323 1322 -0.083333333333333343
1323 1323 0.33333333333333337
1325 1323 -0.083333333333333343
1368 1323 -0.083333333333333329
1324 1324 0.33333333333333337
1326 1324 -0.083333333333333343
1325 1325 0.33333333333333337
1326 1325 -0.083333333333333343
1326 1326 0.33333333333333337
1328 1326 -0.083333333333333343
1371 1326 -0.083333333333333329
1327 1327 0.33333333333333337
1329 1327 -0.083333333333333343
1328 1328 0.33333333333333337
1329 1328 -0.083333333333333343
1329 1329 0.33333333333333337
1331 1329 -0.083333333333333343
1374 1329 -0.083333333333333329
1330 1330 0.33333333333333337
1332 1330 -0.083333333333333343
1331 1331 0.33333333333333337
1332 1331 -0.083333333333333343
1332 1332 0.33333333333333337
1334 1332 -0.083333333333333343
1377 1332 -0.083333333333333329
1333 1333 0.33333333333333337
1335 1333 -0.083333333333333343
1334 1334 0.33333333333333337
1335 1334 -0.083333333333333343
1335 1335 0.33333333333333337
1337 1335 -0.083333333333333343
1380 1335 -0.083333333333333329
1336 1336 0.33333333333333337
1338 1336 -0.083333333333333343
1337 1337 0.33333333333333337
1338 1337 -0.083333333333333343
1338 1338 0.33333333333333337
1340 1338 -0.083333333333333343
1383 1338 -0.083333333333333329
1339 1339 0.33333333333333337
1341 1339 -0.083333333333333343
1340 1340 0.33333333333333337
1341 1340 -0.083333333333333343
1341 1341 0.33333333333333337
1343 1341 -0.083333333333333343
1386 1341 -0.083333333333333329
1342 1342 0.33333333333333337
1344 1342 -0.083333333333333343
1343 1343 0.33333333333333337
1344 1343 -0.083333333333333343
1344 1344 0.33333333333333337
1346 1344 -0.083333333333333343
1389 1344 -0.083333333333333329
1345 1345 0.33333333333333337
1347 1345 -0.083333333333333343
1346 1346 0.33333333333333337
1347 1346 -0.083333333333333343
1347 1347 0.33333333333333337
1392 1347 -0.083333333333333329
1348 1348 0.33333333333333337
1349 1348 -0.083333333333333343
1349 1349 0.33333333333333337
1351 1349 -0.083333333333333343
1395 1349 -0.083333333333333329
1350 1350 0.33333333333333337
1352 1350 -0.083333333333333343
1351 1351 0.33333333333333337
1352 1351 -0.083333333333333343
1352 1352 0.33333333333333337
1354 1352 -0.083333333333333343
1397 1352 -0.083333333333333329
1353 1353 0.33333333333333337
1355 1353 -0.083333333333333343
1354 1354 0.33333333333333337
1355 1354 -0.083333333333333343
1355 1355 0.33333333333333337
1357 1355 -0.083333333333333343
1400 1355 -0.083333333333333329
1356 1356 0.33333333333333337
1358 1356 -0.083333333333333343
1357 1357 0.33333333333333337
1358 1357 -0.083333333333333343
1358 1358 0.33333333333333337
1360 1358 -0.083333333333333343
1403 1358 -0.083333333333333329
1359 1359 0.33333333333333337
1361 1359 -0.083333333333333343
1360 1360 0.33333333333333337
1361 1360 -0.083333333333333343
1361 1361 0.33333333333333337
1363 1361 -0.083333333333333343
1406 1361 -0.083333333333333329
1362 1362 0.33333333333333337
1364 1362 -0.083333333333333343
1363 1363 0.33333333333333337
1364 1363 -0.083333333333333343
1364 1364 0.33333333333333337
1366 1364 -0.083333333333333343
1409 1364 -0.083333333333333329
1365 1365 0.33333333333333337
1367 1365 -0.083333333333333343
1366 1366 0.33333333333333337
1367 1366 -0.083333333333333343
1367 1367 0.33333333333333337
1369 1367 -0.083333333333333343
1412 1367 -0.083333333333333329
1368 1368 0.33333333333333337
1370 1368 -0.083333333333333343
1369 1369 0.33333333333333337
1370 1369 -0.083333333333333343
1370 1370 0.33333333333333337
1372 1370 -0.083333333333333343
1415 1370 -0.083333333333333329
1371 1371 0.33333333333333337
1373 1371 -0.083333333333333343
1372 1372 0.33333333333333337
1373 1372 -0.083333333333333343
1373 1373 0.33333333333333337
1375 1373 -0.083333333333333343
1418 1373 -0.083333333333333329
1374 1374 0.33333333333333337
1376 1374 -0.083333333333333343
1375 1375 0.33333333333333337
1376 1375 -0.083333333333333343
1376 1376 0.33333333333333337
1378 1376 -0.083333333333333343
1421 1376 -0.083333333333333329
1377 1377 0.33333333333333337
1379 1377 -0.083333333333333343
1378 1378 0.33333333333333337
1379 1378 -0.083333333333333343
1379 1379 0.33333333333333337
1381 1379 -0.083333333333333343
1424 1379 -0.083333333333333329
1380 1380 0.33333333333333337
1382 1380 -0.083333333333333343
1381 1381 0.33333333333333337
1382 1381 -0.083333333333333343
1382 1382 0.33333333333333337
1384 1382 -0.083333333333333343
1427 1382 -0.083333333333333329
1383 1383 0.33333333333333337
1385 1383 -0.083333333333333343
1384 1384 0.33333333333333337
1385 1384 -0.083333333333333343
1385 1385 0.33333333333333337
1387 1385 -0.083333333333333343
1430 1385 -0.083333333333333329
1386 1386 0.33333333333333337
1388 1386 -0.083333333333333343
1387 1387 0.33333333333333337
1388 1387 -0.083333333333333343
1388 1388 0.33333333333333337
1390 1388 -0.083333333333333343
1433 1388 -0.083333333333333329
1389 1389 0.33333333333333337
1391 1389 -0.083333333333333343
1390 1390 0.33333333333333337
1391 1390 -0.083333333333333343
1391 1391 0.33333333333333337
1393 1391 -0.083333333333333343
1436 1391 -0.083333333333333329
1392 1392 0.33333333333333337
1394 1392 -0.083333333333333343
1393 1393 0.33333333333333337
1394 1393 -0.083333333333333343
1394 1394 0.33333333333333337
1439 1394 -0.083333333333333329
1395 1395 0.33333333333333337
1396 1395 -0.083333333333333343
1396 1396 0.33333333333333337
1398 1396 -0.083333333333333343
1442 1396 -0.083333333333333329
1397 1397 0.33333333333333337
1399 1397 -0.083333333333333343
1398 1398 0.33333333333333337
1399 1398 -0.083333333333333343
1399 1399 0.33333333333333337
1401 1399 -0.083333333333333343
1444 1399 -0.083333333333333329
1400 1400 0.33333333333333337
1402 1400 -0.083333333333333343
1401 1401 0.33333333333333337
1402 1401 -0.083333333333333343
1402 1402 0.33333333333333337
1404 1402 -0.083333333333333343
1447 1402 -0.083333333333333329
1403 1403 0.33333333333333337
1405 1403 -0.083333333333333343
1404 1404 0.33333333333333337
1405 1404 -0.083333333333333343
1405 1405 0.33333333333333337
1407 1405 -0.083333333333333343
1450 1405 -0.083333333333333329
1406 1406 0.33333333333333337
1408 1406 -0.083333333333333343
1407 1407 0.33333333333333337
1408 1407 -0.083333333333333343
1408 1408 0.33333333333333337
1410 1408 -0.083333333333333343
1453 1408 -0.083333333333333329
1409 1409 0.33333333333333337
1411 1409 -0.083333333333333343
1410 1410 0.33333333333333337
1411 1410 -0.083333333333333343
1411 1411 0.33333333333333337
1413 1411 -0.083333333333333343
1456 1411 -0.083333333333333329
1412 1412 0.33333333333333337
1414 1412 -0.083333333333333343
1413 1413 0.33333333333333337
1414 1413 -0.083333333333333343
1414 1414 0.33333333333333337
1416 1414 -0.083333333333333343
1459 1414 -0.083333333333333329
1415 1415 0.33333333333333337
1417 1415 -0.083333333333333343
1416 1416 0.33333333333333337
1417 1416 -0.083333333333333343
1417 1417 0.33333333333333337
1419 1417 -0.083333333333333343
1462 1417 -0.083333333333333329
1418 1418 0.33333333333333337
1420 1418 -0.083333333333333343
1419 1419 0.33333333333333337
1420 1419 -0.083333333333333343
1420 1420 0.33333333333333337
1422 1420 -0.083333333333333343
1465 1420 -0.083333333333333329
1421 1421 0.33333333333333337
1423 1421 -0.083333333333333343
1422 1422 0.33333333333333337
1423 1422 -0.083333333333333343
1423 1423 0.33333333333333337
1425 1423 -0.083333333333333343
1468 1423 -0.083333333333333329
1424 1424 0.33333333333333337
1426 1424 -0.083333333333333343
1425 1425 0.33333333333333337
1426 1425 -0.083333333333333343
1426 1426 0.33333333333333337
1428 1426 -0.083333333333333343
1471 1426 -0.083333333333333329
1427 1427 0.33333333333333337
1429 1427 -0.083333333333333343
1428 1428 0.33333333333333337
1429 1428 -0.083333333333333343
1429 1429 0.33333333333333337
1431 1429 -0.083333333333333343
1474 1429 -0.083333333333333329
1430 1430 0.33333333333333337
1432 1430 -0.083333333333333343
1431 1431 0.33333333333333337
1432 1431 -0.083333333333333343
1432 1432 0.33333333333333337
1434 1432 -0.083333333333333343
1477 1432 -0.083333333333333329
1433 1433 0.33333333333333337
1435 1433 -0.083333333333333343
1434 1434 0.33333333333333337
1435 1434 -0.083333333333333343
1435 1435 0.33333333333333337
1437 1435 -0.083333333333333343
1480 1435 -0.083333333333333329
1436 1436 0.33333333333333337
1438 1436 -0.083333333333333343
1437 1437 0.33333333333333337
1438 1437 -0.083333333333333343
1438 1438 0.33333333333333337
1440 1438 -0.083333333333333343
1483 1438 -0.083333333333333329
1439 1439 0.33333333333333337
1441 1439 -0.083333333333333343
1440 1440 0.33333333333333337
1441 1440 -0.083333333333333343
1441 1441 0.33333333333333337
1486 1441 -0.083333333333333329
1442 1442 0.33333333333333337
1443 1442 -0.083333333333333343
1443 1443 0.33333333333333337
1445 1443 -0.083333333333333343
1521 1443 -0.083333333333333329
1444 1444 0.33333333333333337
1446 1444 -0.083333333333333343
1445 1445 0.33333333333333337
1446 1445 -0.083333333333333343
1446 1446 0.33333333333333337
1448 1446 -0.083333333333333343
1523 1446 -0.083333333333333329
1447 1447 0.33333333333333337
1449 1447 -0.083333333333333343
1448 1448 0.33333333333333337
1449 1448 -0.083333333333333343
1449 1449 0.33333333333333337
1451 1449 -0.083333333333333343
1526 1449 -0.083333333333333329
1450 1450 0.33333333333333337
1452 1450 -0.083333333333333343
1451 1451 0.33333333333333337
1452 1451 -0.083333333333333343
1452 1452 0.33333333333333337
1454 1452 -0.083333333333333343
1529 1452 -0.083333333333333329
1453 1453 0.33333333333333337
1455 1453 -0.083333333333333343
1454 1454 0.33333333333333337
1455 1454 -0.083333333333333343
1455 1455 0.33333333333333337
1457 1455 -0.083333333333333343
1532 1455 -0.083333333333333329
1456 1456 0.33333333333333337
1458 1456 -0.083333333333333343
1457 1457 0.33333333333333337
1458 1457 -0.083333333333333343
1458 1458 0.33333333333333337
1460 1458 -0.083333333333333343
1535 1458 -0.083333333333333329
1459 1459 0.33333333333333337
1461 1459 -0.083333333333333343
1460 1460 0.33333333333333337
1461 1460 -0.083333333333333343
1461 1461 0.33333333333333337
1463 1461 -0.083333333333333343
1538 1461 -0.083333333333333329
1462 1462 0.33333333333333337
1464 1462 -0.083333333333333343
1463 1463 0.33333333333333337
1464 1463 -0.083333333333333343
1464 1464 0.33333333333333337
1466 1464 -0.083333333333333343
1541 1464 -0.083333333333333329
1465 1465 0.33333333333333337
1467 1465 -0.083333333333333343
1466 1466 0.33333333333333337
1467 1466 -0.083333333333333343
1467 1467 0.33333333333333337
1469 1467 -0.083333333333333343
1544 1467 -0.083333333333333329
1468 1468 0.33333333333333337
1470 1468 -0.083333333333333343
1469 1469 0.33333333333333337
1470 1469 -0.083333333333333343
1470 1470 0.33333333333333337
1472 1470 -0.083333333333333343
1547 1470 -0.083333333333333329
1471 1471 0.33333333333333337
1473 1471 -0.083333333333333343
1472 1472 0.33333333333333337
1473 1472 -0.083333333333333343
1473 1473 0.33333333333333337
1475 1473 -0.083333333333333343
1550 1473 -0.083333333333333329
1474 1474 0.33333333333333337
1476 1474 -0.083333333333333343
1475 1475 0.33333333333333337
1476 1475 -0.083333333333333343
1476 1476 0.33333333333333337
1478 1476 -0.083333333333333343
1553 1476 -0.083333333333333329
1477 1477 0.33333333333333337
1479 1477 -0.083333333333333343
1478 1478 0.33333333333333337
1479 1478 -0.083333333333333343
1479 1479 0.33333333333333337
1481 1479 -0.083333333333333343
1556 1479 -0.083333333333333329
1480 1480 0.33333333333333337
1482 1480 -0.083333333333333343
1481 1481 0.33333333333333337
1482 1481 -0.083333333333333343
1482 1482 0.33333333333333337
1484 1482 -0.083333333333333343
1559 1482 -0.083333333333333329
1483 1483 0.33333333333333337
1485 1483 -0.083333333333333343
1484 1484 0.33333333333333337
1485 1484 -0.083333333333333343
1485 1485 0.33333333333333337
1487 1485 -0.083333333333333343
1562 1485 -0.083333333333333329
1486 1486 0.33333333333333337
1488 1486 -0.083333333333333343
1487 1487 0.33333333333333337
1488 1487 -0.083333333333333343
1488 1488 0.33333333333333337
1489 1488 -0.083333333333333343
1565 1488 -0.083333333333333329
1489 1489 0.33333333333333337
1490 1489 -0.083333333333333343
1490 1490 0.33333333333333337
1491 1490 -0.083333333333333343
1568 1490 -0.083333333333333329
1491 1491 0.33333333333333337
1492 1491 -0.083333333333333343
1492 1492 0.33333333333333337
1493 1492 -0.083333333333333343
1571 1492 -0.083333333333333329
1493 1493 0.33333333333333337
1494 1493 -0.083333333333333343
1494 1494 0.33333333333333337
1495 1494 -0.083333333333333343
1574 1494 -0.083333333333333329
1495 1495 0.33333333333333337
1496 1495 -0.083333333333333343
1496 1496 0.33333333333333337
1497 1496 -0.083333333333333343
1577 1496 -0.083333333333333329
1497 1497 0.33333333333333337
1498 1497 -0.083333333333333343
1498 1498 0.33333333333333337
1499 1498 -0.083333333333333343
1580 1498 -0.083333333333333329
1499 1499 0.33333333333333337
1500 1499 -0.083333333333333343
1500 1500 0.33333333333333337
1501 1500 -0.083333333333333343
1583 1500 -0.083333333333333329
1501 1501 0.33333333333333337
1502 1501 -0.083333333333333343
1502 1502 0.33333333333333337
1503 1502 -0.083333333333333343
1586 1502 -0.083333333333333329
1503 1503 0.33333333333333337
1504 1503 -0.083333333333333343
1504 1504 0.33333333333333337
1505 1504 -0.083333333333333343
1589 1504 -0.083333333333333329
1505 1505 0.33333333333333337
1506 1505 -0.083333333333333343
1506 1506 0.33333333333333337
1507 1506 -0.083333333333333343
1592 1506 -0.083333333333333329
1507 1507 0.33333333333333337
1508 1507 -0.083333333333333343
1508 1508 0.33333333333333337
1509 1508 -0.083333333333333343
1595 1508 -0.083333333333333329
1509 1509 0.33333333333333337
1510 1509 -0.083333333333333343
1510 1510 0.33333333333333337
1511 1510 -0.083333333333333343
1598 1510 -0.083333333333333329
1511 1511 0.33333333333333337
1512 1511 -0.083333333333333343
1512 1512 0.33333333333333337
1513 1512 -0.083333333333333343
1601 1512 -0.083333333333333329
1513 1513 0.33333333333333337
1514 1513 -0.083333333333333343
1514 1514 0.33333333333333337
1515 1514 -0.083333333333333343
1604 1514 -0.083333333333333329
1515 1515 0.33333333333333337
1516 1515 -0.083333333333333343
1516 1516 0.33333333333333337
1517 1516 -0.083333333333333343
1607 1516 -0.083333333333333329
1517 1517 0.33333333333333337
1518 1517 -0.083333333333333343
1518 1518 0.33333333333333337
1519 1518 -0.083333333333333343
1610 1518 -0.083333333333333329
1519 1519 0.33333333333333337
1520 1519 -0.083333333333333343
1520 1520 0.33333333333333337
1613 1520 -0.083333333333333329
1521 1521 0.33333333333333337
1522 1521 -0.083333333333333343
1522 1522 0.33333333333333337
1524 1522 -0.083333333333333343
1616 1522 -0.083333333333333329
1523 1523 0.33333333333333337
1525 1523 -0.083333333333333343
1524 1524 0.33333333333333337
1525 1524 -0.083333333333333343
1525 1525 0.33333333333333337
1527 1525 -0.083333333333333343
1618 1525 -0.083333333333333329
1526 1526 0.33333333333333337
1528 1526 -0.083333333333333343
1527 1527 0.33333333333333337
1528 1527 -0.083333333333333343
1528 1528 0.33333333333333337
1530 1528 -0.083333333333333343
1621 1528 -0.083333333333333329
1529 1529 0.33333333333333337
1531 1529 -0.083333333333333343
1530 1530 0.33333333333333337
1531 1530 -0.083333333333333343
1531 1531 0.33333333333333337
1533 1531 -0.083333333333333343
1624 1531 -0.083333333333333329
1532 1532 0.33333333333333337
1534 1532 -0.083333333333333343
1533 1533 0.33333333333333337
1534 1533 -0.083333333333333343
1534 1534 0.33333333333333337
1536 1534 -0.083333333333333343
1627 1534 -0.083333333333333329
1535 1535 0.33333333333333337
1537 1535 -0.083333333333333343
1536 1536 0.33333333333333337
1537 1536 -0.083333333333333343
1537 1537 0.33333333333333337
1539 1537 -0.083333333333333343
1630 1537 -0.083333333333333329
1538 1538 0.33333333333333337
1540 1538 -0.083333333333333343
1539 1539 0.33333333333333337
1540 1539 -0.083333333333333343
1540 1540 0.33333333333333337
1542 1540 -0.083333333333333343
1633 1540 -0.083333333333333329
1541 1541 0.33333333333333337
1543 1541 -0.083333333333333343
1542 1542 0.33333333333333337
1543 1542 -0.083333333333333343
1543 1543 0.33333333333333337
1545 1543 -0.083333333333333343
1636 1543 -0.083333333333333329
1544 1544 0.33333333333333337
1546 1544 -0.083333333333333343
1545 1545 0.33333333333333337
1546 1545 -0.083333333333333343
1546 1546 0.33333333333333337
1548 1546 -0.083333333333333343
1639 1546 -0.083333333333333329
1547 1547 0.33333333333333337
1549 1547 -0.083333333333333343
1548 1548 0.33333333333333337
1549 1548 -0.083333333333333343
1549 1549 0.33333333333333337
1551 1549 -0.083333333333333343
1642 1549 -0.083333333333333329
1550 1550 0.33333333333333337
1552 1550 -0.083333333333333343
1551 1551 0.33333333333333337
1552 1551 -0.083333333333333343
1552 1552 0.33333333333333337
1554 1552 -0.083333333333333343
1645 1552 -0.083333333333333329
1553 1553 0.33333333333333337
1555 1553 -0.083333333333333343
1554 1554 0.33333333333333337
1555 1554 -0.083333333333333343
1555 1555 0.33333333333333337
1557 1555 -0.083333333333333343
1648 1555 -0.083333333333333329
1556 1556 0.33333333333333337
1558 1556 -0.083333333333333343
1557 1557 0.33333333333333337
1558 1557 -0.083333333333333343
1558 1558 0.33333333333333337
1560 1558 -0.083333333333333343
1651 1558 -0.083333333333333329
1559 1559 0.33333333333333337
1561 1559 -0.083333333333333343
1560 1560 0.33333333333333337
1561 1560 -0.083333333333333343
1561 1561 0.33333333333333337
1563 1561 -0.083333333333333343
1654 1561 -0.083333333333333329
1562 1562 0.33333333333333337
1564 1562 -0.083333333333333343
1563 1563 0.33333333333333337
1564 1563 -0.083333333333333343
1564 1564 0.33333333333333337
1566 1564 -0.083333333333333343
1657 1564 -0.083333333333333329
1565 1565 0.33333333333333337
1567 1565 -0.083333333333333343
1566 1566 0.33333333333333337
1567 1566 -0.083333333333333343
1567 1567 0.33333333333333337
1569 1567 -0.083333333333333343
1660 1567 -0.083333333333333329
1568 1568 0.33333333333333337
1570 1568 -0.083333333333333343
1569 1569 0.33333333333333337
1570 1569 -0.083333333333333343
1570 1570 0.33333333333333337
1572 1570 -0.083333333333333343
1663 1570 -0.083333333333333329
1571 1571 0.33333333333333337
1573 1571 -0.083333333333333343
1572 1572 0.33333333333333337
1573 1572 -0.083333333333333343
1573 1573 0.33333333333333337
1575 1573 -0.083333333333333343
1666 1573 -0.083333333333333329
1574 1574 0.33333333333333337
1576 1574 -0.083333333333333343
1575 1575 0.33333333333333337
1576 1575 -0.083333333333333343
1576 1576 0.33333333333333337
1578 1576 -0.083333333333333343
1669 1576 -0.083333333333333329
1577 1577 0.33333333333333337
1579 1577 -0.083333333333333343
1578 1578 0.33333333333333337
1579 1578 -0.083333333333333343
1579 1579 0.33333333333333337
1581 1579 -0.083333333333333343
1672 1579 -0.083333333333333329
1580 1580 0.33333333333333337
1582 1580 -0.083333333333333343
1581 1581 0.33333333333333337
1582 1581 -0.083333333333333343
1582 1582 0.33333333333333337
1584 1582 -0.083333333333333343
1675 1582 -0.083333333333333329
1583 1583 0.33333333333333337
1585 1583 -0.083333333333333343
1584 1584 0.33333333333333337
1585 1584 -0.083333333333333343
1585 1585 0.33333333333333337
1587 1585 -0.083333333333333343
1678 1585 -0.083333333333333329
1586 1586 0.33333333333333337
1588 1586 -0.083333333333333343
1587 1587 0.33333333333333337
1588 1587 -0.083333333333333343
1588 1588 0.33333333333333337
1590 1588 -0.083333333333333343
1681 1588 -0.083333333333333329
1589 1589 0.33333333333333337
1591 1589 -0.083333333333333343
1590 1590 0.33333333333333337
1591 1590 -0.083333333333333343
1591 1591 0.33333333333333337
1593 1591 -0.083333333333333343
1684 1591 -0.083333333333333329
1592 1592 0.33333333333333337
1594 1592 -0.083333333333333343
1593 1593 0.33333333333333337
1594 1593 -0.083333333333333343
1594 1594 0.33333333333333337
1596 1594 -0.083333333333333343
1687 1594 -0.083333333333333329
1595 1595 0.33333333333333337
1597 1595 -0.083333333333333343
1596 1596 0.33333333333333337
1597 1596 -0.083333333333333343
1597 1597 0.33333333333333337
1599 1597 -0.083333333333333343
1690 1597 -0.083333333333333329
1598 1598 0.33333333333333337
1600 1598 -0.083333333333333343
1599 1599 0.33333333333333337
1600 1599 -0.083333333333333343
1600 1600 0.33333333333333337
1602 1600 -0.083333333333333343
1693 1600 -0.083333333333333329
1601 1601 0.33333333333333337
1603 1601 -0.083333333333333343
1602 1602 0.33333333333333337
1603 1602 -0.083333333333333343
1603 1603 0.33333333333333337
1605 1603 -0.083333333333333343
1696 1603 -0.083333333333333329
1604 1604 0.33333333333333337
1606 1604 -0.083333333333333343
1605 1605 0.33333333333333337
1606 1605 -0.083333333333333343
1606 1606 0.33333333333333337
1608 1606 -0.083333333333333343
1699 1606 -0.083333333333333329
1607 1607 0.33333333333333337
1609 1607 -0.083333333333333343
1608 1608 0.33333333333333337
1609 1608 -0.083333333333333343
1609 1609 0.33333333333333337
1611 1609 -0.083333333333333343
1702 1609 -0.083333333333333329
1610 1610 0.33333333333333337
1612 1610 -0.083333333333333343
1611 1611 0.33333333333333337
1612 1611 -0.083333333333333343
1612 1612 0.33333333333333337
1614 1612 -0.083333333333333343
1705 1612 -0.083333333333333329
1613 1613 0.33333333333333337
1615 1613 -0.083333333333333343
1614 1614 0.33333333333333337
1615 1614 -0.083333333333333343
1615 1615 0.33333333333333337
1708 1615 -0.083333333333333329
1616 1616 0.33333333333333337
1617 1616 -0.083333333333333343
1617 1617 0.33333333333333337
1619 1617 -0.083333333333333343
1711 1617 -0.083333333333333329
1618 1618 0.33333333333333337
1620 1618 -0.083333333333333343
1619 1619 0.33333333333333337
1620 1619 -0.083333333333333343
1620 1620 0.33333333333333337
1622 1620 -0.083333333333333343
1713 1620 -0.083333333333333329
1621 1621 0.33333333333333337
1623 1621 -0.083333333333333343
1622 1622 0.33333333333333337
1623 1622 -0.083333333333333343
1623 1623 0.33333333333333337
1625 1623 -0.083333333333333343
1716 1623 -0.083333333333333329
1624 1624 0.33333333333333337
1626 1624 -0.083333333333333343
1625 1625 0.33333333333333337
1626 1625 -0.083333333333333343
1626 1626 0.33333333333333337
1628 1626 -0.083333333333333343
1719 1626 -0.083333333333333329
1627 1627 0.33333333333333337
1629 1627 -0.083333333333333343
1628 1628 0.33333333333333337
1629 1628 -0.083333333333333343
1629 1629 0.33333333333333337
1631 1629 -0.083333333333333343
1722 1629 -0.083333333333333329
1630 1630 0.33333333333333337
1632 1630 -0.083333333333333343
1631 1631 0.33333333333333337
1632 1631 -0.083333333333333343
1632 1632 0.33333333333333337
1634 1632 -0.083333333333333343
1725 1632 -0.083333333333333329
1633 1633 0.33333333333333337
1635 1633 -0.083333333333333343
1634 1634 0.33333333333333337
1635 1634 -0.083333333333333343
1635 1635 0.33333333333333337
1637 1635 -0.083333333333333343
1728 1635 -0.083333333333333329
1636 1636 0.33333333333333337
1638 1636 -0.083333333333333343
1637 1637 0.33333333333333337
1638 1637 -0.083333333333333343
1638 1638 0.33333333333333337
1640 1638 -0.083333333333333343
1731 1638 -0.083333333333333329
1639 1639 0.33333333333333337
1641 1639 -0.083333333333333343
1640 1640 0.33333333333333337
1641 1640 -0.083333333333333343
1641 1641 0.33333333333333337
1643 1641 -0.083333333333333343
1734 1641 -0.083333333333333329
1642 1642 0.33333333333333337
1644 1642 -0.083333333333333343
1643 1643 0.33333333333333337
1644 1643 -0.083333333333333343
1644 1644 0.33333333333333337
1646 1644 -0.083333333333333343
1737 1644 -0.083333333333333329
1645 1645 0.33333333333333337
1647 1645 -0.083333333333333343
1646 1646 0.33333333333333337
1647 1646 -0.083333333333333343
1647 1647 0.33333333333333337
1649 1647 -0.083333333333333343
1740 1647 -0.083333333333333329
1648 1648 0.33333333333333337
1650 1648 -0.083333333333333343
1649 1649 0.33333333333333337
1650 1649 -0.083333333333333343
1650 1650 0.33333333333333337
1652 1650 -0.083333333333333343
1743 1650 -0.083333333333333329
1651 1651 0.33333333333333337
1653 1651 -0.083333333333333343
1652 1652 0.33333333333333337
1653 1652 -0.083333333333333343
1653 1653 0.33333333333333337
1655 1653 -0.083333333333333343
1746 1653 -0.083333333333333329
1654 1654 0.33333333333333337
1656 1654 -0.083333333333333343
1655 1655 0.33333333333333337
1656 1655 -0.083333333333333343
1656 1656 0.33333333333333337
1658 1656 -0.083333333333333343
1749 1656 -0.083333333333333329
1657 1657 0.33333333333333337
1659 1657 -0.083333333333333343
1658 1658 0.33333333333333337
1659 1658 -0.083333333333333343
1659 1659 0.33333333333333337
1661 1659 -0.083333333333333343
1752 1659 -0.083333333333333329
1660 1660 0.33333333333333337
1662 1660 -0.083333333333333343
1661 1661 0.33333333333333337
1662 1661 -0.083333333333333343
1662 1662 0.33333333333333337
1664 1662 -0.083333333333333343
1755 1662 -0.083333333333333329
1663 1663 0.33333333333333337
1665 1663 -0.083333333333333343
1664 1664 0.33333333333333337
1665 1664 -0.083333333333333343
1665 1665 0.33333333333333337
1667 1665 -0.083333333333333343
1758 1665 -0.083333333333333329
1666 1666 0.33333333333333337
1668 1666 -0.083333333333333343
1667 1667 0.33333333333333337
1668 1667 -0.083333333333333343
1668 1668 0.33333333333333337
1670 1668 -0.083333333333333343
1761 1668 -0.083333333333333329
1669 1669 0.33333333333333337
1671 1669 -0.083333333333333343
1670 1670 0.33333333333333337
1671 1670 -0.083333333333333343
1671 1671 0.33333333333333337
1673 1671 -0.083333333333333343
1764 1671 -0.083333333333333329
1672 1672 0.33333333333333337
1674 1672 -0.083333333333333343
1673 1673 0.33333333333333337
1674 1673 -0.083333333333333343
1674 1674 0.33333333333333337
1676 1674 -0.083333333333333343
1767 1674 -0.083333333333333329
1675 1675 0.33333333333333337
1677 1675 -0.083333333333333343
1676 1676 0.33333333333333337
1677 1676 -0.083333333333333343
1677 1677 0.33333333333333337
1679 1677 -0.083333333333333343
1770 1677 -0.083333333333333329
1678 1678 0.33333333333333337
1680 1678 -0.083333333333333343
1679 1679 0.33333333333333337
1680 1679 -0.083333333333333343
1680 1680 0.33333333333333337
1682 1680 -0.083333333333333343
1773 1680 -0.083333333333333329
1681 1681 0.33333333333333337
1683 1681 -0.083333333333333343
1682 1682 0.33333333333333337
1683 1682 -0.083333333333333343
1683 1683 0.33333333333333337
1685 1683 -0.083333333333333343
1776 1683 -0.083333333333333329
1684 1684 0.33333333333333337
1686 1684 -0.083333333333333343
1685 1685 0.33333333333333337
1686 1685 -0.083333333333333343
1686 1686 0.33333333333333337
1688 1686 -0.083333333333333343
1779 1686 -0.083333333333333329
1687 1687 0.33333333333333337
1689 1687 -0.083333333333333343
1688 1688 0.33333333333333337
1689 1688 -0.083333333333333343
1689 1689 0.33333333333333337
1691 1689 -0.083333333333333343
1782 1689 -0.083333333333333329
1690 1690 0.33333333333333337
1692 1690 -0.083333333333333343
1691 1691 0.33333333333333337
1692 1691 -0.083333333333333343
1692 1692 0.33333333333333337
1694 1692 -0.083333333333333343
1785 1692 -0.083333333333333329
1693 1693 0.33333333333333337
1695 1693 -0.083333333333333343
1694 1694 0.33333333333333337
1695 1694 -0.083333333333333343
1695 1695 0.33333333333333337
1697 1695 -0.083333333333333343
1788 1695 -0.083333333333333329
1696 1696 0.33333333333333337
1698 1696 -0.083333333333333343
1697 1697 0.33333333333333337
1698 1697 -0.083333333333333343
1698 1698 0.33333333333333337
1700 1698 -0.083333333333333343
1791 1698 -0.083333333333333329
1699 1699 0.33333333333333337
1701 1699 -0.083333333333333343
1700 1700 0.33333333333333337
1701 1700 -0.083333333333333343
1701 1701 0.33333333333333337
1703 1701 -0.083333333333333343
1794 1701 -0.083333333333333329
1702 1702 0.33333333333333337
1704 1702 -0.083333333333333343
1703 1703 0.33333333333333337
1704 1703 -0.083333333333333343
1704 1704 0.33333333333333337
1706 1704 -0.083333333333333343
1797 1704 -0.083333333333333329
1705 1705 0.33333333333333337
1707 1705 -0.083333333333333343
1706 1706 0.33333333333333337
1707 1706 -0.083333333333333343
1707 1707 0.33333333333333337
1709 1707 -0.083333333333333343
1800 1707 -0.083333333333333329
1708 1708 0.33333333333333337
1710 1708 -0.083333333333333343
1709 1709 0.33333333333333337
1710 1709 -0.083333333333333343
1710 1710 0.33333333333333337
1803 1710 -0.083333333333333329
1711 1711 0.33333333333333337
1712 1711 -0.083333333333333343
1712 1712 0.33333333333333337
1714 1712 -0.083333333333333343
1806 1712 -0.083333333333333329
1713 1713 0.33333333333333337
1715 1713 -0.083333333333333343
1714 1714 0.33333333333333337
1715 1714 -0.083333333333333343
1715 1715 0.33333333333333337
1717 1715 -0.083333333333333343
1808 1715 -0.083333333333333329
1716 1716 0.33333333333333337
1718 1716 -0.083333333333333343
1717 1717 0.33333333333333337
1718 1717 -0.083333333333333343
1718 1718 0.33333333333333337
1720 1718 -0.083333333333333343
1811 1718 -0.083333333333333329
1719 1719 0.33333333333333337
1721 1719 -0.083333333333333343
1720 1720 0.33333333333333337
1721 1720 -0.083333333333333343
1721 1721 0.33333333333333337
1723 1721 -0.083333333333333343
1814 1721 -0.083333333333333329
1722 1722 0.33333333333333337
1724 1722 -0.083333333333333343
1723 1723 0.33333333333333337
1724 1723 -0.083333333333333343
1724 1724 0.33333333333333337
1726 1724 -0.083333333333333343
1817 1724 -0.083333333333333329
1725 1725 0.33333333333333337
1727 1725 -0.083333333333333343
1726 1726 0.33333333333333337
1727 1726 -0.083333333333333343
1727 1727 0.33333333333333337
1729 1727 -0.083333333333333343
1820 1727 -0.083333333333333329
1728 1728 0.33333333333333337
1730 1728 -0.083333333333333343
1729 1729 0.33333333333333337
1730 1729 -0.083333333333333343
1730 1730 0.33333333333333337
1732 1730 -0.083333333333333343
1823 1730 -0.083333333333333329
1731 1731 0.33333333333333337
1733 1731 -0.083333333333333343
1732 1732 0.33333333333333337
1733 1732 -0.083333333333333343
1733 1733 0.33333333333333337
1735 1733 -0.083333333333333343
1826 1733 -0.083333333333333329
1734 1734 0.33333333333333337
1736 1734 -0.083333333333333343
1735 1735 0.33333333333333337
1736 1735 -0.083333333333333343
1736 1736 0.33333333333333337
1738 1736 -0.083333333333333343
1829 1736 -0.083333333333333329
1737 1737 0.33333333333333337
1739 1737 -0.083333333333333343
1738 1738 0.33333333333333337
1739 1738 -0.083333333333333343
1739 1739 0.33333333333333337
1741 1739 -0.083333333333333343
1832 1739 -0.083333333333333329
1740 1740 0.33333333333333337
1742 1740 -0.083333333333333343
1741 1741 0.33333333333333337
1742 1741 -0.083333333333333343
1742 1742 0.33333333333333337
1744 1742 -0.083333333333333343
1835 1742 -0.083333333333333329
1743 1743 0.33333333333333337
1745 1743 -0.083333333333333343
1744 1744 0.33333333333333337
1745 1744 -0.083333333333333343
1745 1745 0.33333333333333337
1747 1745 -0.083333333333333343
1838 1745 -0.083333333333333329
1746 1746 0.33333333333333337
1748 1746 -0.083333333333333343
1747 1747 0.33333333333333337
1748 1747 -0.083333333333333343
1748 1748 0.33333333333333337
1750 1748 -0.083333333333333343
1841 1748 -0.083333333333333329
1749 1749 0.33333333333333337
1751 1749 -0.083333333333333343
1750 1750 0.33333333333333337
1751 1750 -0.083333333333333343
1751 1751 0.33333333333333337
1753 1751 -0.083333333333333343
1844 1751 -0.083333333333333329
1752 1752 0.33333333333333337
1754 1752 -0.083333333333333343
1753 1753 0.33333333333333337
1754 1753 -0.083333333333333343
1754 1754 0.33333333333333337
1756 1754 -0.083333333333333343
1847 1754 -0.083333333333333329
1755 1755 0.33333333333333337
1757 1755 -0.083333333333333343
1756 1756 0.33333333333333337
1757 1756 -0.083333333333333343
1757 1757 0.33333333333333337
1759 1757 -0.083333333333333343
1850 1757 -0.083333333333333329
1758 1758 0.33333333333333337
1760 1758 -0.083333333333333343
1759 1759 0.33333333333333337
1760 1759 -0.083333333333333343
1760 1760 0.33333333333333337
1762 1760 -0.083333333333333343
1853 1760 -0.083333333333333329
1761 1761 0.33333333333333337
1763 1761 -0.083333333333333343
1762 1762 0.33333333333333337
1763 1762 -0.083333333333333343
1763 1763 0.33333333333333337
1765 1763 -0.083333333333333343
1856 1763 -0.083333333333333329
1764 1764 0.33333333333333337
1766 1764 -0.083333333333333343
1765 1765 0.33333333333333337
1766 1765 -0.083333333333333343
1766 1766 0.33333333333333337
1768 1766 -0.083333333333333343
1859 1766 -0.083333333333333329
1767 1767 0.33333333333333337
1769 1767 -0.083333333333333343
1768 1768 0.33333333333333337
1769 1768 -0.083333333333333343
1769 1769 0.33333333333333337
1771 1769 -0.083333333333333343
1862 1769 -0.083333333333333329
1770 1770 0.33333333333333337
1772 1770 -0.083333333333333343
1771 1771 0.33333333333333337
1772 1771 -0.083333333333333343
1772 1772 0.33333333333333337
1774 1772 -0.083333333333333343
1865 1772 -0.083333333333333329
1773 1773 0.33333333333333337
1775 1773 -0.083333333333333343
1774 1774 0.33333333333333337
1775 1774 -0.083333333333333343
1775 1775 0.33333333333333337
1777 1775 -0.083333333333333343
1868 1775 -0.083333333333333329
1776 1776 0.33333333333333337
1778 1776 -0.083333333333333343
1777 1777 0.33333333333333337
1778 1777 -0.083333333333333343
1778 1778 0.33333333333333337
1780 1778 -0.083333333333333343
1871 1778 -0.083333333333333329
1779 1779 0.33333333333333337
1781 1779 -0.083333333333333343
1780 1780 0.33333333333333337
1781 1780 -0.083333333333333343
1781 1781 0.33333333333333337
1783 1781 -0.083333333333333343
1874 1781 -0.083333333333333329
1782 1782 0.33333333333333337
1784 1782 -0.083333333333333343
1783 1783 0.33333333333333337
1784 1783 -0.083333333333333343
1784 1784 0.33333333333333337
1786 1784 -0.083333333333333343
1877 1784 -0.083333333333333329
1785 1785 0.33333333333333337
1787 1785 -0.083333333333333343
1786 1786 0.33333333333333337
1787 1786 -0.083333333333333343
1787 1787 0.33333333333333337
1789 1787 -0.083333333333333343
1880 1787 -0.083333333333333329
1788 1788 0.33333333333333337
1790 1788 -0.083333333333333343
1789 1789 0.33333333333333337
1790 1789 -0.083333333333333343
1790 1790 0.33333333333333337
1792 1790 -0.083333333333333343
1883 1790 -0.083333333333333329
1791 1791 0.33333333333333337
1793 1791 -0.083333333333333343
1792 1792 0.33333333333333337
1793 1792 -0.083333333333333343
1793 1793 0.33333333333333337
1795 1793 -0.083333333333333343
1886 1793 -0.083333333333333329
1794 1794 0.33333333333333337
1796 1794 -0.083333333333333343
1795 1795 0.33333333333333337
1796 1795 -0.083333333333333343
1796 1796 0.33333333333333337
1798 1796 -0.083333333333333343
1889 1796 -0.083333333333333329
1797 1797 0.33333333333333337
1799 1797 -0.083333333333333343
1798 1798 0.33333333333333337
1799 1798 -0.083333333333333343
1799 1799 0.33333333333333337
1801 1799 -0.083333333333333343
1892 1799 -0.083333333333333329
1800 1800 0.33333333333333337
1802 1800 -0.083333333333333343
1801 1801 0.33333333333333337
1802 1801 -0.083333333333333343
1802 1802 0.33333333333333337
1804 1802 -0.083333333333333343
1895 1802 -0.083333333333333329
1803 1803 0.33333333333333337
1805 1803 -0.083333333333333343
1804 1804 0.33333333333333337
1805 1804 -0.083333333333333343
1805 1805 0.33333333333333337
1898 1805 -0.083333333333333329
1806 1806 0.33333333333333337
1807 1806 -0.083333333333333343
1807 1807 0.33333333333333337
1809 1807 -0.083333333333333343
1901 1807 -0.083333333333333329
1808 1808 0.33333333333333337
1810 1808 -0.083333333333333343
1809 1809 0.33333333333333337
1810 1809 -0.083333333333333343
1810 1810 0.33333333333333337
1812 1810 -0.083333333333333343
1903 1810 -0.083333333333333329
1811 1811 0.33333333333333337
1813 1811 -0.083333333333333343
1812 1812 0.33333333333333337
1813 1812 -0.083333333333333343
1813 1813 0.33333333333333337
1815 1813 -0.083333333333333343
1906 1813 -0.083333333333333329
1814 1814 0.33333333333333337
1816 1814 -0.083333333333333343
1815 1815 0.33333333333333337
1816 1815 -0.083333333333333343
1816 1816 0.33333333333333337
1818 1816 -0.083333333333333343
1909 1816 -0.083333333333333329
1817 1817 0.33333333333333337
1819 1817 -0.083333333333333343
1818 1818 0.33333333333333337
1819 1818 -0.083333333333333343
1819 1819 0.33333333333333337
1821 1819 -0.083333333333333343
1912 1819 -0.083333333333333329
1820 1820 0.33333333333333337
1822 1820 -0.083333333333333343
1821 1821 0.33333333333333337
1822 1821 -0.083333333333333343
1822 1822 0.33333333333333337
1824 1822 -0.083333333333333343
1915 1822 -0.083333333333333329
1823 1823 0.33333333333333337
1825 1823 -0.083333333333333343
1824 1824 0.33333333333333337
1825 1824 -0.083333333333333343
1825 1825 0.33333333333333337
1827 1825 -0.083333333333333343
1918 1825 -0.083333333333333329
1826 1826 0.33333333333333337
1828 1826 -0.083333333333333343
1827 1827 0.33333333333333337
1828 1827 -0.083333333333333343
1828 1828 0.33333333333333337
1830 1828 -0.083333333333333343
1921 1828 -0.083333333333333329
1829 1829 0.33333333333333337
1831 1829 -0.083333333333333343
1830 1830 0.33333333333333337
1831 1830 -0.083333333333333343
1831 1831 0.33333333333333337
1833 1831 -0.083333333333333343
1924 1831 -0.083333333333333329
1832 1832 0.33333333333333337
1834 1832 -0.083333333333333343
1833 1833 0.33333333333333337
1834 1833 -0.083333333333333343
1834 1834 0.33333333333333337
1836 1834 -0.083333333333333343
1927 1834 -0.083333333333333329
1835 1835 0.33333333333333337
1837 1835 -0.083333333333333343
1836 1836 0.33333333333333337
1837 1836 -0.083333333333333343
1837 1837 0.33333333333333337
1839 1837 -0.083333333333333343
1930 1837 -0.083333333333333329
1838 1838 0.33333333333333337
1840 1838 -0.083333333333333343
1839 1839 0.33333333333333337
1840 1839 -0.083333333333333343
1840 1840 0.33333333333333337
1842 1840 -0.083333333333333343
1933 1840 -0.083333333333333329
1841 1841 0.33333333333333337
1843 1841 -0.083333333333333343
1842 1842 0.33333333333333337
1843 1842 -0.083333333333333343
1843 1843 0.33333333333333337
1845 1843 -0.083333333333333343
1936 1843 -0.083333333333333329
1844 1844 0.33333333333333337
1846 1844 -0.083333333333333343
1845 1845 0.33333333333333337
1846 1845 -0.083333333333333343
1846 1846 0.33333333333333337
1848 1846 -0.083333333333333343
1939 1846 -0.083333333333333329
1847 1847 0.33333333333333337
1849 1847 -0.083333333333333343
1848 1848 0.33333333333333337
1849 1848 -0.083333333333333343
1849 1849 0.33333333333333337
1851 1849 -0.083333333333333343
1942 1849 -0.083333333333333329
1850 1850 0.33333333333333337
1852 1850 -0.083333333333333343
1851 1851 0.33333333333333337
1852 1851 -0.083333333333333343
1852 1852 0.33333333333333337
1854 1852 -0.083333333333333343
1945 1852 -0.083333333333333329
1853 1853 0.33333333333333337
1855 1853 -0.083333333333333343
1854 1854 0.33333333333333337
1855 1854 -0.083333333333333343
1855 1855 0.33333333333333337
1857 1855 -0.083333333333333343
1948 1855 -0.083333333333333329
1856 1856 0.33333333333333337
1858 1856 -0.083333333333333343
1857 1857 0.33333333333333337
1858 1857 -0.083333333333333343
1858 1858 0.33333333333333337
1860 1858 -0.083333333333333343
1951 1858 -0.083333333333333329
1859 1859 0.33333333333333337
1861 1859 -0.083333333333333343
1860 1860 0.33333333333333337
1861 1860 -0.083333333333333343
1861 1861 0.33333333333333337
1863 1861 -0.083333333333333343
1954 1861 -0.083333333333333329
1862 1862 0.33333333333333337
1864 1862 -0.083333333333333343
1863 1863 0.33333333333333337
1864 1863 -0.083333333333333343
1864 1864 0.33333333333333337
1866 1864 -0.083333333333333343
1957 1864 -0.083333333333333329
1865 1865 0.33333333333333337
1867 1865 -0.083333333333333343
1866 1866 0.33333333333333337
1867 1866 -0.083333333333333343
1867 1867 0.33333333333333337
1869 1867 -0.083333333333333343
1960 1867 -0.083333333333333329
1868 1868 0.33333333333333337
1870 1868 -0.083333333333333343
1869 1869 0.33333333333333337
1870 1869 -0.083333333333333343
1870 1870 0.33333333333333337
1872 1870 -0.083333333333333343
1963 1870 -0.083333333333333329
1871 1871 0.33333333333333337
1873 1871 -0.083333333333333343
1872 1872 0.33333333333333337
1873 1872 -0.083333333333333343
1873 1873 0.33333333333333337
1875 1873 -0.083333333333333343
1966 1873 -0.083333333333333329
1874 1874 0.33333333333333337
1876 1874 -0.083333333333333343
1875 1875 0.33333333333333337
1876 1875 -0.083333333333333343
1876 1876 0.33333333333333337
1878 1876 -0.083333333333333343
1969 1876 -0.083333333333333329
1877 1877 0.33333333333333337
1879 1877 -0.083333333333333343
1878 1878 0.33333333333333337
1879 1878 -0.083333333333333343
1879 1879 0.33333333333333337
1881 1879 -0.083333333333333343
1972 1879 -0.083333333333333329
1880 1880 0.33333333333333337
1882 1880 -0.083333333333333343
1881 1881 0.33333333333333337
1882 1881 -0.083333333333333343
1882 1882 0.33333333333333337
1884 1882 -0.083333333333333343
1975 1882 -0.083333333333333329
1883 1883 0.33333333333333337
1885 1883 -0.083333333333333343
1884 1884 0.33333333333333337
1885 1884 -0.083333333333333343
1885 1885 0.33333333333333337
1887 1885 -0.083333333333333343
1978 1885 -0.083333333333333329
1886 1886 0.33333333333333337
1888 1886 -0.083333333333333343
1887 1887 0.33333333333333337
1888 1887 -0.083333333333333343
1888 1888 0.33333333333333337
1890 1888 -0.083333333333333343
1981 1888 -0.083333333333333329
1889 1889 0.33333333333333337
1891 1889 -0.083333333333333343
1890 1890 0.33333333333333337
1891 1890 -0.083333333333333343
1891 1891 0.33333333333333337
1893 1891 -0.083333333333333343
1984 1891 -0.083333333333333329
1892 1892 0.33333333333333337
1894 1892 -0.083333333333333343
1893 1893 0.33333333333333337
1894 1893 -0.083333333333333343
1894 1894 0.33333333333333337
1896 1894 -0.083333333333333343
1987 1894 -0.083333333333333329
1895 1895 0.33333333333333337
1897 1895 -0.083333333333333343
1896 1896 0.33333333333333337
1897 1896 -0.083333333333333343
1897 1897 0.33333333333333337
1899 1897 -0.083333333333333343
1990 1897 -0.083333333333333329
1898 1898 0.33333333333333337
1900 1898 -0.083333333333333343
1899 1899 0.33333333333333337
1900 1899 -0.083333333333333343
1900 1900 0.33333333333333337
1993 1900 -0.083333333333333329
1901 1901 0.33333333333333337
1902 1901 -0.083333333333333343
1902 1902 0.33333333333333337
1904 1902 -0.083333333333333343
1996 1902 -0.083333333333333329
1903 1903 0.33333333333333337
1905 1903 -0.083333333333333343
1904 1904 0.33333333333333337
1905 1904 -0.083333333333333343
1905 1905 0.33333333333333337
1907 1905 -0.083333333333333343
1998 1905 -0.083333333333333329
1906 1906 0.33333333333333337
1908 1906 -0.083333333333333343
1907 1907 0.33333333333333337
1908 1907 -0.083333333333333343
1908 1908 0.33333333333333337
1910 1908 -0.083333333333333343
2001 1908 -0.083333333333333329
1909 1909 0.33333333333333337
1911 1909 -0.083333333333333343
1910 1910 0.33333333333333337
1911 1910 -0.083333333333333343
1911 1911 0.33333333333333337
1913 1911 -0.083333333333333343
2004 1911 -0.083333333333333329
1912 1912 0.33333333333333337
1914 1912 -0.083333333333333343
1913 1913 0.33333333333333337
1914 1913 -0.083333333333333343
1914 1914 0.33333333333333337
1916 1914 -0.083333333333333343
2007 1914 -0.083333333333333329
1915 1915 0.33333333333333337
1917 1915 -0.083333333333333343
1916 1916 0.33333333333333337
1917 1916 -0.083333333333333343
1917 1917 0.33333333333333337
1919 1917 -0.083333333333333343
2010 1917 -0.083333333333333329
1918 1918 0.33333333333333337
1920 1918 -0.083333333333333343
1919 1919 0.33333333333333337
1920 1919 -0.083333333333333343
1920 1920 0.33333333333333337
1922 1920 -0.083333333333333343
2013 1920 -0.083333333333333329
1921 1921 0.33333333333333337
1923 1921 -0.083333333333333343
1922 1922 0.33333333333333337
1923 1922 -0.083333333333333343
1923 1923 0.33333333333333337
1925 1923 -0.083333333333333343
2016 1923 -0.083333333333333329
1924 1924 0.33333333333333337
1926 1924 -0.083333333333333343
1925 1925 0.33333333333333337
1926 1925 -0.083333333333333343
1926 1926 0.33333333333333337
1928 1926 -0.083333333333333343
2019 1926 -0.083333333333333329
1927 1927 0.33333333333333337
1929 1927 -0.083333333333333343
1928 1928 0.33333333333333337
1929 1928 -0.083333333333333343
1929 1929 0.33333333333333337
1931 1929 -0.083333333333333343
2022 1929 -0.083333333333333329
1930 1930 0.33333333333333337
1932 1930 -0.083333333333333343
1931 1931 0.33333333333333337
1932 1931 -0.083333333333333343
1932 1932 0.33333333333333337
1934 1932 -0.083333333333333343
2025 1932 -0.083333333333333329
1933 1933 0.33333333333333337
1935 1933 -0.083333333333333343
1934 1934 0.33333333333333337
1935 1934 -0.083333333333333343
1935 1935 0.33333333333333337
1937 1935 -0.083333333333333343
2028 1935 -0.083333333333333329
1936 1936 0.33333333333333337
1938 1936 -0.083333333333333343
1937 1937 0.33333333333333337
1938 1937 -0.083333333333333343
1938 1938 0.33333333333333337
1940 1938 -0.083333333333333343
2031 1938 -0.083333333333333329
1939 1939 0.33333333333333337
1941 1939 -0.083333333333333343
1940 1940 0.33333333333333337
1941 1940 -0.083333333333333343
1941 1941 0.33333333333333337
1943 1941 -0.083333333333333343
2034 1941 -0.083333333333333329
1942 1942 0.33333333333333337
1944 1942 -0.083333333333333343
1943 1943 0.33333333333333337
1944 1943 -0.083333333333333343
1944 1944 0.33333333333333337
1946 1944 -0.083333333333333343
2037 1944 -0.083333333333333329
1945 1945 0.33333333333333337
1947 1945 -0.083333333333333343
1946 1946 0.33333333333333337
1947 1946 -0.083333333333333343
1947 1947 0.33333333333333337
1949 1947 -0.083333333333333343
2040 1947 -0.083333333333333329
1948 1948 0.33333333333333337
1950 1948 -0.083333333333333343
1949 1949 0.33333333333333337
1950 1949 -0.083333333333333343
1950 1950 0.33333333333333337
1952 1950 -0.083333333333333343
2043 1950 -0.083333333333333329
1951 1951 0.33333333333333337
1953 1951 -0.083333333333333343
1952 1952 0.33333333333333337
1953 1952 -0.083333333333333343
1953 1953 0.33333333333333337
1955 1953 -0.083333333333333343
2046 1953 -0.083333333333333329
1954 1954 0.33333333333333337
1956 1954 -0.083333333333333343
1955 1955 0.33333333333333337
1956 1955 -0.083333333333333343
1956 1956 0.33333333333333337
1958 1956 -0.083333333333333343
2049 1956 -0.083333333333333329
1957 1957 0.33333333333333337
1959 1957 -0.083333333333333343
1958 1958 0.33333333333333337
1959 1958 -0.083333333333333343
1959 1959 0.33333333333333337
1961 1959 -0.083333333333333343
2052 1959 -0.083333333333333329
1960 1960 0.33333333333333337
1962 1960 -0.083333333333333343
1961 1961 0.33333333333333337
1962 1961 -0.083333333333333343
1962 1962 0.33333333333333337
1964 1962 -0.083333333333333343
2055 1962 -0.083333333333333329
1963 1963 0.33333333333333337
1965 1963 -0.083333333333333343
1964 1964 0.33333333333333337
1965 1964 -0.083333333333333343
1965 1965 0.33333333333333337
1967 1965 -0.083333333333333343
2058 1965 -0.083333333333333329
1966 1966 0.33333333333333337
1968 1966 -0.083333333333333343
1967 1967 0.33333333333333337
1968 1967 -0.083333333333333343
1968 1968 0.33333333333333337
1970 1968 -0.083333333333333343
2061 1968 -0.083333333333333329
1969 1969 0.33333333333333337
1971 1969 -0.083333333333333343
1970 1970 0.33333333333333337
1971 1970 -0.083333333333333343
1971 1971 0.33333333333333337
1973 1971 -0.083333333333333343
2064 1971 -0.083333333333333329
1972 1972 0.33333333333333337
1974 1972 -0.083333333333333343
1973 1973 0.33333333333333337
1974 1973 -0.083333333333333343
1974 1974 0.33333333333333337
1976 1974 -0.083333333333333343
2067 1974 -0.083333333333333329
1975 1975 0.33333333333333337
1977 1975 -0.083333333333333343
1976 1976 0.33333333333333337
1977 1976 -0.083333333333333343
1977 1977 0.33333333333333337
1979 1977 -0.083333333333333343
2070 1977 -0.083333333333333329
1978 1978 0.33333333333333337
1980 1978 -0.083333333333333343
1979 1979 0.33333333333333337
1980 1979 -0.083333333333333343
1980 1980 0.33333333333333337
1982 1980 -0.083333333333333343
2073 1980 -0.083333333333333329
1981 1981 0.33333333333333337
1983 1981 -0.083333333333333343
1982 1982 0.33333333333333337
1983 1982 -0.083333333333333343
1983 1983 0.33333333333333337
1985 1983 -0.083333333333333343
2076 1983 -0.083333333333333329
1984 1984 0.33333333333333337
1986 1984 -0.083333333333333343
1985 1985 0.33333333333333337
1986 1985 -0.083333333333333343
1986 1986 0.33333333333333337
1988 1986 -0.083333333333333343
2079 1986 -0.083333333333333329
1987 1987 0.33333333333333337
1989 1987 -0.083333333333333343
1988 1988 0.33333333333333337
1989 1988 -0.083333333333333343
1989 1989 0.33333333333333337
1991 1989 -0.083333333333333343
2082 1989 -0.083333333333333329
1990 1990 0.33333333333333337
1992 1990 -0.083333333333333343
1991 1991 0.33333333333333337
1992 1991 -0.083333333333333343
1992 1992 0.33333333333333337
1994 1992 -0.083333333333333343
2085 1992 -0.083333333333333329
1993 1993 0.33333333333333337
1995 1993 -0.083333333333333343
1994 1994 0.33333333333333337
1995 1994 -0.083333333333333343
1995 1995 0.33333333333333337
2088 1995 -0.083333333333333329
1996 1996 0.33333333333333337
1997 1996 -0.083333333333333343
1997 1997 0.33333333333333337
1999 1997 -0.083333333333333343
2091 1997 -0.083333333333333329
1998 1998 0.33333333333333337
2000 1998 -0.083333333333333343
1999 1999 0.33333333333333337
2000 1999 -0.083333333333333343
2000 2000 0.33333333333333337
2002 2000 -0.083333333333333343
2093 2000 -0.083333333333333329
2001 2001 0.33333333333333337
2003 2001 -0.083333333333333343
2002 2002 0.33333333333333337
2003 2002 -0.083333333333333343
2003 2003 0.33333333333333337
2005 2003 -0.083333333333333343
2096 2003 -0.083333333333333329
2004 2004 0.33333333333333337
2006 2004 -0.083333333333333343
2005 2005 0.33333333333333337
2006 2005 -0.083333333333333343
2006 2006 0.33333333333333337
2008 2006 -0.083333333333333343
2099 2006 -0.083333333333333329
2007 2007 0.33333333333333337
2009 2007 -0.083333333333333343
2008 2008 0.33333333333333337
2009 2008 -0.083333333333333343
2009 2009 0.33333333333333337
2011 2009 -0.083333333333333343
2102 2009 -0.083333333333333329
2010 2010 0.33333333333333337
2012 2010 -0.083333333333333343
2011 2011 0.33333333333333337
2012 2011 -0.083333333333333343
2012 2012 0.33333333333333337
2014 2012 -0.083333333333333343
2105 2012 -0.083333333333333329
2013 2013 0.33333333333333337
2015 2013 -0.083333333333333343
2014 2014 0.33333333333333337
2015 2014 -0.083333333333333343
2015 2015 0.33333333333333337
2017 2015 -0.083333333333333343
2108 2015 -0.083333333333333329
2016 2016 0.33333333333333337
2018 2016 -0.083333333333333343
2017 2017 0.33333333333333337
2018 2017 -0.083333333333333343
2018 2018 0.33333333333333337
2020 2018 -0.083333333333333343
2111 2018 -0.083333333333333329
2019 2019 0.33333333333333337
2021 2019 -0.083333333333333343
2020 2020 0.33333333333333337
2021 2020 -0.083333333333333343
2021 2021 0.33333333333333337
2023 2021 -0.083333333333333343
2114 2021 -0.083333333333333329
2022 2022 0.33333333333333337
2024 2022 -0.083333333333333343
2023 2023 0.33333333333333337
2024 2023 -0.083333333333333343
2024 2024 0.33333333333333337
2026 2024 -0.083333333333333343
2117 2024 -0.083333333333333329
2025 2025 0.33333333333333337
2027 2025 -0.083333333333333343
2026 2026 0.33333333333333337
2027 2026 -0.083333333333333343
2027 2027 0.33333333333333337
2029 2027 -0.083333333333333343
2120 2027 -0.083333333333333329
2028 2028 0.33333333333333337
2030 2028 -0.083333333333333343
2029 2029 0.33333333333333337
2030 2029 -0.083333333333333343
2030 2030 0.33333333333333337
2032 2030 -0.083333333333333343
2123 2030 -0.083333333333333329
2031 2031 0.33333333333333337
2033 2031 -0.083333333333333343
2032 2032 0.33333333333333337
2033 2032 -0.083333333333333343
2033 2033 0.33333333333333337
2035 2033 -0.083333333333333343
2126 2033 -0.083333333333333329
2034 2034 0.33333333333333337
2036 2034 -0.083333333333333343
2035 2035 0.33333333333333337
2036 2035 -0.083333333333333343
2036 2036 0.33333333333333337
2038 2036 -0.083333333333333343
2129 2036 -0.083333333333333329
2037 2037 0.33333333333333337
2039 2037 -0.083333333333333343
2038 2038 0.33333333333333337
2039 2038 -0.083333333333333343
2039 2039 0.33333333333333337
2041 2039 -0.083333333333333343
2132 2039 -0.083333333333333329
2040 2040 0.33333333333333337
2042 2040 -0.083333333333333343
2041 2041 0.33333333333333337
2042 2041 -0.083333333333333343
2042 2042 0.33333333333333337
2044 2042 -0.083333333333333343
2135 2042 -0.083333333333333329
2043 2043 0.33333333333333337
2045 2043 -0.083333333333333343
2044 2044 0.33333333333333337
2045 2044 -0.083333333333333343
2045 2045 0.33333333333333337
2047 2045 -0.083333333333333343
2138 2045 -0.083333333333333329
2046 2046 0.33333333333333337
2048 2046 -0.083333333333333343
2047 2047 0.33333333333333337
2048 2047 -0.083333333333333343
2048 2048 0.33333333333333337
2050 2048 -0.083333333333333343
2141 2048 -0.083333333333333329
2049 2049 0.33333333333333337
2051 2049 -0.083333333333333343
2050 2050 0.33333333333333337
2051 2050 -0.083333333333333343
2051 2051 0.33333333333333337
2053 2051 -0.083333333333333343
2144 2051 -0.083333333333333329
2052 2052 0.33333333333333337
2054 2052 -0.083333333333333343
2053 2053 0.33333333333333337
2054 2053 -0.083333333333333343
2054 2054 0.33333333333333337
2056 2054 -0.083333333333333343
2147 2054 -0.083333333333333329
2055 2055 0.33333333333333337
2057 2055 -0.083333333333333343
2056 2056 0.33333333333333337
2057 2056 -0.083333333333333343
2057 2057 0.33333333333333337
2059 2057 -0.083333333333333343
2150 2057 -0.083333333333333329
2058 2058 0.33333333333333337
2060 2058 -0.083333333333333343
2059 2059 0.33333333333333337
2060 2059 -0.083333333333333343
2060 2060 0.33333333333333337
2062 2060 -0.083333333333333343
2153 2060 -0.083333333333333329
2061 2061 0.33333333333333337
2063 2061 -0.083333333333333343
2062 2062 0.33333333333333337
2063 2062 -0.083333333333333343
2063 2063 0.33333333333333337
2065 2063 -0.083333333333333343
2156 2063 -0.083333333333333329
2064 2064 0.33333333333333337
2066 2064 -0.083333333333333343
2065 2065 0.33333333333333337
2066 2065 -0.083333333333333343
2066 2066 0.33333333333333337
2068 2066 -0.083333333333333343
2159 2066 -0.083333333333333329
2067 2067 0.33333333333333337
2069 2067 -0.083333333333333343
2068 2068 0.33333333333333337
2069 2068 -0.083333333333333343
2069 2069 0.33333333333333337
2071 2069 -0.083333333333333343
2162 2069 -0.083333333333333329
2070 2070 0.33333333333333337
2072 2070 -0.083333333333333343
2071 2071 0.33333333333333337
2072 2071 -0.083333333333333343
2072 2072 0.33333333333333337
2074 2072 -0.083333333333333343
2165 2072 -0.083333333333333329
2073 2073 0.33333333333333337
2075 2073 -0.083333333333333343
2074 2074 0.33333333333333337
2075 2074 -0.083333333333333343
2075 2075 0.33333333333333337
2077 2075 -0.083333333333333343
2168 2075 -0.083333333333333329
2076 2076 0.33333333333333337
2078 2076 -0.083333333333333343
2077 2077 0.33333333333333337
2078 2077 -0.083333333333333343
2078 2078 0.33333333333333337
2080 2078 -0.083333333333333343
2171 2078 -0.083333333333333329
2079 2079 0.33333333333333337
2081 2079 -0.083333333333333343
2080 2080 0.33333333333333337
2081 2080 -0.083333333333333343
2081 2081 0.33333333333333337
2083 2081 -0.083333333333333343
2174 2081 -0.083333333333333329
2082 2082 0.33333333333333337
2084 2082 -0.083333333333333343
2083 2083 0.33333333333333337
2084 2083 -0.083333333333333343
2084 2084 0.33333333333333337
2086 2084 -0.083333333333333343
2177 2084 -0.083333333333333329
2085 2085 0.33333333333333337
2087 2085 -0.083333333333333343
2086 2086 0.33333333333333337
2087 2086 -0.083333333333333343
2087 2087 0.33333333333333337
2089 2087 -0.083333333333333343
2180 2087 -0.083333333333333329
2088 2088 0.33333333333333337
2090 2088 -0.083333333333333343
2089 2089 0.33333333333333337
2090 2089 -0.083333333333333343
2090 2090 0.33333333333333337
2183 2090 -0.083333333333333329
2091 2091 0.33333333333333337
2092 2091 -0.083333333333333343
2092 2092 0.33333333333333337
2094 2092 -0.083333333333333343
2186 2092 -0.083333333333333329
2093 2093 0.33333333333333337
2095 2093 -0.083333333333333343
2094 2094 0.33333333333333337
2095 2094 -0.083333333333333343
2095 2095 0.33333333333333337
2097 2095 -0.083333333333333343
2188 2095 -0.083333333333333329
2096 2096 0.33333333333333337
2098 2096 -0.083333333333333343
2097 2097 0.33333333333333337
2098 2097 -0.083333333333333343
2098 2098 0.33333333333333337
2100 2098 -0.083333333333333343
2191 2098 -0.083333333333333329
2099 2099 0.33333333333333337
2101 2099 -0.083333333333333343
2100 2100 0.33333333333333337
2101 2100 -0.083333333333333343
2101 2101 0.33333333333333337
2103 2101 -0.083333333333333343
2194 2101 -0.083333333333333329
2102 2102 0.33333333333333337
2104 2102 -0.083333333333333343
2103 2103 0.33333333333333337
2104 2103 -0.083333333333333343
2104 2104 0.33333333333333337
2106 2104 -0.083333333333333343
2197 2104 -0.083333333333333329
2105 2105 0.33333333333333337
2107 2105 -0.083333333333333343
2106 2106 0.33333333333333337
2107 2106 -0.083333333333333343
2107 2107 0.33333333333333337
2109 2107 -0.083333333333333343
2200 2107 -0.083333333333333329
2108 2108 0.33333333333333337
2110 2108 -0.083333333333333343
2109 2109 0.33333333333333337
2110 2109 -0.083333333333333343
2110 2110 0.33333333333333337
2112 2110 -0.083333333333333343
2203 2110 -0.083333333333333329
2111 2111 0.33333333333333337
2113 2111 -0.083333333333333343
2112 2112 0.33333333333333337
2113 2112 -0.083333333333333343
2113 2113 0.33333333333333337
2115 2113 -0.083333333333333343
2206 2113 -0.083333333333333329
2114 2114 0.33333333333333337
2116 2114 -0.083333333333333343
2115 2115 0.33333333333333337
2116 2115 -0.083333333333333343
2116 2116 0.33333333333333337
2118 2116 -0.083333333333333343
2209 2116 -0.083333333333333329
2117 2117 0.33333333333333337
2119 2117 -0.083333333333333343
2118 2118 0.33333333333333337
2119 2118 -0.083333333333333343
2119 2119 0.33333333333333337
2121 2119 -0.083333333333333343
2212 2119 -0.083333333333333329
2120 2120 0.33333333333333337
2122 2120 -0.083333333333333343
2121 2121 0.33333333333333337
2122 2121 -0.083333333333333343
2122 2122 0.33333333333333337
2124 2122 -0.083333333333333343
2215 2122 -0.083333333333333329
2123 2123 0.33333333333333337
2125 2123 -0.083333333333333343
2124 2124 0.33333333333333337
2125 2124 -0.083333333333333343
2125 2125 0.33333333333333337
2127 2125 -0.083333333333333343
2218 2125 -0.083333333333333329
2126 2126 0.33333333333333337
2128 2126 -0.083333333333333343
2127 2127 0.33333333333333337
2128 2127 -0.083333333333333343
2128 2128 0.33333333333333337
2130 2128 -0.083333333333333343
2221 2128 -0.083333333333333329
2129 2129 0.33333333333333337
2131 2129 -0.083333333333333343
2130 2130 0.33333333333333337
2131 2130 -0.083333333333333343
2131 2131 0.33333333333333337
2133 2131 -0.083333333333333343
2224 2131 -0.083333333333333329
2132 2132 0.33333333333333337
2134 2132 -0.083333333333333343
2133 2133 0.33333333333333337
2134 2133 -0.083333333333333343
2134 2134 0.33333333333333337
2136 2134 -0.083333333333333343
2227 2134 -0.083333333333333329
2135 2135 0.33333333333333337
2137 2135 -0.083333333333333343
2136 2136 0.33333333333333337
2137 2136 -0.083333333333333343
2137 2137 0.33333333333333337
2139 2137 -0.083333333333333343
2230 2137 -0.083333333333333329
2138 2138 0.33333333333333337
2140 2138 -0.083333333333333343
2139 2139 0.33333333333333337
2140 2139 -0.083333333333333343
2140 2140 0.33333333333333337
2142 2140 -0.083333333333333343
2233 2140 -0.083333333333333329
2141 2141 0.33333333333333337
2143 2141 -0.083333333333333343
2142 2142 0.33333333333333337
2143 2142 -0.083333333333333343
2143 2143 0.33333333333333337
2145 2143 -0.083333333333333343
2236 2143 -0.083333333333333329
2144 2144 0.33333333333333337
2146 2144 -0.083333333333333343
2145 2145 0.33333333333333337
2146 2145 -0.083333333333333343
2146 2146 0.33333333333333337
2148 2146 -0.083333333333333343
2239 2146 -0.083333333333333329
2147 2147 0.33333333333333337
2149 2147 -0.083333333333333343
2148 2148 0.33333333333333337
2149 2148 -0.083333333333333343
2149 2149 0.33333333333333337
2151 2149 -0.083333333333333343
2242 2149 -0.083333333333333329
2150 2150 0.33333333333333337
2152 2150 -0.083333333333333343
2151 2151 0.33333333333333337
2152 2151 -0.083333333333333343
2152 2152 0.33333333333333337
2154 2152 -0.083333333333333343
2245 2152 -0.083333333333333329
2153 2153 0.33333333333333337
2155 2153 -0.083333333333333343
2154 2154 0.33333333333333337
2155 2154 -0.083333333333333343
2155 2155 0.33333333333333337
2157 2155 -0.083333333333333343
2248 2155 -0.083333333333333329
2156 2156 0.33333333333333337
2158 2156 -0.083333333333333343
2157 2157 0.33333333333333337
2158 2157 -0.083333333333333343
2158 2158 0.33333333333333337
2160 2158 -0.083333333333333343
2251 2158 -0.083333333333333329
2159 2159 0.33333333333333337
2161 2159 -0.083333333333333343
2160 2160 0.33333333333333337
2161 2160 -0.083333333333333343
2161 2161 0.33333333333333337
2163 2161 -0.083333333333333343
2254 2161 -0.083333333333333329
2162 2162 0.33333333333333337
2164 2162 -0.083333333333333343
2163 2163 0.33333333333333337
2164 2163 -0.083333333333333343
2164 2164 0.33333333333333337
2166 2164 -0.083333333333333343
2257 2164 -0.083333333333333329
2165 2165 0.33333333333333337
2167 2165 -0.083333333333333343
2166 2166 0.33333333333333337
2167 2166 -0.083333333333333343
2167 2167 0.33333333333333337
2169 2167 -0.083333333333333343
2260 2167 -0.083333333333333329
2168 2168 0.33333333333333337
2170 2168 -0.083333333333333343
2169 2169 0.33333333333333337
2170 2169 -0.083333333333333343
2170 2170 0.33333333333333337
2172 2170 -0.083333333333333343
2263 2170 -0.083333333333333329
2171 2171 0.33333333333333337
2173 2171 -0.083333333333333343
2172 2172 0.33333333333333337
2173 2172 -0.083333333333333343
2173 2173 0.33333333333333337
2175 2173 -0.083333333333333343
2266 2173 -0.083333333333333329
2174 2174 0.33333333333333337
2176 2174 -0.083333333333333343
2175 2175 0.33333333333333337
2176 2175 -0.083333333333333343
2176 2176 0.33333333333333337
2178 2176 -0.083333333333333343
2269 2176 -0.083333333333333329
2177 2177 0.33333333333333337
2179 2177 -0.083333333333333343
2178 2178 0.33333333333333337
2179 2178 -0.083333333333333343
2179 2179 0.33333333333333337
2181 2179 -0.083333333333333343
2272 2179 -0.083333333333333329
2180 2180 0.33333333333333337
2182 2180 -0.083333333333333343
2181 2181 0.33333333333333337
2182 2181 -0.083333333333333343
2182 2182 0.33333333333333337
2184 2182 -0.083333333333333343
2275 2182 -0.083333333333333329
2183 2183 0.33333333333333337
2185 2183 -0.083333333333333343
2184 2184 0.33333333333333337
2185 2184 -0.083333333333333343
2185 2185 0.33333333333333337
2278 2185 -0.083333333333333329
2186 2186 0.33333333333333337
2187 2186 -0.083333333333333343
2187 2187 0.33333333333333337
2189 2187 -0.083333333333333343
2281 2187 -0.083333333333333329
2188 2188 0.33333333333333337
2190 2188 -0.083333333333333343
2189 2189 0.33333333333333337
2190 2189 -0.083333333333333343
2190 2190 0.33333333333333337
2192 2190 -0.083333333333333343
2283 2190 -0.083333333333333329
2191 2191 0.33333333333333337
2193 2191 -0.083333333333333343
2192 2192 0.33333333333333337
2193 2192 -0.083333333333333343
2193 2193 0.33333333333333337
2195 2193 -0.083333333333333343
2286 2193 -0.083333333333333329
2194 2194 0.33333333333333337
2196 2194 -0.083333333333333343
2195 2195 0.33333333333333337
2196 2195 -0.083333333333333343
2196 2196 0.33333333333333337
2198 2196 -0.083333333333333343
2289 2196 -0.083333333333333329
2197 2197 0.33333333333333337
2199 2197 -0.083333333333333343
2198 2198 0.33333333333333337
2199 2198 -0.083333333333333343
2199 2199 0.33333333333333337
2201 2199 -0.083333333333333343
2292 2199 -0.083333333333333329
2200 2200 0.33333333333333337
2202 2200 -0.083333333333333343
2201 2201 0.33333333333333337
2202 2201 -0.083333333333333343
2202 2202 0.33333333333333337
2204 2202 -0.083333333333333343
2295 2202 -0.083333333333333329
2203 2203 0.33333333333333337
2205 2203 -0.083333333333333343
2204 2204 0.33333333333333337
2205 2204 -0.083333333333333343
2205 2205 0.33333333333333337
2207 2205 -0.083333333333333343
2298 2205 -0.083333333333333329
2206 2206 0.33333333333333337
2208 2206 -0.083333333333333343
2207 2207 0.33333333333333337
2208 2207 -0.083333333333333343
2208 2208 0.33333333333333337
2210 2208 -0.083333333333333343
2301 2208 -0.083333333333333329
2209 2209 0.33333333333333337
2211 2209 -0.083333333333333343
2210 2210 0.33333333333333337
2211 2210 -0.083333333333333343
2211 2211 0.33333333333333337
2213 2211 -0.083333333333333343
2304 2211 -0.083333333333333329
2212 2212 0.33333333333333337
2214 2212 -0.083333333333333343
2213 2213 0.33333333333333337
2214 2213 -0.083333333333333343
2214 2214 0.33333333333333337
2216 2214 -0.083333333333333343
2307 2214 -0.083333333333333329
2215 2215 0.33333333333333337
2217 2215 -0.083333333333333343
2216 2216 0.33333333333333337
2217 2216 -0.083333333333333343
2217 2217 0.33333333333333337
2219 2217 -0.083333333333333343
2310 2217 -0.083333333333333329
2218 2218 0.33333333333333337
2220 2218 -0.083333333333333343
2219 2219 0.33333333333333337
2220 2219 -0.083333333333333343
2220 2220 0.33333333333333337
2222 2220 -0.083333333333333343
2313 2220 -0.083333333333333329
2221 2221 0.33333333333333337
2223 2221 -0.083333333333333343
2222 2222 0.33333333333333337
2223 2222 -0.083333333333333343
2223 2223 0.33333333333333337
2225 2223 -0.083333333333333343
2316 2223 -0.083333333333333329
2224 2224 0.33333333333333337
2226 2224 -0.083333333333333343
2225 2225 0.33333333333333337
2226 2225 -0.083333333333333343
2226 2226 0.33333333333333337
2228 2226 -0.083333333333333343
2319 2226 -0.083333333333333329
2227 2227 0.33333333333333337
2229 2227 -0.083333333333333343
2228 2228 0.33333333333333337
2229 2228 -0.083333333333333343
2229 2229 0.33333333333333337
2231 2229 -0.083333333333333343
2322 2229 -0.083333333333333329
2230 2230 0.33333333333333337
2232 2230 -0.083333333333333343
2231 2231 0.33333333333333337
2232 2231 -0.083333333333333343
2232 2232 0.33333333333333337
2234 2232 -0.083333333333333343
2325 2232 -0.083333333333333329
2233 2233 0.33333333333333337
2235 2233 -0.083333333333333343
2234 2234 0.33333333333333337
2235 2234 -0.083333333333333343
2235 2235 0.33333333333333337
2237 2235 -0.083333333333333343
2328 2235 -0.083333333333333329
2236 2236 0.33333333333333337
2238 2236 -0.083333333333333343
2237 2237 0.33333333333333337
2238 2237 -0.083333333333333343
2238 2238 0.33333333333333337
2240 2238 -0.083333333333333343
2331 2238 -0.083333333333333329
2239 2239 0.33333333333333337
2241 2239 -0.083333333333333343
2240 2240 0.33333333333333337
2241 2240 -0.083333333333333343
2241 2241 0.33333333333333337
2243 2241 -0.083333333333333343
2334 2241 -0.083333333333333329
2242 2242 0.33333333333333337
2244 2242 -0.083333333333333343
2243 2243 0.33333333333333337
2244 2243 -0.083333333333333343
2244 2244 0.33333333333333337
2246 2244 -0.083333333333333343
2337 2244 -0.083333333333333329
2245 2245 0.33333333333333337
2247 2245 -0.083333333333333343
2246 2246 0.33333333333333337
2247 2246 -0.083333333333333343
2247 2247 0.33333333333333337
2249 2247 -0.083333333333333343
2340 2247 -0.083333333333333329
2248 2248 0.33333333333333337
2250 2248 -0.083333333333333343
2249 2249 0.33333333333333337
2250 2249 -0.083333333333333343
2250 2250 0.33333333333333337
2252 2250 -0.083333333333333343
2343 2250 -0.083333333333333329
2251 2251 0.33333333333333337
2253 2251 -0.083333333333333343
2252 2252 0.33333333333333337
2253 2252 -0.083333333333333343
2253 2253 0.33333333333333337
2255 2253 -0.083333333333333343
2346 2253 -0.083333333333333329
2254 2254 0.33333333333333337
2256 2254 -0.083333333333333343
2255 2255 0.33333333333333337
2256 2255 -0.083333333333333343
2256 2256 0.33333333333333337
2258 2256 -0.083333333333333343
2349 2256 -0.083333333333333329
2257 2257 0.33333333333333337
2259 2257 -0.083333333333333343
2258 2258 0.33333333333333337
2259 2258 -0.083333333333333343
2259 2259 0.33333333333333337
2261 2259 -0.083333333333333343
2352 2259 -0.083333333333333329
2260 2260 0.33333333333333337
2262 2260 -0.083333333333333343
2261 2261 0.33333333333333337
2262 2261 -0.083333333333333343
2262 2262 0.33333333333333337
2264 2262 -0.083333333333333343
2355 2262 -0.083333333333333329
2263 2263 0.33333333333333337
2265 2263 -0.083333333333333343
2264 2264 0.33333333333333337
2265 2264 -0.083333333333333343
2265 2265 0.33333333333333337
2267 2265 -0.083333333333333343
2358 2265 -0.083333333333333329
2266 2266 0.33333333333333337
2268 2266 -0.083333333333333343
2267 2267 0.33333333333333337
2268 2267 -0.083333333333333343
2268 2268 0.33333333333333337
2270 2268 -0.083333333333333343
2361 2268 -0.083333333333333329
2269 2269 0.33333333333333337
2271 2269 -0.083333333333333343
2270 2270 0.33333333333333337
2271 2270 -0.083333333333333343
2271 2271 0.33333333333333337
2273 2271 -0.083333333333333343
2364 2271 -0.083333333333333329
2272 2272 0.33333333333333337
2274 2272 -0.083333333333333343
2273 2273 0.33333333333333337
2274 2273 -0.083333333333333343
2274 2274 0.33333333333333337
2276 2274 -0.083333333333333343
2367 2274 -0.083333333333333329
2275 2275 0.33333333333333337
2277 2275 -0.083333333333333343
2276 2276 0.33333333333333337
2277 2276 -0.083333333333333343
2277 2277 0.33333333333333337
2279 2277 -0.083333333333333343
2370 2277 -0.083333333333333329
2278 2278 0.33333333333333337
2280 2278 -0.083333333333333343
2279 2279 0.33333333333333337
2280 2279 -0.083333333333333343
2280 2280 0.33333333333333337
2373 2280 -0.083333333333333329
2281 2281 0.33333333333333337
2282 2281 -0.083333333333333343
2282 2282 0.33333333333333337
2284 2282 -0.083333333333333343
2376 2282 -0.083333333333333329
2283 2283 0.33333333333333337
2285 2283 -0.083333333333333343
2284 2284 0.33333333333333337
2285 2284 -0.083333333333333343
2285 2285 0.33333333333333337
2287 2285 -0.083333333333333343
2378 2285 -0.083333333333333329
2286 2286 0.33333333333333337
2288 2286 -0.083333333333333343
2287 2287 0.33333333333333337
2288 2287 -0.083333333333333343
2288 2288 0.33333333333333337
2290 2288 -0.083333333333333343
2381 2288 -0.083333333333333329
2289 2289 0.33333333333333337
2291 2289 -0.083333333333333343
2290 2290 0.33333333333333337
2291 2290 -0.083333333333333343
2291 2291 0.33333333333333337
2293 2291 -0.083333333333333343
2384 2291 -0.083333333333333329
2292 2292 0.33333333333333337
2294 2292 -0.083333333333333343
2293 2293 0.33333333333333337
2294 2293 -0.083333333333333343
2294 2294 0.33333333333333337
2296 2294 -0.083333333333333343
2387 2294 -0.083333333333333329
2295 2295 0.33333333333333337
2297 2295 -0.083333333333333343
2296 2296 0.33333333333333337
2297 2296 -0.083333333333333343
2297 2297 0.33333333333333337
2299 2297 -0.083333333333333343
2390 2297 -0.083333333333333329
2298 2298 0.33333333333333337
2300 2298 -0.083333333333333343
2299 2299 0.33333333333333337
2300 2299 -0.083333333333333343
2300 2300 0.33333333333333337
2302 2300 -0.083333333333333343
2393 2300 -0.083333333333333329
2301 2301 0.33333333333333337
2303 2301 -0.083333333333333343
2302 2302 0.33333333333333337
2303 2302 -0.083333333333333343
2303 2303 0.33333333333333337
2305 2303 -0.083333333333333343
2396 2303 -0.083333333333333329
2304 2304 0.33333333333333337
2306 2304 -0.083333333333333343
2305 2305 0.33333333333333337
2306 2305 -0.083333333333333343
2306 2306 0.33333333333333337
2308 2306 -0.083333333333333343
2399 2306 -0.083333333333333329
2307 2307 0.33333333333333337
2309 2307 -0.083333333333333343
2308 2308 0.33333333333333337
2309 2308 -0.083333333333333343
2309 2309 0.33333333333333337
2311 2309 -0.083333333333333343
2402 2309 -0.083333333333333329
2310 2310 0.33333333333333337
2312 2310 -0.083333333333333343
2311 2311 0.33333333333333337
2312 2311 -0.083333333333333343
2312 2312 0.33333333333333337
2314 2312 -0.083333333333333343
2405 2312 -0.083333333333333329
2313 2313 0.33333333333333337
2315 2313 -0.083333333333333343
2314 2314 0.33333333333333337
2315 2314 -0.083333333333333343
2315 2315 0.33333333333333337
2317 2315 -0.083333333333333343
2408 2315 -0.083333333333333329
2316 2316 0.33333333333333337
2318 2316 -0.083333333333333343
2317 2317 0.33333333333333337
2318 2317 -0.083333333333333343
2318 2318 0.33333333333333337
2320 2318 -0.083333333333333343
2411 2318 -0.083333333333333329
2319 2319 0.33333333333333337
2321 2319 -0.083333333333333343
2320 2320 0.33333333333333337
2321 2320 -0.083333333333333343
2321 2321 0.33333333333333337
2323 2321 -0.083333333333333343
2414 2321 -0.083333333333333329
2322 2322 0.33333333333333337
2324 2322 -0.083333333333333343
2323 2323 0.33333333333333337
2324 2323 -0.083333333333333343
2324 2324 0.33333333333333337
2326 2324 -0.083333333333333343
2417 2324 -0.083333333333333329
2325 2325 0.33333333333333337
2327 2325 -0.083333333333333343
2326 2326 0.33333333333333337
2327 2326 -0.083333333333333343
2327 2327 0.33333333333333337
2329 2327 -0.083333333333333343
2420 2327 -0.083333333333333329
2328 2328 0.33333333333333337
2330 2328 -0.083333333333333343
2329 2329 0.33333333333333337
2330 2329 -0.083333333333333343
2330 2330 0.33333333333333337
2332 2330 -0.083333333333333343
2423 2330 -0.083333333333333329
2331 2331 0.33333333333333337
2333 2331 -0.083333333333333343
2332 2332 0.33333333333333337
2333 2332 -0.083333333333333343
2333 2333 0.33333333333333337
2335 2333 -0.083333333333333343
2426 2333 -0.083333333333333329
2334 2334 0.33333333333333337
2336 2334 -0.083333333333333343
2335 2335 0.33333333333333337
2336 2335 -0.083333333333333343
2336 2336 0.33333333333333337
2338 2336 -0.083333333333333343
2429 2336 -0.083333333333333329
2337 2337 0.33333333333333337
2339 2337 -0.083333333333333343
2338 2338 0.33333333333333337
2339 2338 -0.083333333333333343
2339 2339 0.33333333333333337
2341 2339 -0.083333333333333343
2432 2339 -0.083333333333333329
2340 2340 0.33333333333333337
2342 2340 -0.083333333333333343
2341 2341 0.33333333333333337
2342 2341 -0.083333333333333343
2342 2342 0.33333333333333337
2344 2342 -0.083333333333333343
2435 2342 -0.083333333333333329
2343 2343 0.33333333333333337
2345 2343 -0.083333333333333343
2344 2344 0.33333333333333337
2345 2344 -0.083333333333333343
2345 2345 0.33333333333333337
2347 2345 -0.083333333333333343
2438 2345 -0.083333333333333329
2346 2346 0.33333333333333337
2348 2346 -0.083333333333333343
2347 2347 0.33333333333333337
2348 2347 -0.083333333333333343
2348 2348 0.33333333333333337
2350 2348 -0.083333333333333343
2441 2348 -0.083333333333333329
2349 2349 0.33333333333333337
2351 2349 -0.083333333333333343
2350 2350 0.33333333333333337
2351 2350 -0.083333333333333343
2351 2351 0.33333333333333337
2353 2351 -0.083333333333333343
2444 2351 -0.083333333333333329
2352 2352 0.33333333333333337
2354 2352 -0.083333333333333343
2353 2353 0.33333333333333337
2354 2353 -0.083333333333333343
2354 2354 0.33333333333333337
2356 2354 -0.083333333333333343
2447 2354 -0.083333333333333329
2355 2355 0.33333333333333337
2357 2355 -0.083333333333333343
2356 2356 0.33333333333333337
2357 2356 -0.083333333333333343
2357 2357 0.33333333333333337
2359 2357 -0.083333333333333343
2450 2357 -0.083333333333333329
2358 2358 0.33333333333333337
2360 2358 -0.083333333333333343
2359 2359 0.33333333333333337
2360 2359 -0.083333333333333343
2360 2360 0.33333333333333337
2362 2360 -0.083333333333333343
2453 2360 -0.083333333333333329
2361 2361 0.33333333333333337
2363 2361 -0.083333333333333343
2362 2362 0.33333333333333337
2363 2362 -0.083333333333333343
2363 2363 0.33333333333333337
2365 2363 -0.083333333333333343
2456 2363 -0.083333333333333329
2364 2364 0.33333333333333337
2366 2364 -0.083333333333333343
2365 2365 0.33333333333333337
2366 2365 -0.083333333333333343
2366 2366 0.33333333333333337
2368 2366 -0.083333333333333343
2459 2366 -0.083333333333333329
2367 2367 0.33333333333333337
2369 2367 -0.083333333333333343
2368 2368 0.33333333333333337
2369 2368 -0.083333333333333343
2369 2369 0.33333333333333337
2371 2369 -0.083333333333333343
2462 2369 -0.083333333333333329
2370 2370 0.33333333333333337
2372 2370 -0.083333333333333343
2371 2371 0.33333333333333337
2372 2371 -0.083333333333333343
2372 2372 0.33333333333333337
2374 2372 -0.083333333333333343
2465 2372 -0.083333333333333329
2373 2373 0.33333333333333337
2375 2373 -0.083333333333333343
2374 2374 0.33333333333333337
2375 2374 -0.083333333333333343
2375 2375 0.33333333333333337
2468 2375 -0.083333333333333329
2376 2376 0.33333333333333337
2377 2376 -0.083333333333333343
2377 2377 0.33333333333333337
2379 2377 -0.083333333333333343
2471 2377 -0.083333333333333329
2378 2378 0.33333333333333337
2380 2378 -0.083333333333333343
2379 2379 0.33333333333333337
2380 2379 -0.083333333333333343
2380 2380 0.33333333333333337
2382 2380 -0.083333333333333343
2473 2380 -0.083333333333333329
2381 2381 0.33333333333333337
2383 2381 -0.083333333333333343
2382 2382 0.33333333333333337
2383 2382 -0.083333333333333343
2383 2383 0.33333333333333337
2385 2383 -0.083333333333333343
2476 2383 -0.083333333333333329
2384 2384 0.33333333333333337
2386 2384 -0.083333333333333343
2385 2385 0.33333333333333337
2386 2385 -0.083333333333333343
2386 2386 0.33333333333333337
2388 2386 -0.083333333333333343
2479 2386 -0.083333333333333329
2387 2387 0.33333333333333337
2389 2387 -0.083333333333333343
2388 2388 0.33333333333333337
2389 2388 -0.083333333333333343
2389 2389 0.33333333333333337
2391 2389 -0.083333333333333343
2482 2389 -0.083333333333333329
2390 2390 0.33333333333333337
2392 2390 -0.083333333333333343
2391 2391 0.33333333333333337
2392 2391 -0.083333333333333343
2392 2392 0.33333333333333337
2394 2392 -0.083333333333333343
2485 2392 -0.083333333333333329
2393 2393 0.33333333333333337
2395 2393 -0.083333333333333343
2394 2394 0.33333333333333337
2395 2394 -0.083333333333333343
2395 2395 0.33333333333333337
2397 2395 -0.083333333333333343
2488 2395 -0.083333333333333329
2396 2396 0.33333333333333337
2398 2396 -0.083333333333333343
2397 2397 0.33333333333333337
2398 2397 -0.083333333333333343
2398 2398 0.33333333333333337
2400 2398 -0.083333333333333343
2491 2398 -0.083333333333333329
2399 2399 0.33333333333333337
2401 2399 -0.083333333333333343
2400 2400 0.33333333333333337
2401 2400 -0.083333333333333343
2401 2401 0.33333333333333337
2403 2401 -0.083333333333333343
2494 2401 -0.083333333333333329
2402 2402 0.33333333333333337
2404 2402 -0.083333333333333343
2403 2403 0.33333333333333337
2404 2403 -0.083333333333333343
2404 2404 0.33333333333333337
2406 2404 -0.083333333333333343
2497 2404 -0.083333333333333329
2405 2405 0.33333333333333337
2407 2405 -0.083333333333333343
2406 2406 0.33333333333333337
2407 2406 -0.083333333333333343
2407 2407 0.33333333333333337
2409 2407 -0.083333333333333343
2500 2407 -0.083333333333333329
2408 2408 0.33333333333333337
2410 2408 -0.083333333333333343
2409 2409 0.33333333333333337
2410 2409 -0.083333333333333343
2410 2410 0.33333333333333337
2412 2410 -0.083333333333333343
2503 2410 -0.083333333333333329
2411 2411 0.33333333333333337
2413 2411 -0.083333333333333343
2412 2412 0.33333333333333337
2413 2412 -0.083333333333333343
2413 2413 0.33333333333333337
2415 2413 -0.083333333333333343
2506 2413 -0.083333333333333329
2414 2414 0.33333333333333337
2416 2414 -0.083333333333333343
2415 2415 0.33333333333333337
2416 2415 -0.083333333333333343
2416 2416 0.33333333333333337
2418 2416 -0.083333333333333343
2509 2416 -0.083333333333333329
2417 2417 0.33333333333333337
2419 2417 -0.083333333333333343
2418 2418 0.33333333333333337
2419 2418 -0.083333333333333343
2419 2419 0.33333333333333337
2421 2419 -0.083333333333333343
2512 2419 -0.083333333333333329
2420 2420 0.33333333333333337
2422 2420 -0.083333333333333343
2421 2421 0.33333333333333337
2422 2421 -0.083333333333333343
2422 2422 0.33333333333333337
2424 2422 -0.083333333333333343
2515 2422 -0.083333333333333329
2423 2423 0.33333333333333337
2425 2423 -0.083333333333333343
2424 2424 0.33333333333333337
2425 2424 -0.083333333333333343
2425 2425 0.33333333333333337
2427 2425 -0.083333333333333343
2518 2425 -0.083333333333333329
2426 2426 0.33333333333333337
2428 2426 -0.083333333333333343
2427 2427 0.33333333333333337
2428 2427 -0.083333333333333343
2428 2428 0.33333333333333337
2430 2428 -0.083333333333333343
2521 2428 -0.083333333333333329
2429 2429 0.33333333333333337
2431 2429 -0.083333333333333343
2430 2430 0.33333333333333337
2431 2430 -0.083333333333333343
2431 2431 0.33333333333333337
2433 2431 -0.083333333333333343
2524 2431 -0.083333333333333329
2432 2432 0.33333333333333337
2434 2432 -0.083333333333333343
2433 2433 0.33333333333333337
2434 2433 -0.083333333333333343
2434 2434 0.33333333333333337
2436 2434 -0.083333333333333343
2527 2434 -0.083333333333333329
2435 2435 0.33333333333333337
2437 2435 -0.083333333333333343
2436 2436 0.33333333333333337
2437 2436 -0.083333333333333343
2437 2437 0.33333333333333337
2439 2437 -0.083333333333333343
2530 2437 -0.083333333333333329
2438 2438 0.33333333333333337
2440 2438 -0.083333333333333343
2439 2439 0.33333333333333337
2440 2439 -0.083333333333333343
2440 2440 0.33333333333333337
2442 2440 -0.083333333333333343
2533 2440 -0.083333333333333329
2441 2441 0.33333333333333337
2443 2441 -0.083333333333333343
2442 2442 0.33333333333333337
2443 2442 -0.083333333333333343
2443 2443 0.33333333333333337
2445 2443 -0.083333333333333343
2536 2443 -0.083333333333333329
2444 2444 0.33333333333333337
2446 2444 -0.083333333333333343
2445 2445 0.33333333333333337
2446 2445 -0.083333333333333343
2446 2446 0.33333333333333337
2448 2446 -0.083333333333333343
2539 2446 -0.083333333333333329
2447 2447 0.33333333333333337
2449 2447 -0.083333333333333343
2448 2448 0.33333333333333337
2449 2448 -0.083333333333333343
2449 2449 0.33333333333333337
2451 2449 -0.083333333333333343
2542 2449 -0.083333333333333329
2450 2450 0.33333333333333337
2452 2450 -0.083333333333333343
2451 2451 0.33333333333333337
2452 2451 -0.083333333333333343
2452 2452 0.33333333333333337
2454 2452 -0.083333333333333343
2545 2452 -0.083333333333333329
2453 2453 0.33333333333333337
2455 2453 -0.083333333333333343
2454 2454 0.33333333333333337
2455 2454 -0.083333333333333343
2455 2455 0.33333333333333337
2457 2455 -0.083333333333333343
2548 2455 -0.083333333333333329
2456 2456 0.33333333333333337
2458 2456 -0.083333333333333343
2457 2457 0.33333333333333337
2458 2457 -0.083333333333333343
2458 2458 0.33333333333333337
2460 2458 -0.083333333333333343
2551 2458 -0.083333333333333329
2459 2459 0.33333333333333337
2461 2459 -0.083333333333333343
2460 2460 0.33333333333333337
2461 2460 -0.083333333333333343
2461 2461 0.33333333333333337
2463 2461 -0.083333333333333343
2554 2461 -0.083333333333333329
2462 2462 0.33333333333333337
2464 2462 -0.083333333333333343
2463 2463 0.33333333333333337
2464 2463 -0.083333333333333343
2464 2464 0.33333333333333337
2466 2464 -0.083333333333333343
2557 2464 -0.083333333333333329
2465 2465 0.33333333333333337
2467 2465 -0.083333333333333343
2466 2466 0.33333333333333337
2467 2466 -0.083333333333333343
2467 2467 0.33333333333333337
2469 2467 -0.083333333333333343
2560 2467 -0.083333333333333329
2468 2468 0.33333333333333337
2470 2468 -0.083333333333333343
2469 2469 0.33333333333333337
2470 2469 -0.083333333333333343
2470 2470 0.33333333333333337
2563 2470 -0.083333333333333329
2471 2471 0.33333333333333337
2472 2471 -0.083333333333333343
2472 2472 0.33333333333333337
2474 2472 -0.083333333333333343
2566 2472 -0.083333333333333329
2473 2473 0.33333333333333337
2475 2473 -0.083333333333333343
2474 2474 0.33333333333333337
2475 2474 -0.083333333333333343
2475 2475 0.33333333333333337
2477 2475 -0.083333333333333343
2568 2475 -0.083333333333333329
2476 2476 0.33333333333333337
2478 2476 -0.083333333333333343
2477 2477 0.33333333333333337
2478 2477 -0.083333333333333343
2478 2478 0.33333333333333337
2480 2478 -0.083333333333333343
2571 2478 -0.083333333333333329
2479 2479 0.33333333333333337
2481 2479 -0.083333333333333343
2480 2480 0.33333333333333337
2481 2480 -0.083333333333333343
2481 2481 0.33333333333333337
2483 2481 -0.083333333333333343
2574 2481 -0.083333333333333329
2482 2482 0.33333333333333337
2484 2482 -0.083333333333333343
2483 2483 0.33333333333333337
2484 2483 -0.083333333333333343
2484 2484 0.33333333333333337
2486 2484 -0.083333333333333343
2577 2484 -0.083333333333333329
2485 2485 0.33333333333333337
2487 2485 -0.083333333333333343
2486 2486 0.33333333333333337
2487 2486 -0.083333333333333343
2487 2487 0.33333333333333337
2489 2487 -0.083333333333333343
2580 2487 -0.083333333333333329
2488 2488 0.33333333333333337
2490 2488 -0.083333333333333343
2489 2489 0.33333333333333337
2490 2489 -0.083333333333333343
2490 2490 0.33333333333333337
2492 2490 -0.083333333333333343
2583 2490 -0.083333333333333329
2491 2491 0.33333333333333337
2493 2491 -0.083333333333333343
2492 2492 0.33333333333333337
2493 2492 -0.083333333333333343
2493 2493 0.33333333333333337
2495 2493 -0.083333333333333343
2586 2493 -0.083333333333333329
2494 2494 0.33333333333333337
2496 2494 -0.083333333333333343
2495 2495 0.33333333333333337
2496 2495 -0.083333333333333343
2496 2496 0.33333333333333337
2498 2496 -0.083333333333333343
2589 2496 -0.083333333333333329
2497 2497 0.33333333333333337
2499 2497 -0.083333333333333343
2498 2498 0.33333333333333337
2499 2498 -0.083333333333333343
2499 2499 0.33333333333333337
2501 2499 -0.083333333333333343
2592 2499 -0.083333333333333329
2500 2500 0.33333333333333337
2502 2500 -0.083333333333333343
2501 2501 0.33333333333333337
2502 2501 -0.083333333333333343
2502 2502 0.33333333333333337
2504 2502 -0.083333333333333343
2595 2502 -0.083333333333333329
2503 2503 0.33333333333333337
2505 2503 -0.083333333333333343
2504 2504 0.33333333333333337
2505 2504 -0.083333333333333343
2505 2505 0.33333333333333337
2507 2505 -0.083333333333333343
2598 2505 -0.083333333333333329
2506 2506 0.33333333333333337
2508 2506 -0.083333333333333343
2507 2507 0.33333333333333337
2508 2507 -0.083333333333333343
2508 2508 0.33333333333333337
2510 2508 -0.083333333333333343
2601 2508 -0.083333333333333329
2509 2509 0.33333333333333337
2511 2509 -0.083333333333333343
2510 2510 0.33333333333333337
2511 2510 -0.083333333333333343
2511 2511 0.33333333333333337
2513 2511 -0.083333333333333343
2604 2511 -0.083333333333333329
2512 2512 0.33333333333333337
2514 2512 -0.083333333333333343
2513 2513 0.33333333333333337
2514 2513 -0.083333333333333343
2514 2514 0.33333333333333337
2516 2514 -0.083333333333333343
2607 2514 -0.083333333333333329
2515 2515 0.33333333333333337
2517 2515 -0.083333333333333343
2516 2516 0.33333333333333337
2517 2516 -0.083333333333333343
2517 2517 0.33333333333333337
2519 2517 -0.083333333333333343
2610 2517 -0.083333333333333329
2518 2518 0.33333333333333337
2520 2518 -0.083333333333333343
2519 2519 0.33333333333333337
2520 2519 -0.083333333333333343
2520 2520 0.33333333333333337
2522 2520 -0.083333333333333343
2613 2520 -0.083333333333333329
2521 2521 0.33333333333333337
2523 2521 -0.083333333333333343
2522 2522 0.33333333333333337
2523 2522 -0.083333333333333343
2523 2523 0.33333333333333337
2525 2523 -0.083333333333333343
2616 2523 -0.083333333333333329
2524 2524 0.33333333333333337
2526 2524 -0.083333333333333343
2525 2525 0.33333333333333337
2526 2525 -0.083333333333333343
2526 2526 0.33333333333333337
2528 2526 -0.083333333333333343
2619 2526 -0.083333333333333329
2527 2527 0.33333333333333337
2529 2527 -0.083333333333333343
2528 2528 0.33333333333333337
2529 2528 -0.083333333333333343
2529 2529 0.33333333333333337
2531 2529 -0.083333333333333343
2622 2529 -0.083333333333333329
2530 2530 0.33333333333333337
2532 2530 -0.083333333333333343
2531 2531 0.33333333333333337
2532 2531 -0.083333333333333343
2532 2532 0.33333333333333337
2534 2532 -0.083333333333333343
2625 2532 -0.083333333333333329
2533 2533 0.33333333333333337
2535 2533 -0.083333333333333343
2534 2534 0.33333333333333337
2535 2534 -0.083333333333333343
2535 2535 0.33333333333333337
2537 2535 -0.083333333333333343
2628 2535 -0.083333333333333329
2536 2536 0.33333333333333337
2538 2536 -0.083333333333333343
2537 2537 0.33333333333333337
2538 2537 -0.083333333333333343
2538 2538 0.33333333333333337
2540 2538 -0.083333333333333343
2631 2538 -0.083333333333333329
2539 2539 0.33333333333333337
2541 2539 -0.083333333333333343
2540 2540 0.33333333333333337
2541 2540 -0.083333333333333343
2541 2541 0.33333333333333337
2543 2541 -0.083333333333333343
2634 2541 -0.083333333333333329
2542 2542 0.33333333333333337
2544 2542 -0.083333333333333343
2543 2543 0.33333333333333337
2544 2543 -0.083333333333333343
2544 2544 0.33333333333333337
2546 2544 -0.083333333333333343
2637 2544 -0.083333333333333329
2545 2545 0.33333333333333337
2547 2545 -0.083333333333333343
2546 2546 0.33333333333333337
2547 2546 -0.083333333333333343
2547 2547 0.33333333333333337
2549 2547 -0.083333333333333343
2640 2547 -0.083333333333333329
2548 2548 0.33333333333333337
2550 2548 -0.083333333333333343
2549 2549 0.33333333333333337
2550 2549 -0.083333333333333343
2550 2550 0.33333333333333337
2552 2550 -0.083333333333333343
2643 2550 -0.083333333333333329
2551 2551 0.33333333333333337
2553 2551 -0.083333333333333343
2552 2552 0.33333333333333337
2553 2552 -0.083333333333333343
2553 2553 0.33333333333333337
2555 2553 -0.083333333333333343
2646 2553 -0.083333333333333329
2554 2554 0.33333333333333337
2556 2554 -0.083333333333333343
2555 2555 0.33333333333333337
2556 2555 -0.083333333333333343
2556 2556 0.33333333333333337
2558 2556 -0.083333333333333343
2649 2556 -0.083333333333333329
2557 2557 0.33333333333333337
2559 2557 -0.083333333333333343
2558 2558 0.33333333333333337
2559 2558 -0.083333333333333343
2559 2559 0.33333333333333337
2561 2559 -0.083333333333333343
2652 2559 -0.083333333333333329
2560 2560 0.33333333333333337
2562 2560 -0.083333333333333343
2561 2561 0.33333333333333337
2562 2561 -0.083333333333333343
2562 2562 0.33333333333333337
2564 2562 -0.083333333333333343
2655 2562 -0.083333333333333329
2563 2563 0.33333333333333337
2565 2563 -0.083333333333333343
2564 2564 0.33333333333333337
2565 2564 -0.083333333333333343
2565 2565 0.33333333333333337
2658 2565 -0.083333333333333329
2566 2566 0.33333333333333337
2567 2566 -0.083333333333333343
2567 2567 0.33333333333333337
2569 2567 -0.083333333333333343
2661 2567 -0.083333333333333329
2568 2568 0.33333333333333337
2570 2568 -0.083333333333333343
2569 2569 0.33333333333333337
2570 2569 -0.083333333333333343
2570 2570 0.33333333333333337
2572 2570 -0.083333333333333343
2663 2570 -0.083333333333333329
2571 2571 0.33333333333333337
2573 2571 -0.083333333333333343
2572 2572 0.33333333333333337
2573 2572 -0.083333333333333343
2573 2573 0.33333333333333337
2575 2573 -0.083333333333333343
2666 2573 -0.083333333333333329
2574 2574 0.33333333333333337
2576 2574 -0.083333333333333343
2575 2575 0.33333333333333337
2576 2575 -0.083333333333333343
2576 2576 0.33333333333333337
2578 2576 -0.083333333333333343
2669 2576 -0.083333333333333329
2577 2577 0.33333333333333337
2579 2577 -0.083333333333333343
2578 2578 0.33333333333333337
2579 2578 -0.083333333333333343
2579 2579 0.33333333333333337
2581 2579 -0.083333333333333343
2672 2579 -0.083333333333333329
2580 2580 0.33333333333333337
2582 2580 -0.083333333333333343
2581 2581 0.33333333333333337
2582 2581 -0.083333333333333343
2582 2582 0.33333333333333337
2584 2582 -0.083333333333333343
2675 2582 -0.083333333333333329
2583 2583 0.33333333333333337
2585 2583 -0.083333333333333343
2584 2584 0.33333333333333337
2585 2584 -0.083333333333333343
2585 2585 0.33333333333333337
2587 2585 -0.083333333333333343
2678 2585 -0.083333333333333329
2586 2586 0.33333333333333337
2588 2586 -0.083333333333333343
2587 2587 0.33333333333333337
2588 2587 -0.083333333333333343
2588 2588 0.33333333333333337
2590 2588 -0.083333333333333343
2681 2588 -0.083333333333333329
2589 2589 0.33333333333333337
2591 2589 -0.083333333333333343
2590 2590 0.33333333333333337
2591 2590 -0.083333333333333343
2591 2591 0.33333333333333337
2593 2591 -0.083333333333333343
2684 2591 -0.083333333333333329
2592 2592 0.33333333333333337
2594 2592 -0.083333333333333343
2593 2593 0.33333333333333337
2594 2593 -0.083333333333333343
2594 2594 0.33333333333333337
2596 2594 -0.083333333333333343
2687 2594 -0.083333333333333329
2595 2595 0.33333333333333337
2597 2595 -0.083333333333333343
2596 2596 0.33333333333333337
2597 2596 -0.083333333333333343
2597 2597 0.33333333333333337
2599 2597 -0.083333333333333343
2690 2597 -0.083333333333333329
2598 2598 0.33333333333333337
2600 2598 -0.083333333333333343
2599 2599 0.33333333333333337
2600 2599 -0.083333333333333343
2600 2600 0.33333333333333337
2602 2600 -0.083333333333333343
2693 2600 -0.083333333333333329
2601 2601 0.33333333333333337
2603 2601 -0.083333333333333343
2602 2602 0.33333333333333337
2603 2602 -0.083333333333333343
2603 2603 0.33333333333333337
2605 2603 -0.083333333333333343
2696 2603 -0.083333333333333329
2604 2604 0.33333333333333337
2606 2604 -0.083333333333333343
2605 2605 0.33333333333333337
2606 2605 -0.083333333333333343
2606 2606 0.33333333333333337
2608 2606 -0.083333333333333343
2699 2606 -0.083333333333333329
2607 2607 0.33333333333333337
2609 2607 -0.083333333333333343
2608 2608 0.33333333333333337
2609 2608 -0.083333333333333343
2609 2609 0.33333333333333337
2611 2609 -0.083333333333333343
2702 2609 -0.083333333333333329
2610 2610 0.33333333333333337
2612 2610 -0.083333333333333343
2611 2611 0.33333333333333337
2612 2611 -0.083333333333333343
2612 2612 0.33333333333333337
2614 2612 -0.083333333333333343
2705 2612 -0.083333333333333329
2613 2613 0.33333333333333337
2615 2613 -0.083333333333333343
2614 2614 0.33333333333333337
2615 2614 -0.083333333333333343
2615 2615 0.33333333333333337
2617 2615 -0.083333333333333343
2708 2615 -0.083333333333333329
2616 2616 0.33333333333333337
2618 2616 -0.083333333333333343
2617 2617 0.33333333333333337
2618 2617 -0.083333333333333343
2618 2618 0.33333333333333337
2620 2618 -0.083333333333333343
2711 2618 -0.083333333333333329
2619 2619 0.33333333333333337
2621 2619 -0.083333333333333343
2620 2620 0.33333333333333337
2621 2620 -0.083333333333333343
2621 2621 0.33333333333333337
2623 2621 -0.083333333333333343
2714 2621 -0.083333333333333329
2622 2622 0.33333333333333337
2624 2622 -0.083333333333333343
2623 2623 0.33333333333333337
2624 2623 -0.083333333333333343
2624 2624 0.33333333333333337
2626 2624 -0.083333333333333343
2717 2624 -0.083333333333333329
2625 2625 0.33333333333333337
2627 2625 -0.083333333333333343
2626 2626 0.33333333333333337
2627 2626 -0.083333333333333343
2627 2627 0.33333333333333337
2629 2627 -0.083333333333333343
2720 2627 -0.083333333333333329
2628 2628 0.33333333333333337
2630 2628 -0.083333333333333343
2629 2629 0.33333333333333337
2630 2629 -0.083333333333333343
2630 2630 0.33333333333333337
2632 2630 -0.083333333333333343
2723 2630 -0.083333333333333329
2631 2631 0.33333333333333337
2633 2631 -0.083333333333333343
2632 2632 0.33333333333333337
2633 2632 -0.083333333333333343
2633 2633 0.33333333333333337
2635 2633 -0.083333333333333343
2726 2633 -0.083333333333333329
2634 2634 0.33333333333333337
2636 2634 -0.083333333333333343
2635 2635 0.33333333333333337
2636 2635 -0.083333333333333343
2636 2636 0.33333333333333337
2638 2636 -0.083333333333333343
2729 2636 -0.083333333333333329
2637 2637 0.33333333333333337
2639 2637 -0.083333333333333343
2638 2638 0.33333333333333337
2639 2638 -0.083333333333333343
2639 2639 0.33333333333333337
2641 2639 -0.083333333333333343
2732 2639 -0.083333333333333329
2640 2640 0.33333333333333337
2642 2640 -0.083333333333333343
2641 2641 0.33333333333333337
2642 2641 -0.083333333333333343
2642 2642 0.33333333333333337
2644 2642 -0.083333333333333343
2735 2642 -0.083333333333333329
2643 2643 0.33333333333333337
2645 2643 -0.083333333333333343
2644 2644 0.33333333333333337
2645 2644 -0.083333333333333343
2645 2645 0.33333333333333337
2647 2645 -0.083333333333333343
2738 2645 -0.083333333333333329
2646 2646 0.33333333333333337
2648 2646 -0.083333333333333343
2647 2647 0.33333333333333337
2648 2647 -0.083333333333333343
2648 2648 0.33333333333333337
2650 2648 -0.083333333333333343
2741 2648 -0.083333333333333329
2649 2649 0.33333333333333337
2651 2649 -0.083333333333333343
2650 2650 0.33333333333333337
2651 2650 -0.083333333333333343
2651 2651 0.33333333333333337
2653 2651 -0.083333333333333343
2744 2651 -0.083333333333333329
2652 2652 0.33333333333333337
2654 2652 -0.083333333333333343
2653 2653 0.33333333333333337
2654 2653 -0.083333333333333343
2654 2654 0.33333333333333337
2656 2654 -0.083333333333333343
2747 2654 -0.083333333333333329
2655 2655 0.33333333333333337
2657 2655 -0.083333333333333343
2656 2656 0.33333333333333337
2657 2656 -0.083333333333333343
2657 2657 0.33333333333333337
2659 2657 -0.083333333333333343
2750 2657 -0.083333333333333329
2658 2658 0.33333333333333337
2660 2658 -0.083333333333333343
2659 2659 0.33333333333333337
2660 2659 -0.083333333333333343
2660 2660 0.33333333333333337
2753 2660 -0.083333333333333329
2661 2661 0.33333333333333337
2662 2661 -0.083333333333333343
2662 2662 0.33333333333333337
2664 2662 -0.083333333333333343
2756 2662 -0.083333333333333329
2663 2663 0.33333333333333337
2665 2663 -0.083333333333333343
2664 2664 0.33333333333333337
2665 2664 -0.083333333333333343
2665 2665 0.33333333333333337
2667 2665 -0.083333333333333343
2758 2665 -0.083333333333333329
2666 2666 0.33333333333333337
2668 2666 -0.083333333333333343
2667 2667 0.33333333333333337
2668 2667 -0.083333333333333343
2668 2668 0.33333333333333337
2670 2668 -0.083333333333333343
2761 2668 -0.083333333333333329
2669 2669 0.33333333333333337
2671 2669 -0.083333333333333343
2670 2670 0.33333333333333337
2671 2670 -0.083333333333333343
2671 2671 0.33333333333333337
2673 2671 -0.083333333333333343
2764 2671 -0.083333333333333329
2672 2672 0.33333333333333337
2674 2672 -0.083333333333333343
2673 2673 0.33333333333333337
2674 2673 -0.083333333333333343
2674 2674 0.33333333333333337
2676 2674 -0.083333333333333343
2767 2674 -0.083333333333333329
2675 2675 0.33333333333333337
2677 2675 -0.083333333333333343
2676 2676 0.33333333333333337
2677 2676 -0.083333333333333343
2677 2677 0.33333333333333337
2679 2677 -0.083333333333333343
2770 2677 -0.083333333333333329
2678 2678 0.33333333333333337
2680 2678 -0.083333333333333343
2679 2679 0.33333333333333337
2680 2679 -0.083333333333333343
2680 2680 0.33333333333333337
2682 2680 -0.083333333333333343
2773 2680 -0.083333333333333329
2681 2681 0.33333333333333337
2683 2681 -0.083333333333333343
2682 2682 0.33333333333333337
2683 2682 -0.083333333333333343
2683 2683 0.33333333333333337
2685 2683 -0.083333333333333343
2776 2683 -0.083333333333333329
2684 2684 0.33333333333333337
2686 2684 -0.083333333333333343
2685 2685 0.33333333333333337
2686 2685 -0.083333333333333343
2686 2686 0.33333333333333337
2688 2686 -0.083333333333333343
2779 2686 -0.083333333333333329
2687 2687 0.33333333333333337
2689 2687 -0.083333333333333343
2688 2688 0.33333333333333337
2689 2688 -0.083333333333333343
2689 2689 0.33333333333333337
2691 2689 -0.083333333333333343
2782 2689 -0.083333333333333329
2690 2690 0.33333333333333337
2692 2690 -0.083333333333333343
2691 2691 0.33333333333333337
2692 2691 -0.083333333333333343
2692 2692 0.33333333333333337
2694 2692 -0.083333333333333343
2785 2692 -0.083333333333333329
2693 2693 0.33333333333333337
2695 2693 -0.083333333333333343
2694 2694 0.33333333333333337
2695 2694 -0.083333333333333343
2695 2695 0.33333333333333337
2697 2695 -0.083333333333333343
2788 2695 -0.083333333333333329
2696 2696 0.33333333333333337
2698 2696 -0.083333333333333343
2697 2697 0.33333333333333337
2698 2697 -0.083333333333333343
2698 2698 0.33333333333333337
2700 2698 -0.083333333333333343
2791 2698 -0.083333333333333329
2699 2699 0.33333333333333337
2701 2699 -0.083333333333333343
2700 2700 0.33333333333333337
2701 2700 -0.083333333333333343
2701 2701 0.33333333333333337
2703 2701 -0.083333333333333343
2794 2701 -0.083333333333333329
2702 2702 0.33333333333333337
2704 2702 -0.083333333333333343
2703 2703 0.33333333333333337
2704 2703 -0.083333333333333343
2704 2704 0.33333333333333337
2706 2704 -0.083333333333333343
2797 2704 -0.083333333333333329
2705 2705 0.33333333333333337
2707 2705 -0.083333333333333343
2706 2706 0.33333333333333337
2707 2706 -0.083333333333333343
2707 2707 0.33333333333333337
2709 2707 -0.083333333333333343
2800 2707 -0.083333333333333329
2708 2708 0.33333333333333337
2710 2708 -0.083333333333333343
2709 2709 0.33333333333333337
2710 2709 -0.083333333333333343
2710 2710 0.33333333333333337
2712 2710 -0.083333333333333343
2803 2710 -0.083333333333333329
2711 2711 0.33333333333333337
2713 2711 -0.083333333333333343
2712 2712 0.33333333333333337
2713 2712 -0.083333333333333343
2713 2713 0.33333333333333337
2715 2713 -0.083333333333333343
2806 2713 -0.083333333333333329
2714 2714 0.33333333333333337
2716 2714 -0.083333333333333343
2715 2715 0.33333333333333337
2716 2715 -0.083333333333333343
2716 2716 0.33333333333333337
2718 2716 -0.083333333333333343
2809 2716 -0.083333333333333329
2717 2717 0.33333333333333337
2719 2717 -0.083333333333333343
2718 2718 0.33333333333333337
2719 2718 -0.083333333333333343
2719 2719 0.33333333333333337
2721 2719 -0.083333333333333343
2812 2719 -0.083333333333333329
2720 2720 0.33333333333333337
2722 2720 -0.083333333333333343
2721 2721 0.33333333333333337
2722 2721 -0.083333333333333343
2722 2722 0.33333333333333337
2724 2722 -0.083333333333333343
2815 2722 -0.083333333333333329
2723 2723 0.33333333333333337
2725 2723 -0.083333333333333343
2724 2724 0.33333333333333337
2725 2724 -0.083333333333333343
2725 2725 0.33333333333333337
2727 2725 -0.083333333333333343
2818 2725 -0.083333333333333329
2726 2726 0.33333333333333337
2728 2726 -0.083333333333333343
2727 2727 0.33333333333333337
2728 2727 -0.083333333333333343
2728 2728 0.33333333333333337
2730 2728 -0.083333333333333343
2821 2728 -0.083333333333333329
2729 2729 0.33333333333333337
2731 2729 -0.083333333333333343
2730 2730 0.33333333333333337
2731 2730 -0.083333333333333343
2731 2731 0.33333333333333337
2733 2731 -0.083333333333333343
2824 2731 -0.083333333333333329
2732 2732 0.33333333333333337
2734 2732 -0.083333333333333343
2733 2733 0.33333333333333337
2734 2733 -0.083333333333333343
2734 2734 0.33333333333333337
2736 2734 -0.083333333333333343
2827 2734 -0.083333333333333329
2735 2735 0.33333333333333337
2737 2735 -0.083333333333333343
2736 2736 0.33333333333333337
2737 2736 -0.083333333333333343
2737 2737 0.33333333333333337
2739 2737 -0.083333333333333343
2830 2737 -0.083333333333333329
2738 2738 0.33333333333333337
2740 2738 -0.083333333333333343
2739 2739 0.33333333333333337
2740 2739 -0.083333333333333343
2740 2740 0.33333333333333337
2742 2740 -0.083333333333333343
2833 2740 -0.083333333333333329
2741 2741 0.33333333333333337
2743 2741 -0.083333333333333343
2742 2742 0.33333333333333337
2743 2742 -0.083333333333333343
2743 2743 0.33333333333333337
2745 2743 -0.083333333333333343
2836 2743 -0.083333333333333329
2744 2744 0.33333333333333337
2746 2744 -0.083333333333333343
2745 2745 0.33333333333333337
2746 2745 -0.083333333333333343
2746 2746 0.33333333333333337
2748 2746 -0.083333333333333343
2839 2746 -0.083333333333333329
2747 2747 0.33333333333333337
2749 2747 -0.083333333333333343
2748 2748 0.33333333333333337
2749 2748 -0.083333333333333343
2749 2749 0.33333333333333337
2751 2749 -0.083333333333333343
2842 2749 -0.083333333333333329
2750 2750 0.33333333333333337
2752 2750 -0.083333333333333343
2751 2751 0.33333333333333337
2752 2751 -0.083333333333333343
2752 2752 0.33333333333333337
2754 2752 -0.083333333333333343
2845 2752 -0.083333333333333329
2753 2753 0.33333333333333337
2755 2753 -0.083333333333333343
2754 2754 0.33333333333333337
2755 2754 -0.083333333333333343
2755 2755 0.33333333333333337
2848 2755 -0.083333333333333329
2756 2756 0.33333333333333337
2757 2756 -0.083333333333333343
2757 2757 0.33333333333333337
2759 2757 -0.083333333333333343
2851 2757 -0.083333333333333329
2758 2758 0.33333333333333337
2760 2758 -0.083333333333333343
2759 2759 0.33333333333333337
2760 2759 -0.083333333333333343
2760 2760 0.33333333333333337
2762 2760 -0.083333333333333343
2853 2760 -0.083333333333333329
2761 2761 0.33333333333333337
2763 2761 -0.083333333333333343
2762 2762 0.33333333333333337
2763 2762 -0.083333333333333343
2763 2763 0.33333333333333337
2765 2763 -0.083333333333333343
2856 2763 -0.083333333333333329
2764 2764 0.33333333333333337
2766 2764 -0.083333333333333343
2765 2765 0.33333333333333337
2766 2765 -0.083333333333333343
2766 2766 0.33333333333333337
2768 2766 -0.083333333333333343
2859 2766 -0.083333333333333329
2767 2767 0.33333333333333337
2769 2767 -0.083333333333333343
2768 2768 0.33333333333333337
2769 2768 -0.083333333333333343
2769 2769 0.33333333333333337
2771 2769 -0.083333333333333343
2862 2769 -0.083333333333333329
2770 2770 0.33333333333333337
2772 2770 -0.083333333333333343
2771 2771 0.33333333333333337
2772 2771 -0.083333333333333343
2772 2772 0.33333333333333337
2774 2772 -0.083333333333333343
2865 2772 -0.083333333333333329
2773 2773 0.33333333333333337
2775 2773 -0.083333333333333343
2774 2774 0.33333333333333337
2775 2774 -0.083333333333333343
2775 2775 0.33333333333333337
2777 2775 -0.083333333333333343
2868 2775 -0.083333333333333329
2776 2776 0.33333333333333337
2778 2776 -0.083333333333333343
2777 2777 0.33333333333333337
2778 2777 -0.083333333333333343
2778 2778 0.33333333333333337
2780 2778 -0.083333333333333343
2871 2778 -0.083333333333333329
2779 2779 0.33333333333333337
2781 2779 -0.083333333333333343
2780 2780 0.33333333333333337
2781 2780 -0.083333333333333343
2781 2781 0.33333333333333337
2783 2781 -0.083333333333333343
2874 2781 -0.083333333333333329
2782 2782 0.33333333333333337
2784 2782 -0.083333333333333343
2783 2783 0.33333333333333337
2784 2783 -0.083333333333333343
2784 2784 0.33333333333333337
2786 2784 -0.083333333333333343
2877 2784 -0.083333333333333329
2785 2785 0.33333333333333337
2787 2785 -0.083333333333333343
2786 2786 0.33333333333333337
2787 2786 -0.083333333333333343
2787 2787 0.33333333333333337
2789 2787 -0.083333333333333343
2880 2787 -0.083333333333333329
2788 2788 0.33333333333333337
2790 2788 -0.083333333333333343
2789 2789 0.33333333333333337
2790 2789 -0.083333333333333343
2790 2790 0.33333333333333337
2792 2790 -0.083333333333333343
2883 2790 -0.083333333333333329
2791 2791 0.33333333333333337
2793 2791 -0.083333333333333343
2792 2792 0.33333333333333337
2793 2792 -0.083333333333333343
2793 2793 0.33333333333333337
2795 2793 -0.083333333333333343
2886 2793 -0.083333333333333329
2794 2794 0.33333333333333337
2796 2794 -0.083333333333333343
2795 2795 0.33333333333333337
2796 2795 -0.083333333333333343
2796 2796 0.33333333333333337
2798 2796 -0.083333333333333343
2889 2796 -0.083333333333333329
2797 2797 0.33333333333333337
2799 2797 -0.083333333333333343
2798 2798 0.33333333333333337
2799 2798 -0.083333333333333343
2799 2799 0.33333333333333337
2801 2799 -0.083333333333333343
2892 2799 -0.083333333333333329
2800 2800 0.33333333333333337
2802 2800 -0.083333333333333343
2801 2801 0.33333333333333337
2802 2801 -0.083333333333333343
2802 2802 0.33333333333333337
2804 2802 -0.083333333333333343
2895 2802 -0.083333333333333329
2803 2803 0.33333333333333337
2805 2803 -0.083333333333333343
2804 2804 0.33333333333333337
2805 2804 -0.083333333333333343
2805 2805 0.33333333333333337
2807 2805 -0.083333333333333343
2898 2805 -0.083333333333333329
2806 2806 0.33333333333333337
2808 2806 -0.083333333333333343
2807 2807 0.33333333333333337
2808 2807 -0.083333333333333343
2808 2808 0.33333333333333337
2810 2808 -0.083333333333333343
2901 2808 -0.083333333333333329
2809 2809 0.33333333333333337
2811 2809 -0.083333333333333343
2810 2810 0.33333333333333337
2811 2810 -0.083333333333333343
2811 2811 0.33333333333333337
2813 2811 -0.083333333333333343
2904 2811 -0.083333333333333329
2812 2812 0.33333333333333337
2814 2812 -0.083333333333333343
2813 2813 0.33333333333333337
2814 2813 -0.083333333333333343
2814 2814 0.33333333333333337
2816 2814 -0.083333333333333343
2907 2814 -0.083333333333333329
2815 2815 0.33333333333333337
2817 2815 -0.083333333333333343
2816 2816 0.33333333333333337
2817 2816 -0.083333333333333343
2817 2817 0.33333333333333337
2819 2817 -0.083333333333333343
2910 2817 -0.083333333333333329
2818 2818 0.33333333333333337
2820 2818 -0.083333333333333343
2819 2819 0.33333333333333337
2820 2819 -0.083333333333333343
2820 2820 0.33333333333333337
2822 2820 -0.083333333333333343
2913 2820 -0.083333333333333329
2821 2821 0.33333333333333337
2823 2821 -0.083333333333333343
2822 2822 0.33333333333333337
2823 2822 -0.083333333333333343
2823 2823 0.33333333333333337
2825 2823 -0.083333333333333343
2916 2823 -0.083333333333333329
2824 2824 0.33333333333333337
2826 2824 -0.083333333333333343
2825 2825 0.33333333333333337
2826 2825 -0.083333333333333343
2826 2826 0.33333333333333337
2828 2826 -0.083333333333333343
2919 2826 -0.083333333333333329
2827 2827 0.33333333333333337
2829 2827 -0.083333333333333343
2828 2828 0.33333333333333337
2829 2828 -0.083333333333333343
2829 2829 0.33333333333333337
2831 2829 -0.083333333333333343
2922 2829 -0.083333333333333329
2830 2830 0.33333333333333337
2832 2830 -0.083333333333333343
2831 2831 0.33333333333333337
2832 2831 -0.083333333333333343
2832 2832 0.33333333333333337
2834 2832 -0.083333333333333343
2925 2832 -0.083333333333333329
2833 2833 0.33333333333333337
2835 2833 -0.083333333333333343
2834 2834 0.33333333333333337
2835 2834 -0.083333333333333343
2835 2835 0.33333333333333337
2837 2835 -0.083333333333333343
2928 2835 -0.083333333333333329
2836 2836 0.33333333333333337
2838 2836 -0.083333333333333343
2837 2837 0.33333333333333337
2838 2837 -0.083333333333333343
2838 2838 0.33333333333333337
2840 2838 -0.083333333333333343
2931 2838 -0.083333333333333329
2839 2839 0.33333333333333337
2841 2839 -0.083333333333333343
2840 2840 0.33333333333333337
2841 2840 -0.083333333333333343
2841 2841 0.33333333333333337
2843 2841 -0.083333333333333343
2934 2841 -0.083333333333333329
2842 2842 0.33333333333333337
2844 2842 -0.083333333333333343
2843 2843 0.33333333333333337
2844 2843 -0.083333333333333343
2844 2844 0.33333333333333337
2846 2844 -0.083333333333333343
2937 2844 -0.083333333333333329
2845 2845 0.33333333333333337
2847 2845 -0.083333333333333343
2846 2846 0.33333333333333337
2847 2846 -0.083333333333333343
2847 2847 0.33333333333333337
2849 2847 -0.083333333333333343
2940 2847 -0.083333333333333329
2848 2848 0.33333333333333337
2850 2848 -0.083333333333333343
2849 2849 0.33333333333333337
2850 2849 -0.083333333333333343
2850 2850 0.33333333333333337
2943 2850 -0.083333333333333329
2851 2851 0.33333333333333337
2852 2851 -0.083333333333333343
2852 2852 0.33333333333333337
2854 2852 -0.083333333333333343
2853 2853 0.33333333333333337
2855 2853 -0.083333333333333343
2854 2854 0.33333333333333337
2855 2854 -0.083333333333333343
2855 2855 0.33333333333333337
2857 2855 -0.083333333333333343
2856 2856 0.33333333333333337
2858 2856 -0.083333333333333343
2857 2857 0.33333333333333337
2858 2857 -0.083333333333333343
2858 2858 0.33333333333333337
2860 2858 -0.083333333333333343
2859 2859 0.33333333333333337
2861 2859 -0.083333333333333343
2860 2860 0.33333333333333337
2861 2860 -0.083333333333333343
2861 2861 0.33333333333333337
2863 2861 -0.083333333333333343
2862 2862 0.33333333333333337
2864 2862 -0.083333333333333343
2863 2863 0.33333333333333337
2864 2863 -0.083333333333333343
2864 2864 0.33333333333333337
2866 2864 -0.083333333333333343
2865 2865 0.33333333333333337
2867 2865 -0.083333333333333343
2866 2866 0.33333333333333337
2867 2866 -0.083333333333333343
2867 2867 0.33333333333333337
2869 2867 -0.083333333333333343
2868 2868 0.33333333333333337
2870 2868 -0.083333333333333343
2869 2869 0.33333333333333337
2870 2869 -0.083333333333333343
2870 2870 0.33333333333333337
2872 2870 -0.083333333333333343
2871 2871 0.33333333333333337
2873 2871 -0.083333333333333343
2872 2872 0.33333333333333337
2873 2872 -0.083333333333333343
2873 2873 0.33333333333333337
2875 2873 -0.083333333333333343
2874 2874 0.33333333333333337
2876 2874 -0.083333333333333343
2875 2875 0.33333333333333337
2876 2875 -0.083333333333333343
2876 2876 0.33333333333333337
2878 2876 -0.083333333333333343
2877 2877 0.33333333333333337
2879 2877 -0.083333333333333343
2878 2878 0.33333333333333337
2879 2878 -0.083333333333333343
2879 2879 0.33333333333333337
2881 2879 -0.083333333333333343
2880 2880 0.33333333333333337
2882 2880 -0.083333333333333343
2881 2881 0.33333333333333337
2882 2881 -0.083333333333333343
2882 2882 0.33333333333333337
2884 2882 -0.083333333333333343
2883 2883 0.33333333333333337
2885 2883 -0.083333333333333343
2884 2884 0.33333333333333337
2885 2884 -0.083333333333333343
2885 2885 0.33333333333333337
2887 2885 -0.083333333333333343
2886 2886 0.33333333333333337
2888 2886 -0.083333333333333343
2887 2887 0.33333333333333337
2888 2887 -0.083333333333333343
2888 2888 0.33333333333333337
2890 2888 -0.083333333333333343
2889 2889 0.33333333333333337
2891 2889 -0.083333333333333343
2890 2890 0.33333333333333337
2891 2890 -0.083333333333333343
2891 2891 0.33333333333333337
2893 2891 -0.083333333333333343
2892 2892 0.33333333333333337
2894 2892 -0.083333333333333343
2893 2893 0.33333333333333337
2894 2893 -0.083333333333333343
2894 2894 0.33333333333333337
2896 2894 -0.083333333333333343
2895 2895 0.33333333333333337
2897 2895 -0.083333333333333343
2896 2896 0.33333333333333337
2897 2896 -0.083333333333333343
2897 2897 0.33333333333333337
2899 2897 -0.083333333333333343
2898 2898 0.33333333333333337
2900 2898 -0.083333333333333343
2899 2899 0.33333333333333337
2900 2899 -0.083333333333333343
2900 2900 0.33333333333333337
2902 2900 -0.083333333333333343
2901 2901 0.33333333333333337
2903 2901 -0.083333333333333343
2902 2902 0.33333333333333337
2903 2902 -0.083333333333333343
2903 2903 0.33333333333333337
2905 2903 -0.083333333333333343
2904 2904 0.33333333333333337
2906 2904 -0.083333333333333343
2905 2905 0.33333333333333337
2906 2905 -0.083333333333333343
2906 2906 0.33333333333333337
2908 2906 -0.083333333333333343
2907 2907 0.33333333333333337
2909 2907 -0.083333333333333343
2908 2908 0.33333333333333337
2909 2908 -0.083333333333333343
2909 2909 0.33333333333333337
2911 2909 -0.083333333333333343
2910 2910 0.33333333333333337
2912 2910 -0.083333333333333343
2911 2911 0.33333333333333337
2912 2911 -0.083333333333333343
2912 2912 0.33333333333333337
2914 2912 -0.083333333333333343
2913 2913 0.33333333333333337
2915 2913 -0.083333333333333343
2914 2914 0.33333333333333337
2915 2914 -0.083333333333333343
2915 2915 0.33333333333333337
2917 2915 -0.083333333333333343
2916 2916 0.33333333333333337
2918 2916 -0.083333333333333343
2917 2917 0.33333333333333337
2918 2917 -0.083333333333333343
2918 2918 0.33333333333333337
2920 2918 -0.083333333333333343
2919 2919 0.33333333333333337
2921 2919 -0.083333333333333343
2920 2920 0.33333333333333337
2921 2920 -0.083333333333333343
2921 2921 0.33333333333333337
2923 2921 -0.083333333333333343
2922 2922 0.33333333333333337
2924 2922 -0.083333333333333343
2923 2923 0.33333333333333337
2924 2923 -0.083333333333333343
2924 2924 0.33333333333333337
2926 2924 -0.083333333333333343
2925 2925 0.33333333333333337
2927 2925 -0.083333333333333343
2926 2926 0.33333333333333337
2927 2926 -0.083333333333333343
2927 2927 0.33333333333333337
2929 2927 -0.083333333333333343
2928 2928 0.33333333333333337
2930 2928 -0.083333333333333343
2929 2929 0.33333333333333337
2930 2929 -0.083333333333333343
2930 2930 0.33333333333333337
2932 2930 -0.083333333333333343
2931 2931 0.33333333333333337
2933 2931 -0.083333333333333343
2932 2932 0.33333333333333337
2933 2932 -0.083333333333333343
2933 2933 0.33333333333333337
2935 2933 -0.083333333333333343
2934 2934 0.33333333333333337
2936 2934 -0.083333333333333343
2935 2935 0.33333333333333337
2936 2935 -0.083333333333333343
2936 2936 0.33333333333333337
2938 2936 -0.083333333333333343
2937 2937 0.33333333333333337
2939 2937 -0.083333333333333343
2938 2938 0.33333333333333337
2939 2938 -0.083333333333333343
2939 2939 0.33333333333333337
2941 2939 -0.083333333333333343
2940 2940 0.33333333333333337
2942 2940 -0.083333333333333343
2941 2941 0.33333333333333337
2942 2941 -0.083333333333333343
2942 2942 0.33333333333333337
2944 2942 -0.083333333333333343
2943 2943 0.33333333333333337
2945 2943 -0.083333333333333343
2944 2944 0.33333333333333337
2945 2944 -0.083333333333333343
2945 2945 0.33333333333333337
