%%MatrixMarket matrix coordinate real symmetric
% lshape_p1_n16 stiffness A[int,int], mesh=lshape_16 p=1, interior-restricted
% lower triangle only (row >= col); mirror for the full matrix
705 705 2053
1 1 4
2 1 -1
16 1 -1
2 2 4
3 2 -1
17 2 -1
3 3 4
4 3 -1
18 3 -1
4 4 4
5 4 -1
19 4 -1
5 5 4
6 5 -1
20 5 -1
6 6 4
7 6 -1
21 6 -1
7 7 4
8 7 -1
22 7 -1
8 8 4
9 8 -1
23 8 -1
9 9 4
10 9 -1
24 9 -1
10 10 4
11 10 -1
25 10 -1
11 11 4
12 11 -1
26 11 -1
12 12 4
13 12 -1
27 12 -1
13 13 4
14 13 -1
28 13 -1
14 14 4
15 14 -1
29 14 -1
15 15 4
30 15 -1
16 16 4
17 16 -1
31 16 -1
17 17 4
18 17 -1
32 17 -1
18 18 4
19 18 -1
33 18 -1
19 19 4
20 19 -1
34 19 -1
20 20 4
21 20 -1
35 20 -1
21 21 4
22 21 -1
36 21 -1
22 22 4
23 22 -1
37 22 -1
23 23 4
24 23 -1
38 23 -1
24 24 4
25 24 -1
39 24 -1
25 25 4
26 25 -1
40 25 -1
26 26 4
27 26 -1
41 26 -1
27 27 4
28 27 -1
42 27 -1
28 28 4
29 28 -1
43 28 -1
29 29 4
30 29 -1
44 29 -1
30 30 4
45 30 -1
31 31 4
32 31 -1
46 31 -1
32 32 4
33 32 -1
47 32 -1
33 33 4
34 33 -1
48 33 -1
34 34 4
35 34 -1
49 34 -1
35 35 4
36 35 -1
50 35 -1
36 36 4
37 36 -1
51 36 -1
37 37 4
38 37 -1
52 37 -1
38 38 4
39 38 -1
53 38 -1
39 39 4
40 39 -1
54 39 -1
40 40 4
41 40 -1
55 40 -1
41 41 4
42 41 -1
56 41 -1
42 42 4
43 42 -1
57 42 -1
43 43 4
44 43 -1
58 43 -1
44 44 4
45 44 -1
59 44 -1
45 45 4
60 45 -1
46 46 4
47 46 -1
61 46 -1
47 47 4
48 47 -1
62 47 -1
48 48 4
49 48 -1
63 48 -1
49 49 4
50 49 -1
64 49 -1
50 50 4
51 50 -1
65 50 -1
51 51 4
52 51 -1
66 51 -1
52 52 4
53 52 -1
67 52 -1
53 53 4
54 53 -1
68 53 -1
54 54 4
55 54 -1
69 54 -1
55 55 4
56 55 -1
70 55 -1
56 56 4
57 56 -1
71 56 -1
57 57 4
58 57 -1
72 57 -1
58 58 4
59 58 -1
73 58 -1
59 59 4
60 59 -1
74 59 -1
60 60 4
75 60 -1
61 61 4
62 61 -1
76 61 -1
62 62 4
63 62 -1
77 62 -1
63 63 4
64 63 -1
78 63 -1
64 64 4
65 64 -1
79 64 -1
65 65 4
66 65 -1
80 65 -1
66 66 4
67 66 -1
81 66 -1
67 67 4
68 67 -1
82 67 -1
68 68 4
69 68 -1
83 68 -1
69 69 4
70 69 -1
84 69 -1
70 70 4
71 70 -1
85 70 -1
71 71 4
72 71 -1
86 71 -1
72 72 4
73 72 -1
87 72 -1
73 73 4
74 73 -1
88 73 -1
74 74 4
75 74 -1
89 74 -1
75 75 4
90 75 -1
76 76 4
77 76 -1
91 76 -1
77 77 4
78 77 -1
92 77 -1
78 78 4
79 78 -1
93 78 -1
79 79 4
80 79 -1
94 79 -1
80 80 4
81 80 -1
95 80 -1
81 81 4
82 81 -1
96 81 -1
82 82 4
83 82 -1
97 82 -1
83 83 4
84 83 -1
98 83 -1
84 84 4
85 84 -1
99 84 -1
85 85 4
86 85 -1
100 85 -1
86 86 4
87 86 -1
101 86 -1
87 87 4
88 87 -1
102 87 -1
88 88 4
89 88 -1
103 88 -1
89 89 4
90 89 -1
104 89 -1
90 90 4
105 90 -1
91 91 4
92 91 -1
106 91 -1
92 92 4
93 92 -1
107 92 -1
93 93 4
94 93 -1
108 93 -1
94 94 4
95 94 -1
109 94 -1
95 95 4
96 95 -1
110 95 -1
96 96 4
97 96 -1
111 96 -1
97 97 4
98 97 -1
112 97 -1
98 98 4
99 98 -1
113 98 -1
99 99 4
100 99 -1
114 99 -1
100 100 4
101 100 -1
115 100 -1
101 101 4
102 101 -1
116 101 -1
102 102 4
103 102 -1
117 102 -1
103 103 4
104 103 -1
118 103 -1
104 104 4
105 104 -1
119 104 -1
105 105 4
120 105 -1
106 106 4
107 106 -1
121 106 -1
107 107 4
108 107 -1
122 107 -1
108 108 4
109 108 -1
123 108 -1
109 109 4
110 109 -1
124 109 -1
110 110 4
111 110 -1
125 110 -1
111 111 4
112 111 -1
126 111 -1
112 112 4
113 112 -1
127 112 -1
113 113 4
114 113 -1
128 113 -1
114 114 4
115 114 -1
129 114 -1
115 115 4
116 115 -1
130 115 -1
116 116 4
117 116 -1
131 116 -1
117 117 4
118 117 -1
132 117 -1
118 118 4
119 118 -1
133 118 -1
119 119 4
120 119 -1
134 119 -1
120 120 4
135 120 -1
121 121 4
122 121 -1
136 121 -1
122 122 4
123 122 -1
137 122 -1
123 123 4
124 123 -1
138 123 -1
124 124 4
125 124 -1
139 124 -1
125 125 4
126 125 -1
140 125 -1
126 126 4
127 126 -1
141 126 -1
127 127 4
128 127 -1
142 127 -1
128 128 4
129 128 -1
143 128 -1
129 129 4
130 129 -1
144 129 -1
130 130 4
131 130 -1
145 130 -1
131 131 4
132 131 -1
146 131 -1
132 132 4
133 132 -1
147 132 -1
133 133 4
134 133 -1
148 133 -1
134 134 4
135 134 -1
149 134 -1
135 135 4
150 135 -1
136 136 4
137 136 -1
151 136 -1
137 137 4
138 137 -1
152 137 -1
138 138 4
139 138 -1
153 138 -1
139 139 4
140 139 -1
154 139 -1
140 140 4
141 140 -1
155 140 -1
141 141 4
142 141 -1
156 141 -1
142 142 4
143 142 -1
157 142 -1
143 143 4
144 143 -1
158 143 -1
144 144 4
145 144 -1
159 144 -1
145 145 4
146 145 -1
160 145 -1
146 146 4
147 146 -1
161 146 -1
147 147 4
148 147 -1
162 147 -1
148 148 4
149 148 -1
163 148 -1
149 149 4
150 149 -1
164 149 -1
150 150 4
165 150 -1
151 151 4
152 151 -1
166 151 -1
152 152 4
153 152 -1
167 152 -1
153 153 4
154 153 -1
168 153 -1
154 154 4
155 154 -1
169 154 -1
155 155 4
156 155 -1
170 155 -1
156 156 4
157 156 -1
171 156 -1
157 157 4
158 157 -1
172 157 -1
158 158 4
159 158 -1
173 158 -1
159 159 4
160 159 -1
174 159 -1
160 160 4
161 160 -1
175 160 -1
161 161 4
162 161 -1
176 161 -1
162 162 4
163 162 -1
177 162 -1
163 163 4
164 163 -1
178 163 -1
164 164 4
165 164 -1
179 164 -1
165 165 4
180 165 -1
166 166 4
167 166 -1
181 166 -1
167 167 4
168 167 -1
182 167 -1
168 168 4
169 168 -1
183 168 -1
169 169 4
170 169 -1
184 169 -1
170 170 4
171 170 -1
185 170 -1
171 171 4
172 171 -1
186 171 -1
172 172 4
173 172 -1
187 172 -1
173 173 4
174 173 -1
188 173 -1
174 174 4
175 174 -1
189 174 -1
175 175 4
176 175 -1
190 175 -1
176 176 4
177 176 -1
191 176 -1
177 177 4
178 177 -1
192 177 -1
178 178 4
179 178 -1
193 178 -1
179 179 4
180 179 -1
194 179 -1
180 180 4
195 180 -1
181 181 4
182 181 -1
196 181 -1
182 182 4
183 182 -1
197 182 -1
183 183 4
184 183 -1
198 183 -1
184 184 4
185 184 -1
199 184 -1
185 185 4
186 185 -1
200 185 -1
186 186 4
187 186 -1
201 186 -1
187 187 4
188 187 -1
202 187 -1
188 188 4
189 188 -1
203 188 -1
189 189 4
190 189 -1
204 189 -1
190 190 4
191 190 -1
205 190 -1
191 191 4
192 191 -1
206 191 -1
192 192 4
193 192 -1
207 192 -1
193 193 4
194 193 -1
208 193 -1
194 194 4
195 194 -1
209 194 -1
195 195 4
210 195 -1
196 196 4
197 196 -1
211 196 -1
197 197 4
198 197 -1
212 197 -1
198 198 4
199 198 -1
213 198 -1
199 199 4
200 199 -1
214 199 -1
200 200 4
201 200 -1
215 200 -1
201 201 4
202 201 -1
216 201 -1
202 202 4
203 202 -1
217 202 -1
203 203 4
204 203 -1
218 203 -1
204 204 4
205 204 -1
219 204 -1
205 205 4
206 205 -1
220 205 -1
206 206 4
207 206 -1
221 206 -1
207 207 4
208 207 -1
222 207 -1
208 208 4
209 208 -1
223 208 -1
209 209 4
210 209 -1
224 209 -1
210 210 4
225 210 -1
211 211 4
212 211 -1
226 211 -1
212 212 4
213 212 -1
227 212 -1
213 213 4
214 213 -1
228 213 -1
214 214 4
215 214 -1
229 214 -1
215 215 4
216 215 -1
230 215 -1
216 216 4
217 216 -1
231 216 -1
217 217 4
218 217 -1
232 217 -1
218 218 4
219 218 -1
233 218 -1
219 219 4
220 219 -1
234 219 -1
220 220 4
221 220 -1
235 220 -1
221 221 4
222 221 -1
236 221 -1
222 222 4
223 222 -1
237 222 -1
223 223 4
224 223 -1
238 223 -1
224 224 4
225 224 -1
239 224 -1
225 225 4
240 225 -1
226 226 4
227 226 -1
241 226 -1
227 227 4
228 227 -1
242 227 -1
228 228 4
229 228 -1
243 228 -1
229 229 4
230 229 -1
244 229 -1
230 230 4
231 230 -1
245 230 -1
231 231 4
232 231 -1
246 231 -1
232 232 4
233 232 -1
247 232 -1
233 233 4
234 233 -1
248 233 -1
234 234 4
235 234 -1
249 234 -1
235 235 4
236 235 -1
250 235 -1
236 236 4
237 236 -1
251 236 -1
237 237 4
238 237 -1
252 237 -1
238 238 4
239 238 -1
253 238 -1
239 239 4
240 239 -1
254 239 -1
240 240 4
255 240 -1
241 241 4
242 241 -1
272 241 -1
242 242 4
243 242 -1
273 242 -1
243 243 4
244 243 -1
274 243 -1
244 244 4
245 244 -1
275 244 -1
245 245 4
246 245 -1
276 245 -1
246 246 4
247 246 -1
277 246 -1
247 247 4
248 247 -1
278 247 -1
248 248 4
249 248 -1
279 248 -1
249 249 4
250 249 -1
280 249 -1
250 250 4
251 250 -1
281 250 -1
251 251 4
252 251 -1
282 251 -1
252 252 4
253 252 -1
283 252 -1
253 253 4
254 253 -1
284 253 -1
254 254 4
255 254 -1
285 254 -1
255 255 4
256 255 -1
286 255 -1
256 256 4
257 256 -1
287 256 -1
257 257 4
258 257 -1
288 257 -1
258 258 4
259 258 -1
289 258 -1
259 259 4
260 259 -1
290 259 -1
260 260 4
261 260 -1
291 260 -1
261 261 4
262 261 -1
292 261 -1
262 262 4
263 262 -1
293 262 -1
263 263 4
264 263 -1
294 263 -1
264 264 4
265 264 -1
295 264 -1
265 265 4
266 265 -1
296 265 -1
266 266 4
267 266 -1
297 266 -1
267 267 4
268 267 -1
298 267 -1
268 268 4
269 268 -1
299 268 -1
269 269 4
270 269 -1
300 269 -1
270 270 4
271 270 -1
301 270 -1
271 271 4
302 271 -1
272 272 4
273 272 -1
303 272 -1
273 273 4
274 273 -1
304 273 -1
274 274 4
275 274 -1
305 274 -1
275 275 4
276 275 -1
306 275 -1
276 276 4
277 276 -1
307 276 -1
277 277 4
278 277 -1
308 277 -1
278 278 4
279 278 -1
309 278 -1
279 279 4
280 279 -1
310 279 -1
280 280 4
281 280 -1
311 280 -1
281 281 4
282 281 -1
312 281 -1
282 282 4
283 282 -1
313 282 -1
283 283 4
284 283 -1
314 283 -1
284 284 4
285 284 -1
315 284 -1
285 285 4
286 285 -1
316 285 -1
286 286 4
287 286 -1
317 286 -1
287 287 4
288 287 -1
318 287 -1
288 288 4
289 288 -1
319 288 -1
289 289 4
290 289 -1
320 289 -1
290 290 4
291 290 -1
321 290 -1
291 291 4
292 291 -1
322 291 -1
292 292 4
293 292 -1
323 292 -1
293 293 4
294 293 -1
324 293 -1
294 294 4
295 294 -1
325 294 -1
295 295 4
296 295 -1
326 295 -1
296 296 4
297 296 -1
327 296 -1
297 297 4
298 297 -1
328 297 -1
298 298 4
299 298 -1
329 298 -1
299 299 4
300 299 -1
330 299 -1
300 300 4
301 300 -1
331 300 -1
301 301 4
302 301 -1
332 301 -1
302 302 4
333 302 -1
303 303 4
304 303 -1
334 303 -1
304 304 4
305 304 -1
335 304 -1
305 305 4
306 305 -1
336 305 -1
306 306 4
307 306 -1
337 306 -1
307 307 4
308 307 -1
338 307 -1
308 308 4
309 308 -1
339 308 -1
309 309 4
310 309 -1
340 309 -1
310 310 4
311 310 -1
341 310 -1
311 311 4
312 311 -1
342 311 -1
312 312 4
313 312 -1
343 312 -1
313 313 4
314 313 -1
344 313 -1
314 314 4
315 314 -1
345 314 -1
315 315 4
316 315 -1
346 315 -1
316 316 4
317 316 -1
347 316 -1
317 317 4
318 317 -1
348 317 -1
318 318 4
319 318 -1
349 318 -1
319 319 4
320 319 -1
350 319 -1
320 320 4
321 320 -1
351 320 -1
321 321 4
322 321 -1
352 321 -1
322 322 4
323 322 -1
353 322 -1
323 323 4
324 323 -1
354 323 -1
324 324 4
325 324 -1
355 324 -1
325 325 4
326 325 -1
356 325 -1
326 326 4
327 326 -1
357 326 -1
327 327 4
328 327 -1
358 327 -1
328 328 4
329 328 -1
359 328 -1
329 329 4
330 329 -1
360 329 -1
330 330 4
331 330 -1
361 330 -1
331 331 4
332 331 -1
362 331 -1
332 332 4
333 332 -1
363 332 -1
333 333 4
364 333 -1
334 334 4
335 334 -1
365 334 -1
335 335 4
336 335 -1
366 335 -1
336 336 4
337 336 -1
367 336 -1
337 337 4
338 337 -1
368 337 -1
338 338 4
339 338 -1
369 338 -1
339 339 4
340 339 -1
370 339 -1
340 340 4
341 340 -1
371 340 -1
341 341 4
342 341 -1
372 341 -1
342 342 4
343 342 -1
373 342 -1
343 343 4
344 343 -1
374 343 -1
344 344 4
345 344 -1
375 344 -1
345 345 4
346 345 -1
376 345 -1
346 346 4
347 346 -1
377 346 -1
347 347 4
348 347 -1
378 347 -1
348 348 4
349 348 -1
379 348 -1
349 349 4
350 349 -1
380 349 -1
350 350 4
351 350 -1
381 350 -1
351 351 4
352 351 -1
382 351 -1
352 352 4
353 352 -1
383 352 -1
353 353 4
354 353 -1
384 353 -1
354 354 4
355 354 -1
385 354 -1
355 355 4
356 355 -1
386 355 -1
356 356 4
357 356 -1
387 356 -1
357 357 4
358 357 -1
388 357 -1
358 358 4
359 358 -1
389 358 -1
359 359 4
360 359 -1
390 359 -1
360 360 4
361 360 -1
391 360 -1
361 361 4
362 361 -1
392 361 -1
362 362 4
363 362 -1
393 362 -1
363 363 4
364 363 -1
394 363 -1
364 364 4
395 364 -1
365 365 4
366 365 -1
396 365 -1
366 366 4
367 366 -1
397 366 -1
367 367 4
368 367 -1
398 367 -1
368 368 4
369 368 -1
399 368 -1
369 369 4
370 369 -1
400 369 -1
370 370 4
371 370 -1
401 370 -1
371 371 4
372 371 -1
402 371 -1
372 372 4
373 372 -1
403 372 -1
373 373 4
374 373 -1
404 373 -1
374 374 4
375 374 -1
405 374 -1
375 375 4
376 375 -1
406 375 -1
376 376 4
377 376 -1
407 376 -1
377 377 4
378 377 -1
408 377 -1
378 378 4
379 378 -1
409 378 -1
379 379 4
380 379 -1
410 379 -1
380 380 4
381 380 -1
411 380 -1
381 381 4
382 381 -1
412 381 -1
382 382 4
383 382 -1
413 382 -1
383 383 4
384 383 -1
414 383 -1
384 384 4
385 384 -1
415 384 -1
385 385 4
386 385 -1
416 385 -1
386 386 4
387 386 -1
417 386 -1
387 387 4
388 387 -1
418 387 -1
388 388 4
389 388 -1
419 388 -1
389 389 4
390 389 -1
420 389 -1
390 390 4
391 390 -1
421 390 -1
391 391 4
392 391 -1
422 391 -1
392 392 4
393 392 -1
423 392 -1
393 393 4
394 393 -1
424 393 -1
394 394 4
395 394 -1
425 394 -1
395 395 4
426 395 -1
396 396 4
397 396 -1
427 396 -1
397 397 4
398 397 -1
428 397 -1
398 398 4
399 398 -1
429 398 -1
399 399 4
400 399 -1
430 399 -1
400 400 4
401 400 -1
431 400 -1
401 401 4
402 401 -1
432 401 -1
402 402 4
403 402 -1
433 402 -1
403 403 4
404 403 -1
434 403 -1
404 404 4
405 404 -1
435 404 -1
405 405 4
406 405 -1
436 405 -1
406 406 4
407 406 -1
437 406 -1
407 407 4
408 407 -1
438 407 -1
408 408 4
409 408 -1
439 408 -1
409 409 4
410 409 -1
440 409 -1
410 410 4
411 410 -1
441 410 -1
411 411 4
412 411 -1
442 411 -1
412 412 4
413 412 -1
443 412 -1
413 413 4
414 413 -1
444 413 -1
414 414 4
415 414 -1
445 414 -1
415 415 4
416 415 -1
446 415 -1
416 416 4
417 416 -1
447 416 -1
417 417 4
418 417 -1
448 417 -1
418 418 4
419 418 -1
449 418 -1
419 419 4
420 419 -1
450 419 -1
420 420 4
421 420 -1
451 420 -1
421 421 4
422 421 -1
452 421 -1
422 422 4
423 422 -1
453 422 -1
423 423 4
424 423 -1
454 423 -1
424 424 4
425 424 -1
455 424 -1
425 425 4
426 425 -1
456 425 -1
426 426 4
457 426 -1
427 427 4
428 427 -1
458 427 -1
428 428 4
429 428 -1
459 428 -1
429 429 4
430 429 -1
460 429 -1
430 430 4
431 430 -1
461 430 -1
431 431 4
432 431 -1
462 431 -1
432 432 4
433 432 -1
463 432 -1
433 433 4
434 433 -1
464 433 -1
434 434 4
435 434 -1
465 434 -1
435 435 4
436 435 -1
466 435 -1
436 436 4
437 436 -1
467 436 -1
437 437 4
438 437 -1
468 437 -1
438 438 4
439 438 -1
469 438 -1
439 439 4
440 439 -1
470 439 -1
440 440 4
441 440 -1
471 440 -1
441 441 4
442 441 -1
472 441 -1
442 442 4
443 442 -1
473 442 -1
443 443 4
444 443 -1
474 443 -1
444 444 4
445 444 -1
475 444 -1
445 445 4
446 445 -1
476 445 -1
446 446 4
447 446 -1
477 446 -1
447 447 4
448 447 -1
478 447 -1
448 448 4
449 448 -1
479 448 -1
449 449 4
450 449 -1
480 449 -1
450 450 4
451 450 -1
481 450 -1
451 451 4
452 451 -1
482 451 -1
452 452 4
453 452 -1
483 452 -1
453 453 4
454 453 -1
484 453 -1
454 454 4
455 454 -1
485 454 -1
455 455 4
456 455 -1
486 455 -1
456 456 4
457 456 -1
487 456 -1
457 457 4
488 457 -1
458 458 4
459 458 -1
489 458 -1
459 459 4
460 459 -1
490 459 -1
460 460 4
461 460 -1
491 460 -1
461 461 4
462 461 -1
492 461 -1
462 462 4
463 462 -1
493 462 -1
463 463 4
464 463 -1
494 463 -1
464 464 4
465 464 -1
495 464 -1
465 465 4
466 465 -1
496 465 -1
466 466 4
467 466 -1
497 466 -1
467 467 4
468 467 -1
498 467 -1
468 468 4
469 468 -1
499 468 -1
469 469 4
470 469 -1
500 469 -1
470 470 4
471 470 -1
501 470 -1
471 471 4
472 471 -1
502 471 -1
472 472 4
473 472 -1
503 472 -1
473 473 4
474 473 -1
504 473 -1
474 474 4
475 474 -1
505 474 -1
475 475 4
476 475 -1
506 475 -1
476 476 4
477 476 -1
507 476 -1
477 477 4
478 477 -1
508 477 -1
478 478 4
479 478 -1
509 478 -1
479 479 4
480 479 -1
510 479 -1
480 480 4
481 480 -1
511 480 -1
481 481 4
482 481 -1
512 481 -1
482 482 4
483 482 -1
513 482 -1
483 483 4
484 483 -1
514 483 -1
484 484 4
485 484 -1
515 484 -1
485 485 4
486 485 -1
516 485 -1
486 486 4
487 486 -1
517 486 -1
487 487 4
488 487 -1
518 487 -1
488 488 4
519 488 -1
489 489 4
490 489 -1
520 489 -1
490 490 4
491 490 -1
521 490 -1
491 491 4
492 491 -1
522 491 -1
492 492 4
493 492 -1
523 492 -1
493 493 4
494 493 -1
524 493 -1
494 494 4
495 494 -1
525 494 -1
495 495 4
496 495 -1
526 495 -1
496 496 4
497 496 -1
527 496 -1
497 497 4
498 497 -1
528 497 -1
498 498 4
499 498 -1
529 498 -1
499 499 4
500 499 -1
530 499 -1
500 500 4
501 500 -1
531 500 -1
501 501 4
502 501 -1
532 501 -1
502 502 4
503 502 -1
533 502 -1
503 503 4
504 503 -1
534 503 -1
504 504 4
505 504 -1
535 504 -1
505 505 4
506 505 -1
536 505 -1
506 506 4
507 506 -1
537 506 -1
507 507 4
508 507 -1
538 507 -1
508 508 4
509 508 -1
539 508 -1
509 509 4
510 509 -1
540 509 -1
510 510 4
511 510 -1
541 510 -1
511 511 4
512 511 -1
542 511 -1
512 512 4
513 512 -1
543 512 -1
513 513 4
514 513 -1
544 513 -1
514 514 4
515 514 -1
545 514 -1
515 515 4
516 515 -1
546 515 -1
516 516 4
517 516 -1
547 516 -1
517 517 4
518 517 -1
548 517 -1
518 518 4
519 518 -1
549 518 -1
519 519 4
550 519 -1
520 520 4
521 520 -1
551 520 -1
521 521 4
522 521 -1
552 521 -1
522 522 4
523 522 -1
553 522 -1
523 523 4
524 523 -1
554 523 -1
524 524 4
525 524 -1
555 524 -1
525 525 4
526 525 -1
556 525 -1
526 526 4
527 526 -1
557 526 -1
527 527 4
528 527 -1
558 527 -1
528 528 4
529 528 -1
559 528 -1
529 529 4
530 529 -1
560 529 -1
530 530 4
531 530 -1
561 530 -1
531 531 4
532 531 -1
562 531 -1
532 532 4
533 532 -1
563 532 -1
533 533 4
534 533 -1
564 533 -1
534 534 4
535 534 -1
565 534 -1
535 535 4
536 535 -1
566 535 -1
536 536 4
537 536 -1
567 536 -1
537 537 4
538 537 -1
568 537 -1
538 538 4
539 538 -1
569 538 -1
539 539 4
540 539 -1
570 539 -1
540 540 4
541 540 -1
571 540 -1
541 541 4
542 541 -1
572 541 -1
542 542 4
543 542 -1
573 542 -1
543 543 4
544 543 -1
574 543 -1
544 544 4
545 544 -1
575 544 -1
545 545 4
546 545 -1
576 545 -1
546 546 4
547 546 -1
577 546 -1
547 547 4
548 547 -1
578 547 -1
548 548 4
549 548 -1
579 548 -1
549 549 4
550 549 -1
580 549 -1
550 550 4
581 550 -1
551 551 4
552 551 -1
582 551 -1
552 552 4
553 552 -1
583 552 -1
553 553 4
554 553 -1
584 553 -1
554 554 4
555 554 -1
585 554 -1
555 555 4
556 555 -1
586 555 -1
556 556 4
557 556 -1
587 556 -1
557 557 4
558 557 -1
588 557 -1
558 558 4
559 558 -1
589 558 -1
559 559 4
560 559 -1
590 559 -1
560 560 4
561 560 -1
591 560 -1
561 561 4
562 561 -1
592 561 -1
562 562 4
563 562 -1
593 562 -1
563 563 4
564 563 -1
594 563 -1
564 564 4
565 564 -1
595 564 -1
565 565 4
566 565 -1
596 565 -1
566 566 4
567 566 -1
597 566 -1
567 567 4
568 567 -1
598 567 -1
568 568 4
569 568 -1
599 568 -1
569 569 4
570 569 -1
600 569 -1
570 570 4
571 570 -1
601 570 -1
571 571 4
572 571 -1
602 571 -1
572 572 4
573 572 -1
603 572 -1
573 573 4
574 573 -1
604 573 -1
574 574 4
575 574 -1
605 574 -1
575 575 4
576 575 -1
606 575 -1
576 576 4
577 576 -1
607 576 -1
577 577 4
578 577 -1
608 577 -1
578 578 4
579 578 -1
609 578 -1
579 579 4
580 579 -1
610 579 -1
580 580 4
581 580 -1
611 580 -1
581 581 4
612 581 -1
582 582 4
583 582 -1
613 582 -1
583 583 4
584 583 -1
614 583 -1
584 584 4
585 584 -1
615 584 -1
585 585 4
586 585 -1
616 585 -1
586 586 4
587 586 -1
617 586 -1
587 587 4
588 587 -1
618 587 -1
588 588 4
589 588 -1
619 588 -1
589 589 4
590 589 -1
620 589 -1
590 590 4
591 590 -1
621 590 -1
591 591 4
592 591 -1
622 591 -1
592 592 4
593 592 -1
623 592 -1
593 593 4
594 593 -1
624 593 -1
594 594 4
595 594 -1
625 594 -1
595 595 4
596 595 -1
626 595 -1
596 596 4
597 596 -1
627 596 -1
597 597 4
598 597 -1
628 597 -1
598 598 4
599 598 -1
629 598 -1
599 599 4
600 599 -1
630 599 -1
600 600 4
601 600 -1
631 600 -1
601 601 4
602 601 -1
632 601 -1
602 602 4
603 602 -1
633 602 -1
603 603 4
604 603 -1
634 603 -1
604 604 4
605 604 -1
635 604 -1
605 605 4
606 605 -1
636 605 -1
606 606 4
607 606 -1
637 606 -1
607 607 4
608 607 -1
638 607 -1
608 608 4
609 608 -1
639 608 -1
609 609 4
610 609 -1
640 609 -1
610 610 4
611 610 -1
641 610 -1
611 611 4
612 611 -1
642 611 -1
612 612 4
643 612 -1
613 613 4
614 613 -1
644 613 -1
614 614 4
615 614 -1
645 614 -1
615 615 4
616 615 -1
646 615 -1
616 616 4
617 616 -1
647 616 -1
617 617 4
618 617 -1
648 617 -1
618 618 4
619 618 -1
649 618 -1
619 619 4
620 619 -1
650 619 -1
620 620 4
621 620 -1
651 620 -1
621 621 4
622 621 -1
652 621 -1
622 622 4
623 622 -1
653 622 -1
623 623 4
624 623 -1
654 623 -1
624 624 4
625 624 -1
655 624 -1
625 625 4
626 625 -1
656 625 -1
626 626 4
627 626 -1
657 626 -1
627 627 4
628 627 -1
658 627 -1
628 628 4
629 628 -1
659 628 -1
629 629 4
630 629 -1
660 629 -1
630 630 4
631 630 -1
661 630 -1
631 631 4
632 631 -1
662 631 -1
632 632 4
633 632 -1
663 632 -1
633 633 4
634 633 -1
664 633 -1
634 634 4
635 634 -1
665 634 -1
635 635 4
636 635 -1
666 635 -1
636 636 4
637 636 -1
667 636 -1
637 637 4
638 637 -1
668 637 -1
638 638 4
639 638 -1
669 638 -1
639 639 4
640 639 -1
670 639 -1
640 640 4
641 640 -1
671 640 -1
641 641 4
642 641 -1
672 641 -1
642 642 4
643 642 -1
673 642 -1
643 643 4
674 643 -1
644 644 4
645 644 -1
675 644 -1
645 645 4
646 645 -1
676 645 -1
646 646 4
647 646 -1
677 646 -1
647 647 4
648 647 -1
678 647 -1
648 648 4
649 648 -1
679 648 -1
649 649 4
650 649 -1
680 649 -1
650 650 4
651 650 -1
681 650 -1
651 651 4
652 651 -1
682 651 -1
652 652 4
653 652 -1
683 652 -1
653 653 4
654 653 -1
684 653 -1
654 654 4
655 654 -1
685 654 -1
655 655 4
656 655 -1
686 655 -1
656 656 4
657 656 -1
687 656 -1
657 657 4
658 657 -1
688 657 -1
658 658 4
659 658 -1
689 658 -1
659 659 4
660 659 -1
690 659 -1
660 660 4
661 660 -1
691 660 -1
661 661 4
662 661 -1
692 661 -1
662 662 4
663 662 -1
693 662 -1
663 663 4
664 663 -1
694 663 -1
664 664 4
665 664 -1
695 664 -1
665 665 4
666 665 -1
696 665 -1
666 666 4
667 666 -1
697 666 -1
667 667 4
668 667 -1
698 667 -1
668 668 4
669 668 -1
699 668 -1
669 669 4
670 669 -1
700 669 -1
670 670 4
671 670 -1
701 670 -1
671 671 4
672 671 -1
702 671 -1
672 672 4
673 672 -1
703 672 -1
673 673 4
674 673 -1
704 673 -1
674 674 4
705 674 -1
675 675 4
676 675 -1
676 676 4
677 676 -1
677 677 4
678 677 -1
678 678 4
679 678 -1
679 679 4
680 679 -1
680 680 4
681 680 -1
681 681 4
682 681 -1
682 682 4
683 682 -1
683 683 4
684 683 -1
684 684 4
685 684 -1
685 685 4
686 685 -1
686 686 4
687 686 -1
687 687 4
688 687 -1
688 688 4
689 688 -1
689 689 4
690 689 -1
690 690 4
691 690 -1
691 691 4
692 691 -1
692 692 4
693 692 -1
693 693 4
694 693 -1
694 694 4
695 694 -1
695 695 4
696 695 -1
696 696 4
697 696 -1
697 697 4
698 697 -1
698 698 4
699 698 -1
699 699 4
700 699 -1
700 700 4
701 700 -1
701 701 4
702 701 -1
702 702 4
703 702 -1
703 703 4
704 703 -1
704 704 4
705 704 -1
705 705 4
