%%MatrixMarket matrix coordinate real symmetric
% lshape_graded_p1_n16 mass M[int,int], mesh=lshape_graded_16 p=1, interior-restricted
% lower triangle only (row >= col); mirror for the full matrix
705 705 2698
1 1 0.0027918562393464143
2 1 0.00045767883006411216
16 1 0.00045767883006411216
17 1 0.00045004731350398419
2 2 0.0027460727913745449
3 2 0.00045767883006411314
17 2 0.00044241716253854801
18 2 0.00044241716253854845
3 3 0.002746072791374544
4 3 0.00045767883006411216
18 3 0.00044241716253854801
19 3 0.00044241716253854758
4 4 0.0027460727913745449
5 4 0.00045767883006411314
19 4 0.00044241716253854801
20 4 0.00044241716253854845
5 5 0.0027460727913745462
6 5 0.00045767883006411303
20 5 0.00044241716253854801
21 5 0.00044241716253854801
6 6 0.0027460727913745449
7 6 0.00045767883006411227
21 6 0.00044241716253854845
22 6 0.00044241716253854801
7 7 0.0027460727913745445
8 7 0.00045767883006411303
22 7 0.0004424171625385478
23 7 0.00044241716253854823
8 8 0.0027460727913745453
9 8 0.0004576788300641126
23 8 0.00044241716253854823
24 8 0.00044241716253854801
9 9 0.0027460727913745445
10 9 0.00045767883006411265
24 9 0.00044241716253854801
25 9 0.00044241716253854801
10 10 0.0027460727913745453
11 10 0.00045767883006411308
25 10 0.00044241716253854801
26 10 0.00044241716253854823
11 11 0.0027460727913745458
12 11 0.00045767883006411265
26 11 0.00044241716253854834
27 11 0.00044241716253854812
12 12 0.0027460727913745445
13 12 0.00045767883006411265
27 12 0.00044241716253854801
28 12 0.00044241716253854801
13 13 0.0027460727913745453
14 13 0.00045767883006411287
28 13 0.00044241716253854807
29 13 0.00044241716253854818
14 14 0.0027460727913745458
15 14 0.00045767883006411276
29 14 0.00044241716253854818
30 14 0.00044241716253854812
15 15 0.0027460727913745453
30 15 0.00044241716253854807
16 16 0.0027460727913745449
17 16 0.00044241716253854801
31 16 0.00045767883006411314
32 16 0.00044241716253854845
17 17 0.0026087153492908906
18 17 0.00042715518057073049
32 17 0.00042715518057073049
33 17 0.00041952334956834914
18 18 0.0025629308508350939
19 18 0.00042715518057072962
33 18 0.00041189308230826912
34 18 0.00041189308230826869
19 19 0.0025629308508350935
20 19 0.00042715518057073049
34 19 0.00041189308230826869
35 19 0.00041189308230826912
20 20 0.0025629308508350944
21 20 0.00042715518057072967
35 20 0.00041189308230826912
36 20 0.00041189308230826869
21 21 0.0025629308508350944
22 21 0.00042715518057073049
36 21 0.00041189308230826869
37 21 0.00041189308230826912
22 22 0.0025629308508350948
23 22 0.00042715518057073011
37 22 0.00041189308230826934
38 22 0.00041189308230826912
23 23 0.0025629308508350948
24 23 0.00042715518057073011
38 23 0.00041189308230826896
39 23 0.00041189308230826896
24 24 0.0025629308508350944
25 24 0.00042715518057073011
39 24 0.00041189308230826912
40 24 0.00041189308230826912
25 25 0.0025629308508350939
26 25 0.00042715518057073005
40 25 0.00041189308230826891
41 25 0.00041189308230826891
26 26 0.0025629308508350952
27 26 0.00042715518057073027
41 26 0.00041189308230826907
42 26 0.00041189308230826912
27 27 0.0025629308508350948
28 27 0.00042715518057073011
42 27 0.00041189308230826912
43 27 0.00041189308230826901
28 28 0.0025629308508350944
29 28 0.00042715518057073016
43 28 0.00041189308230826901
44 28 0.00041189308230826901
29 29 0.0025629308508350948
30 29 0.00042715518057073016
44 29 0.00041189308230826901
45 29 0.00041189308230826901
30 30 0.0025629308508350948
45 30 0.00041189308230826901
31 31 0.0027460727913745445
32 31 0.00044241716253854801
46 31 0.00045767883006411216
47 31 0.00044241716253854758
32 32 0.0025629308508350944
33 32 0.00041189308230826912
47 32 0.00042715518057072962
48 32 0.00041189308230826869
33 33 0.0024255690755888059
34 33 0.00039663059411302693
48 33 0.00039663059411302693
49 33 0.00038899837317786479
34 34 0.0023797832740013792
35 34 0.00039663059411302693
49 34 0.0003813679605793941
50 34 0.0003813679605793941
35 35 0.0023797832740013801
36 35 0.00039663059411302693
50 35 0.0003813679605793941
51 35 0.0003813679605793941
36 36 0.0023797832740013788
37 36 0.00039663059411302693
51 36 0.00038136796057939388
52 36 0.00038136796057939388
37 37 0.0023797832740013805
38 37 0.00039663059411302736
52 37 0.00038136796057939388
53 37 0.00038136796057939405
38 38 0.0023797832740013805
39 38 0.00039663059411302698
53 38 0.00038136796057939405
54 38 0.00038136796057939388
39 39 0.0023797832740013805
40 39 0.00039663059411302736
54 39 0.00038136796057939388
55 39 0.0003813679605793941
40 40 0.0023797832740013805
41 40 0.00039663059411302693
55 40 0.00038136796057939426
56 40 0.0003813679605793941
41 41 0.0023797832740013801
42 41 0.0003966305941130272
56 41 0.00038136796057939388
57 41 0.00038136796057939399
42 42 0.0023797832740013809
43 42 0.00039663059411302714
57 42 0.00038136796057939399
58 42 0.00038136796057939399
43 43 0.0023797832740013801
44 43 0.00039663059411302703
58 43 0.0003813679605793941
59 43 0.00038136796057939399
44 44 0.0023797832740013801
45 44 0.00039663059411302709
59 44 0.00038136796057939399
60 44 0.00038136796057939399
45 45 0.0023797832740013801
60 45 0.00038136796057939399
46 46 0.0027460727913745449
47 46 0.00044241716253854801
61 46 0.00045767883006411314
62 46 0.00044241716253854845
47 47 0.0025629308508350935
48 47 0.00041189308230826869
62 47 0.00042715518057073049
63 47 0.00041189308230826912
48 48 0.0023797832740013792
49 48 0.0003813679605793941
63 48 0.00039663059411302693
64 48 0.0003813679605793941
49 49 0.0022424160877669323
50 49 0.00036610483535280073
64 49 0.00036610483535280073
65 49 0.00035847212272467816
50 50 0.0021966286422606318
51 50 0.00036610483535280073
65 50 0.00035084152519812106
66 50 0.00035084152519812106
51 51 0.00219662864226063
52 51 0.00036610483535280035
66 51 0.00035084152519812074
67 51 0.00035084152519812052
52 52 0.0021966286422606292
53 52 0.00036610483535280035
67 52 0.00035084152519812052
68 52 0.00035084152519812052
53 53 0.00219662864226063
54 53 0.00036610483535280035
68 53 0.00035084152519812052
69 53 0.00035084152519812052
54 54 0.00219662864226063
55 54 0.0003661048353528004
69 54 0.00035084152519812074
70 54 0.00035084152519812074
55 55 0.0021966286422606309
56 55 0.00036610483535280073
70 55 0.00035084152519812068
71 55 0.00035084152519812084
56 56 0.0021966286422606305
57 56 0.0003661048353528004
71 56 0.00035084152519812074
72 56 0.00035084152519812052
57 57 0.0021966286422606296
58 57 0.00036610483535280035
72 57 0.00035084152519812063
73 57 0.00035084152519812063
58 58 0.00219662864226063
59 58 0.00036610483535280057
73 58 0.00035084152519812063
74 58 0.00035084152519812074
59 59 0.00219662864226063
60 59 0.00036610483535280046
74 59 0.00035084152519812074
75 59 0.00035084152519812063
60 60 0.00219662864226063
75 60 0.00035084152519812063
61 61 0.0027460727913745462
62 61 0.00044241716253854801
76 61 0.00045767883006411303
77 61 0.00044241716253854801
62 62 0.0025629308508350944
63 62 0.00041189308230826912
77 62 0.00042715518057072967
78 62 0.00041189308230826869
63 63 0.0023797832740013801
64 63 0.0003813679605793941
78 63 0.00039663059411302693
79 63 0.0003813679605793941
64 64 0.0021966286422606318
65 64 0.00035084152519812106
79 64 0.00036610483535280073
80 64 0.00035084152519812106
65 65 0.0020592545766626369
66 65 0.00033557758280332013
80 65 0.00033557758280332013
81 65 0.0003279442379350762
66 66 0.0020134650161677072
67 66 0.00033557758280331937
81 66 0.00032031340008241318
82 66 0.0003203134000824128
67 67 0.0020134650161677051
68 67 0.00033557758280331937
82 67 0.00032031340008241264
83 67 0.00032031340008241264
68 68 0.0020134650161677051
69 68 0.00033557758280331937
83 68 0.00032031340008241264
84 68 0.00032031340008241264
69 69 0.0020134650161677059
70 69 0.00033557758280331975
84 69 0.00032031340008241275
85 69 0.00032031340008241297
70 70 0.0020134650161677064
71 70 0.0003355775828033197
85 70 0.0003203134000824128
86 70 0.0003203134000824128
71 71 0.0020134650161677064
72 71 0.00033557758280331937
86 71 0.00032031340008241286
87 71 0.0003203134000824127
72 72 0.0020134650161677055
73 72 0.00033557758280331954
87 72 0.00032031340008241275
88 72 0.0003203134000824128
73 73 0.0020134650161677059
74 73 0.00033557758280331954
88 73 0.00032031340008241275
89 73 0.00032031340008241275
74 74 0.0020134650161677059
75 74 0.00033557758280331954
89 74 0.00032031340008241275
90 74 0.00032031340008241275
75 75 0.0020134650161677059
90 75 0.00032031340008241275
76 76 0.0027460727913745449
77 76 0.00044241716253854845
91 76 0.00045767883006411227
92 76 0.00044241716253854801
77 77 0.0025629308508350944
78 77 0.00041189308230826869
92 77 0.00042715518057073049
93 77 0.00041189308230826912
78 78 0.0023797832740013788
79 78 0.00038136796057939388
93 78 0.00039663059411302693
94 78 0.00038136796057939388
79 79 0.0021966286422606305
80 79 0.00035084152519812074
94 79 0.00036610483535280035
95 79 0.00035084152519812052
80 80 0.0020134650161677072
81 80 0.00032031340008241318
95 80 0.00033557758280331937
96 80 0.0003203134000824128
81 81 0.0018760820172996141
82 81 0.00030504838535736547
96 81 0.00030504838535736547
97 81 0.00029741420848498082
82 82 0.0018302896715571512
83 82 0.00030504838535736509
97 82 0.00028978305033879764
98 82 0.00028978305033879753
83 83 0.0018302896715571505
84 83 0.00030504838535736509
98 83 0.00028978305033879748
99 83 0.00028978305033879748
84 84 0.0018302896715571512
85 84 0.00030504838535736541
99 84 0.00028978305033879753
100 84 0.00028978305033879764
85 85 0.0018302896715571516
86 85 0.00030504838535736509
100 85 0.00028978305033879764
101 85 0.00028978305033879753
86 86 0.0018302896715571512
87 86 0.0003050483853573653
101 86 0.00028978305033879753
102 86 0.00028978305033879758
87 87 0.0018302896715571512
88 87 0.0003050483853573653
102 87 0.00028978305033879758
103 87 0.00028978305033879758
88 88 0.0018302896715571512
89 88 0.0003050483853573652
103 88 0.00028978305033879758
104 88 0.00028978305033879753
89 89 0.001830289671557151
90 89 0.0003050483853573652
104 89 0.00028978305033879753
105 89 0.00028978305033879753
90 90 0.001830289671557151
105 90 0.00028978305033879753
91 91 0.0027460727913745449
92 91 0.0004424171625385478
106 91 0.00045767883006411303
107 91 0.00044241716253854823
92 92 0.0025629308508350948
93 92 0.00041189308230826934
107 92 0.00042715518057073011
108 92 0.00041189308230826912
93 93 0.0023797832740013805
94 93 0.00038136796057939388
108 93 0.00039663059411302736
109 93 0.00038136796057939405
94 94 0.0021966286422606296
95 94 0.00035084152519812052
109 94 0.00036610483535280035
110 94 0.00035084152519812052
95 95 0.0020134650161677051
96 95 0.00032031340008241264
110 95 0.00033557758280331937
111 95 0.00032031340008241264
96 96 0.0018302896715571514
97 96 0.00028978305033879764
111 96 0.00030504838535736509
112 96 0.00028978305033879753
97 97 0.0016928947748452391
98 97 0.00027451658946881939
112 97 0.00027451658946881939
113 97 0.00026688128674502427
98 98 0.0016470986565325224
99 98 0.00027451658946881939
113 98 0.00025924968845864428
114 98 0.00025924968845864428
99 99 0.001647098656532522
100 99 0.00027451658946881939
114 99 0.00025924968845864407
115 99 0.00025924968845864407
100 100 0.0016470986565325226
101 100 0.00027451658946881939
115 100 0.00025924968845864428
116 100 0.00025924968845864428
101 101 0.0016470986565325222
102 101 0.00027451658946881939
116 101 0.00025924968845864418
117 101 0.00025924968845864418
102 102 0.0016470986565325222
103 102 0.00027451658946881939
117 102 0.00025924968845864418
118 102 0.00025924968845864418
103 103 0.0016470986565325224
104 103 0.00027451658946881939
118 103 0.00025924968845864423
119 103 0.00025924968845864423
104 104 0.0016470986565325224
105 104 0.00027451658946881939
119 104 0.00025924968845864423
120 104 0.00025924968845864423
105 105 0.0016470986565325224
120 105 0.00025924968845864423
106 106 0.0027460727913745458
107 106 0.00044241716253854823
121 106 0.0004576788300641126
122 106 0.00044241716253854801
107 107 0.0025629308508350948
108 107 0.00041189308230826896
122 107 0.00042715518057073011
123 107 0.00041189308230826896
108 108 0.0023797832740013801
109 108 0.00038136796057939405
123 108 0.00039663059411302698
124 108 0.00038136796057939388
109 109 0.00219662864226063
110 109 0.00035084152519812052
124 109 0.00036610483535280035
125 109 0.00035084152519812052
110 110 0.0020134650161677051
111 110 0.00032031340008241264
125 110 0.00033557758280331937
126 110 0.00032031340008241264
111 111 0.0018302896715571505
112 111 0.00028978305033879748
126 111 0.00030504838535736509
127 111 0.00028978305033879748
112 112 0.0016470986565325224
113 112 0.00025924968845864428
127 112 0.00027451658946881939
128 112 0.00025924968845864428
113 113 0.0015096874169679116
114 113 0.00024398121086946574
128 113 0.00024398121086946574
129 113 0.00023634433156666717
114 114 0.0014638860087300292
115 114 0.00024398121086946541
129 114 0.00022871210503690485
130 114 0.00022871210503690469
115 115 0.001463886008730029
116 115 0.00024398121086946571
130 115 0.00022871210503690469
131 115 0.00022871210503690482
116 116 0.0014638860087300292
117 116 0.00024398121086946555
131 116 0.00022871210503690474
132 116 0.00022871210503690466
117 117 0.0014638860087300288
118 117 0.00024398121086946555
132 117 0.00022871210503690469
133 117 0.00022871210503690469
118 118 0.001463886008730029
119 118 0.00024398121086946565
133 118 0.00022871210503690471
134 118 0.00022871210503690474
119 119 0.0014638860087300292
120 119 0.00024398121086946563
134 119 0.00022871210503690474
135 119 0.00022871210503690474
120 120 0.001463886008730029
135 120 0.00022871210503690471
121 121 0.0027460727913745449
122 121 0.00044241716253854801
136 121 0.00045767883006411265
137 121 0.00044241716253854801
122 122 0.0025629308508350948
123 122 0.00041189308230826912
137 122 0.00042715518057073011
138 122 0.00041189308230826912
123 123 0.0023797832740013805
124 123 0.00038136796057939388
138 123 0.00039663059411302736
139 123 0.0003813679605793941
124 124 0.00219662864226063
125 124 0.00035084152519812074
139 124 0.0003661048353528004
140 124 0.00035084152519812074
125 125 0.0020134650161677059
126 125 0.00032031340008241275
140 125 0.00033557758280331975
141 125 0.00032031340008241297
126 126 0.0018302896715571512
127 126 0.00028978305033879753
141 126 0.00030504838535736541
142 126 0.00028978305033879764
127 127 0.001647098656532522
128 127 0.00025924968845864407
142 127 0.00027451658946881939
143 127 0.00025924968845864407
128 128 0.001463886008730029
129 128 0.00022871210503690485
143 128 0.00024398121086946541
144 128 0.00022871210503690469
129 129 0.0013264514397420548
130 129 0.00021344069415218012
144 129 0.00021344069415218012
145 129 0.00020580150979721774
130 130 0.001280642282509189
131 130 0.00021344069415218009
145 130 0.00019816834206550971
146 130 0.00019816834206550971
131 131 0.0012806422825091892
132 131 0.00021344069415217993
146 131 0.00019816834206550979
147 131 0.00019816834206550971
132 132 0.0012806422825091888
133 132 0.00021344069415218001
147 132 0.00019816834206550971
148 132 0.00019816834206550974
133 133 0.001280642282509189
134 133 0.00021344069415218003
148 133 0.00019816834206550971
149 133 0.00019816834206550971
134 134 0.001280642282509189
135 134 0.00021344069415218003
149 134 0.00019816834206550974
150 134 0.00019816834206550974
135 135 0.001280642282509189
150 135 0.00019816834206550974
136 136 0.0027460727913745458
137 136 0.00044241716253854801
151 136 0.00045767883006411308
152 136 0.00044241716253854823
137 137 0.0025629308508350939
138 137 0.00041189308230826891
152 137 0.00042715518057073005
153 137 0.00041189308230826891
138 138 0.0023797832740013805
139 138 0.00038136796057939426
153 138 0.00039663059411302693
154 138 0.0003813679605793941
139 139 0.0021966286422606309
140 139 0.00035084152519812068
154 139 0.00036610483535280073
155 139 0.00035084152519812084
140 140 0.0020134650161677064
141 140 0.0003203134000824128
155 140 0.0003355775828033197
156 140 0.0003203134000824128
141 141 0.0018302896715571514
142 141 0.00028978305033879764
156 141 0.00030504838535736509
157 141 0.00028978305033879753
142 142 0.0016470986565325226
143 142 0.00025924968845864428
157 142 0.00027451658946881939
158 142 0.00025924968845864428
143 143 0.001463886008730029
144 143 0.00022871210503690469
158 143 0.00024398121086946571
159 143 0.00022871210503690482
144 144 0.001280642282509189
145 144 0.00019816834206550971
159 144 0.00021344069415218009
160 144 0.00019816834206550971
145 145 0.0011431727222961244
146 145 0.00018289242567542225
160 145 0.00018289242567542225
161 145 0.00017524967701704284
146 146 0.0010973515479951223
147 146 0.00018289242567542241
161 146 0.00016761500625662898
162 146 0.00016761500625662906
147 147 0.0010973515479951223
148 147 0.00018289242567542241
162 147 0.00016761500625662906
163 147 0.00016761500625662906
148 148 0.0010973515479951223
149 148 0.00018289242567542233
163 148 0.00016761500625662906
164 148 0.00016761500625662903
149 149 0.0010973515479951223
150 149 0.00018289242567542236
164 149 0.00016761500625662903
165 149 0.00016761500625662903
150 150 0.0010973515479951223
165 150 0.00016761500625662903
151 151 0.0027460727913745458
152 151 0.00044241716253854834
166 151 0.00045767883006411265
167 151 0.00044241716253854812
152 152 0.0025629308508350952
153 152 0.00041189308230826907
167 152 0.00042715518057073027
168 152 0.00041189308230826912
153 153 0.0023797832740013801
154 153 0.00038136796057939388
168 153 0.0003966305941130272
169 153 0.00038136796057939399
154 154 0.0021966286422606305
155 154 0.00035084152519812074
169 154 0.0003661048353528004
170 154 0.00035084152519812052
155 155 0.0020134650161677064
156 155 0.00032031340008241286
170 155 0.00033557758280331937
171 155 0.0003203134000824127
156 156 0.0018302896715571512
157 156 0.00028978305033879753
171 156 0.0003050483853573653
172 156 0.00028978305033879758
157 157 0.0016470986565325222
158 157 0.00025924968845864418
172 157 0.00027451658946881939
173 157 0.00025924968845864418
158 158 0.0014638860087300292
159 158 0.00022871210503690474
173 158 0.00024398121086946555
174 158 0.00022871210503690466
159 159 0.001280642282509189
160 159 0.00019816834206550979
174 159 0.00021344069415217993
175 159 0.00019816834206550971
160 160 0.0010973515479951223
161 160 0.00016761500625662898
175 160 0.00018289242567542241
176 160 0.00016761500625662906
161 161 0.00095982591776746975
162 161 0.00015233164093334607
176 161 0.00015233164093334607
177 161 0.00014468294637047697
162 162 0.00091398460205816424
163 162 0.00015233164093334607
177 162 0.00013704565383910707
178 162 0.00013704565383910707
163 163 0.00091398460205816424
164 163 0.00015233164093334607
178 163 0.00013704565383910707
179 163 0.00013704565383910707
164 164 0.00091398460205816424
165 164 0.00015233164093334607
179 164 0.00013704565383910707
180 164 0.00013704565383910707
165 165 0.00091398460205816424
180 165 0.00013704565383910707
166 166 0.0027460727913745449
167 166 0.00044241716253854801
181 166 0.00045767883006411265
182 166 0.00044241716253854801
167 167 0.0025629308508350948
168 167 0.00041189308230826912
182 167 0.00042715518057073011
183 167 0.00041189308230826901
168 168 0.0023797832740013809
169 168 0.00038136796057939399
183 168 0.00039663059411302714
184 168 0.00038136796057939399
169 169 0.00219662864226063
170 169 0.00035084152519812063
184 169 0.00036610483535280035
185 169 0.00035084152519812063
170 170 0.0020134650161677059
171 170 0.00032031340008241275
185 170 0.00033557758280331954
186 170 0.0003203134000824128
171 171 0.0018302896715571512
172 171 0.00028978305033879758
186 171 0.0003050483853573653
187 171 0.00028978305033879758
172 172 0.0016470986565325222
173 172 0.00025924968845864418
187 172 0.00027451658946881939
188 172 0.00025924968845864418
173 173 0.0014638860087300288
174 173 0.00022871210503690469
188 173 0.00024398121086946555
189 173 0.00022871210503690469
174 174 0.0012806422825091888
175 174 0.00019816834206550971
189 174 0.00021344069415218001
190 174 0.00019816834206550974
175 175 0.0010973515479951225
176 175 0.00016761500625662906
190 175 0.00018289242567542241
191 175 0.00016761500625662906
176 176 0.00091398460205816424
177 176 0.00013704565383910707
191 176 0.00015233164093334607
192 176 0.00013704565383910707
177 177 0.0007763603153314745
178 177 0.00012174860564763014
192 177 0.00012174860564763014
193 177 0.00011408884998752311
178 178 0.00073048121133874452
179 178 0.00012174860564763014
193 178 0.00010644634618263504
194 178 0.00010644634618263504
179 179 0.00073048121133874452
180 179 0.00012174860564763014
194 179 0.00010644634618263503
195 179 0.00010644634618263503
180 180 0.00073048121133874452
195 180 0.00010644634618263503
181 181 0.0027460727913745453
182 181 0.00044241716253854807
196 181 0.00045767883006411287
197 181 0.00044241716253854818
182 182 0.0025629308508350944
183 182 0.00041189308230826901
197 182 0.00042715518057073016
198 182 0.00041189308230826901
183 183 0.0023797832740013805
184 183 0.0003813679605793941
198 183 0.00039663059411302703
199 183 0.00038136796057939399
184 184 0.00219662864226063
185 184 0.00035084152519812063
199 184 0.00036610483535280057
200 184 0.00035084152519812074
185 185 0.0020134650161677059
186 185 0.00032031340008241275
200 185 0.00033557758280331954
201 185 0.00032031340008241275
186 186 0.0018302896715571512
187 186 0.00028978305033879758
201 186 0.0003050483853573652
202 186 0.00028978305033879753
187 187 0.0016470986565325222
188 187 0.00025924968845864423
202 187 0.00027451658946881939
203 187 0.00025924968845864423
188 188 0.001463886008730029
189 188 0.00022871210503690471
203 188 0.00024398121086946565
204 188 0.00022871210503690474
189 189 0.001280642282509189
190 189 0.00019816834206550971
204 189 0.00021344069415218003
205 189 0.00019816834206550971
190 190 0.0010973515479951223
191 190 0.00016761500625662906
205 190 0.00018289242567542233
206 190 0.00016761500625662903
191 191 0.00091398460205816424
192 191 0.00013704565383910707
206 191 0.00015233164093334607
207 191 0.00013704565383910707
192 192 0.00073048121133874452
193 192 0.00010644634618263504
207 192 0.00012174860564763014
208 192 0.00010644634618263504
193 193 0.00059265633665248193
194 193 9.1119659169358955e-05
208 193 9.1119659169358955e-05
209 193 8.3435475960970943e-05
194 194 0.00054669226751516908
195 194 9.1119659169358927e-05
209 194 7.57801284055906e-05
210 194 7.5780128405590586e-05
195 195 0.00054669226751516908
210 195 7.5780128405590586e-05
196 196 0.0027460727913745458
197 196 0.00044241716253854818
211 196 0.00045767883006411276
212 196 0.00044241716253854812
197 197 0.0025629308508350948
198 197 0.00041189308230826901
212 197 0.00042715518057073016
213 197 0.00041189308230826901
198 198 0.0023797832740013805
199 198 0.00038136796057939399
213 198 0.00039663059411302709
214 198 0.00038136796057939399
199 199 0.0021966286422606305
200 199 0.00035084152519812074
214 199 0.00036610483535280046
215 199 0.00035084152519812063
200 200 0.0020134650161677059
201 200 0.00032031340008241275
215 200 0.00033557758280331954
216 200 0.00032031340008241275
201 201 0.001830289671557151
202 201 0.00028978305033879753
216 201 0.0003050483853573652
217 201 0.00028978305033879753
202 202 0.0016470986565325222
203 202 0.00025924968845864423
217 202 0.00027451658946881939
218 202 0.00025924968845864423
203 203 0.0014638860087300292
204 203 0.00022871210503690474
218 203 0.00024398121086946563
219 203 0.00022871210503690474
204 204 0.001280642282509189
205 204 0.00019816834206550974
219 204 0.00021344069415218003
220 204 0.00019816834206550974
205 205 0.0010973515479951223
206 205 0.00016761500625662903
220 205 0.00018289242567542236
221 205 0.00016761500625662903
206 206 0.00091398460205816424
207 206 0.00013704565383910707
221 206 0.00015233164093334607
222 206 0.00013704565383910707
207 207 0.00073048121133874452
208 207 0.00010644634618263503
222 207 0.00012174860564763014
223 207 0.00010644634618263503
208 208 0.00054669226751516919
209 208 7.57801284055906e-05
223 208 9.1119659169358927e-05
224 208 7.5780128405590586e-05
209 209 0.00040833643312215509
210 209 6.03663703000533e-05
224 209 6.03663703000533e-05
225 209 5.260795974989635e-05
210 210 0.0003621004022447248
225 210 4.4903702416718499e-05
211 211 0.0027460727913745449
212 211 0.00044241716253854807
226 211 0.0004576788300641127
227 211 0.00044241716253854807
212 212 0.0025629308508350944
213 212 0.00041189308230826901
227 212 0.00042715518057073011
228 212 0.00041189308230826901
213 213 0.0023797832740013805
214 213 0.00038136796057939399
228 213 0.00039663059411302709
229 213 0.00038136796057939399
214 214 0.00219662864226063
215 214 0.00035084152519812063
229 214 0.00036610483535280046
230 214 0.00035084152519812063
215 215 0.0020134650161677059
216 215 0.00032031340008241275
230 215 0.00033557758280331954
231 215 0.00032031340008241275
216 216 0.001830289671557151
217 216 0.00028978305033879753
231 216 0.0003050483853573652
232 216 0.00028978305033879753
217 217 0.0016470986565325222
218 217 0.00025924968845864423
232 217 0.00027451658946881939
233 217 0.00025924968845864423
218 218 0.0014638860087300292
219 218 0.00022871210503690471
233 218 0.00024398121086946563
234 218 0.00022871210503690471
219 219 0.001280642282509189
220 219 0.00019816834206550974
234 219 0.00021344069415218001
235 219 0.00019816834206550974
220 220 0.0010973515479951223
221 220 0.00016761500625662903
235 220 0.00018289242567542236
236 220 0.00016761500625662903
221 221 0.00091398460205816424
222 221 0.00013704565383910707
236 221 0.00015233164093334607
237 221 0.00013704565383910707
222 222 0.00073048121133874452
223 222 0.00010644634618263503
237 222 0.00012174860564763014
238 222 0.00010644634618263503
223 223 0.00054669226751516908
224 223 7.5780128405590586e-05
238 223 9.1119659169358927e-05
239 223 7.5780128405590586e-05
224 224 0.00036210040224472474
225 224 4.4903702416718499e-05
239 224 6.03663703000533e-05
240 224 4.4903702416718499e-05
225 225 0.00022030491383354071
240 225 2.8772248583436992e-05
226 226 0.0027460727913745449
227 226 0.00044241716253854807
241 226 0.0004576788300641127
242 226 0.00044241716253854807
227 227 0.0025629308508350944
228 227 0.00041189308230826901
242 227 0.00042715518057073011
243 227 0.00041189308230826901
228 228 0.0023797832740013805
229 228 0.00038136796057939399
243 228 0.00039663059411302709
244 228 0.00038136796057939399
229 229 0.00219662864226063
230 229 0.00035084152519812063
244 229 0.00036610483535280046
245 229 0.00035084152519812063
230 230 0.0020134650161677059
231 230 0.00032031340008241275
245 230 0.00033557758280331954
246 230 0.00032031340008241275
231 231 0.001830289671557151
232 231 0.00028978305033879753
246 231 0.0003050483853573652
247 231 0.00028978305033879753
232 232 0.0016470986565325222
233 232 0.00025924968845864423
247 232 0.00027451658946881939
248 232 0.00025924968845864423
233 233 0.0014638860087300292
234 233 0.00022871210503690471
248 233 0.00024398121086946563
249 233 0.00022871210503690471
234 234 0.001280642282509189
235 234 0.00019816834206550974
249 234 0.00021344069415218001
250 234 0.00019816834206550974
235 235 0.0010973515479951223
236 235 0.00016761500625662903
250 235 0.00018289242567542236
251 235 0.00016761500625662903
236 236 0.00091398460205816424
237 236 0.00013704565383910707
251 236 0.00015233164093334607
252 236 0.00013704565383910707
237 237 0.00073048121133874452
238 237 0.00010644634618263503
252 237 0.00012174860564763014
253 237 0.00010644634618263503
238 238 0.00054669226751516908
239 238 7.5780128405590586e-05
253 238 9.1119659169358927e-05
254 238 7.5780128405590586e-05
239 239 0.00036210040224472474
240 239 4.4903702416718499e-05
254 239 6.03663703000533e-05
255 239 4.4903702416718499e-05
240 240 0.00018804200616697765
255 240 2.8772248583436992e-05
256 240 2.0345052083333332e-05
241 241 0.0027460727913745453
242 241 0.00044241716253854807
272 241 0.00045767883006411276
273 241 0.00044241716253854807
242 242 0.0025629308508350944
243 242 0.00041189308230826901
273 242 0.00042715518057073011
274 242 0.00041189308230826901
243 243 0.0023797832740013805
244 243 0.00038136796057939399
274 243 0.00039663059411302714
275 243 0.00038136796057939399
244 244 0.00219662864226063
245 244 0.00035084152519812063
275 244 0.0003661048353528004
276 244 0.00035084152519812063
245 245 0.0020134650161677059
246 245 0.00032031340008241275
276 245 0.00033557758280331954
277 245 0.00032031340008241275
246 246 0.001830289671557151
247 246 0.00028978305033879753
277 246 0.00030504838535736525
278 246 0.00028978305033879753
247 247 0.0016470986565325222
248 247 0.00025924968845864423
278 247 0.00027451658946881939
279 247 0.00025924968845864423
248 248 0.0014638860087300292
249 248 0.00022871210503690474
279 248 0.00024398121086946563
280 248 0.00022871210503690474
249 249 0.001280642282509189
250 249 0.00019816834206550974
280 249 0.00021344069415218003
281 249 0.00019816834206550974
250 250 0.0010973515479951223
251 250 0.00016761500625662903
281 250 0.00018289242567542236
282 250 0.00016761500625662903
251 251 0.00091398460205816424
252 251 0.00013704565383910707
282 251 0.00015233164093334607
283 251 0.00013704565383910707
252 252 0.00073048121133874452
253 252 0.00010644634618263503
283 252 0.00012174860564763014
284 252 0.00010644634618263503
253 253 0.00054669226751516908
254 253 7.5780128405590586e-05
284 253 9.1119659169358941e-05
285 253 7.5780128405590586e-05
254 254 0.00037750891691108046
255 254 5.8566887541511186e-05
285 254 5.4407442508438464e-05
286 254 5.260795974989635e-05
255 255 0.00026448567708333337
256 255 2.8772248583436992e-05
286 255 5.8566887541511186e-05
287 255 4.4903702416718499e-05
256 256 0.00018804200616697765
257 256 2.8772248583436992e-05
287 256 4.4903702416718499e-05
288 256 4.4903702416718499e-05
257 257 0.00022030491383354066
258 257 4.4903702416718499e-05
288 257 4.4903702416718499e-05
289 257 5.2607959749896344e-05
258 258 0.0003621004022447248
259 258 7.57801284055906e-05
289 258 6.03663703000533e-05
290 258 7.57801284055906e-05
259 259 0.00054669226751516908
260 259 0.00010644634618263503
290 259 9.1119659169358941e-05
291 259 0.00010644634618263503
260 260 0.00073048121133874452
261 260 0.00013704565383910707
291 260 0.00012174860564763014
292 260 0.00013704565383910707
261 261 0.00091398460205816424
262 261 0.00016761500625662903
292 261 0.00015233164093334604
293 261 0.00016761500625662903
262 262 0.0010973515479951223
263 262 0.00019816834206550974
293 262 0.00018289242567542236
294 262 0.00019816834206550974
263 263 0.0012806422825091888
264 263 0.00022871210503690471
294 263 0.00021344069415218001
295 263 0.00022871210503690471
264 264 0.001463886008730029
265 264 0.00025924968845864423
295 264 0.00024398121086946563
296 264 0.00025924968845864423
265 265 0.0016470986565325222
266 265 0.00028978305033879753
296 265 0.00027451658946881939
297 265 0.00028978305033879753
266 266 0.001830289671557151
267 266 0.00032031340008241275
297 266 0.0003050483853573652
298 266 0.00032031340008241275
267 267 0.0020134650161677055
268 267 0.00035084152519812063
298 267 0.00033557758280331954
299 267 0.00035084152519812063
268 268 0.00219662864226063
269 268 0.00038136796057939399
299 268 0.00036610483535280046
300 268 0.00038136796057939399
269 269 0.0023797832740013801
270 269 0.00041189308230826901
300 269 0.00039663059411302709
301 269 0.00041189308230826901
270 270 0.0025629308508350948
271 270 0.00044241716253854812
301 270 0.00042715518057073011
302 270 0.00044241716253854812
271 271 0.0027460727913745449
302 271 0.00045767883006411276
272 272 0.0027460727913745453
273 272 0.00044241716253854812
303 272 0.00045767883006411287
304 272 0.00044241716253854818
273 273 0.0025629308508350944
274 273 0.00041189308230826901
304 273 0.00042715518057073016
305 273 0.00041189308230826901
274 274 0.0023797832740013805
275 274 0.0003813679605793941
305 274 0.00039663059411302703
306 274 0.00038136796057939405
275 275 0.00219662864226063
276 275 0.00035084152519812063
306 275 0.00036610483535280062
307 275 0.00035084152519812074
276 276 0.0020134650161677059
277 276 0.00032031340008241275
307 276 0.00033557758280331954
308 276 0.00032031340008241275
277 277 0.001830289671557151
278 277 0.00028978305033879753
308 277 0.0003050483853573652
309 277 0.00028978305033879753
278 278 0.0016470986565325222
279 278 0.00025924968845864423
309 278 0.00027451658946881939
310 278 0.00025924968845864423
279 279 0.0014638860087300295
280 279 0.00022871210503690471
310 279 0.00024398121086946565
311 279 0.00022871210503690474
280 280 0.0012806422825091888
281 280 0.00019816834206550968
311 280 0.00021344069415218001
312 280 0.00019816834206550968
281 281 0.001097351547995122
282 281 0.00016761500625662903
312 281 0.0001828924256754223
313 281 0.00016761500625662903
282 282 0.00091398460205816424
283 282 0.00013704565383910707
313 282 0.00015233164093334607
314 282 0.00013704565383910707
283 283 0.00073048121133874452
284 283 0.00010644634618263504
314 283 0.00012174860564763014
315 283 0.00010644634618263504
284 284 0.00056200296262592974
285 284 9.4635635816456401e-05
315 284 7.9919499313873497e-05
316 284 8.3435475960970957e-05
285 285 0.00044964641346097092
286 285 5.4407442508438464e-05
316 285 9.4635635816456401e-05
317 285 7.5780128405590586e-05
286 286 0.00037750891691108051
287 286 6.03663703000533e-05
317 286 7.5780128405590586e-05
318 286 7.5780128405590586e-05
287 287 0.0003621004022447248
288 287 6.03663703000533e-05
318 287 7.5780128405590586e-05
319 287 7.5780128405590586e-05
288 288 0.0003621004022447248
289 288 6.03663703000533e-05
319 288 7.57801284055906e-05
320 288 7.57801284055906e-05
289 289 0.00040833643312215503
290 289 7.57801284055906e-05
320 289 7.57801284055906e-05
321 289 8.3435475960970943e-05
290 290 0.00054669226751516908
291 290 0.00010644634618263503
321 290 9.1119659169358955e-05
322 290 0.00010644634618263504
291 291 0.00073048121133874452
292 291 0.00013704565383910707
322 291 0.00012174860564763014
323 291 0.00013704565383910707
292 292 0.00091398460205816424
293 292 0.00016761500625662903
323 292 0.00015233164093334604
324 292 0.00016761500625662903
293 293 0.0010973515479951223
294 293 0.00019816834206550974
324 293 0.00018289242567542233
325 293 0.00019816834206550971
294 294 0.001280642282509189
295 294 0.00022871210503690474
325 294 0.00021344069415218001
326 294 0.00022871210503690474
295 295 0.001463886008730029
296 295 0.00025924968845864423
326 295 0.00024398121086946565
327 295 0.00025924968845864423
296 296 0.0016470986565325222
297 296 0.00028978305033879753
327 296 0.00027451658946881939
328 296 0.00028978305033879753
297 297 0.001830289671557151
298 297 0.00032031340008241275
328 297 0.0003050483853573652
329 297 0.00032031340008241275
298 298 0.0020134650161677059
299 298 0.00035084152519812074
329 298 0.00033557758280331954
330 298 0.00035084152519812074
299 299 0.0021966286422606305
300 299 0.00038136796057939399
330 299 0.00036610483535280057
331 299 0.00038136796057939405
300 300 0.0023797832740013805
301 300 0.00041189308230826901
331 300 0.00039663059411302709
332 300 0.00041189308230826901
301 301 0.0025629308508350948
302 301 0.00044241716253854812
332 301 0.00042715518057073016
333 301 0.00044241716253854818
302 302 0.0027460727913745458
333 302 0.00045767883006411287
303 303 0.0027460727913745453
304 303 0.00044241716253854812
334 303 0.00045767883006411265
335 303 0.00044241716253854801
304 304 0.0025629308508350948
305 304 0.00041189308230826907
335 304 0.00042715518057073011
336 304 0.00041189308230826901
305 305 0.0023797832740013805
306 305 0.00038136796057939394
336 305 0.00039663059411302714
337 305 0.00038136796057939399
306 306 0.0021966286422606305
307 306 0.00035084152519812074
337 306 0.0003661048353528004
338 306 0.00035084152519812063
307 307 0.0020134650161677059
308 307 0.00032031340008241275
338 307 0.00033557758280331954
339 307 0.00032031340008241275
308 308 0.0018302896715571512
309 308 0.00028978305033879753
339 308 0.0003050483853573653
340 308 0.00028978305033879758
309 309 0.0016470986565325222
310 309 0.00025924968845864418
340 309 0.00027451658946881939
341 309 0.00025924968845864418
310 310 0.001463886008730029
311 310 0.00022871210503690474
341 310 0.0002439812108694656
342 310 0.00022871210503690469
311 311 0.001280642282509189
312 311 0.00019816834206550974
342 311 0.00021344069415218001
343 311 0.00019816834206550974
312 312 0.001097351547995122
313 312 0.00016761500625662903
343 312 0.00018289242567542238
344 312 0.00016761500625662906
313 313 0.00091398460205816424
314 313 0.00013704565383910707
344 313 0.00015233164093334607
345 313 0.00013704565383910707
314 314 0.00074576621894852069
315 314 0.00013044317081461798
345 314 0.00010539428482053524
346 314 0.00011408884998752311
315 315 0.00063361803262225306
316 315 7.9919499313873497e-05
346 315 0.00013044317081461798
347 315 0.00010644634618263504
316 316 0.00056200296262592985
317 316 9.1119659169358927e-05
347 316 0.00010644634618263504
348 316 0.00010644634618263503
317 317 0.00054669226751516908
318 317 9.1119659169358927e-05
348 317 0.00010644634618263503
349 317 0.00010644634618263503
318 318 0.00054669226751516908
319 318 9.1119659169358927e-05
349 318 0.00010644634618263503
350 318 0.00010644634618263503
319 319 0.00054669226751516908
320 319 9.1119659169358941e-05
350 319 0.00010644634618263503
351 319 0.00010644634618263503
320 320 0.00054669226751516919
321 320 9.1119659169358955e-05
351 320 0.00010644634618263503
352 320 0.00010644634618263504
321 321 0.00059265633665248204
322 321 0.00010644634618263504
352 321 0.00010644634618263504
353 321 0.00011408884998752311
322 322 0.00073048121133874452
323 322 0.00013704565383910707
353 322 0.00012174860564763014
354 322 0.00013704565383910707
323 323 0.00091398460205816424
324 323 0.00016761500625662906
354 323 0.00015233164093334604
355 323 0.00016761500625662906
324 324 0.0010973515479951223
325 324 0.00019816834206550971
355 324 0.00018289242567542241
356 324 0.00019816834206550974
325 325 0.0012806422825091888
326 325 0.00022871210503690469
356 325 0.00021344069415218001
357 325 0.00022871210503690469
326 326 0.001463886008730029
327 326 0.00025924968845864423
357 326 0.0002439812108694656
358 326 0.00025924968845864418
327 327 0.0016470986565325224
328 327 0.00028978305033879758
358 327 0.00027451658946881939
359 327 0.00028978305033879758
328 328 0.0018302896715571512
329 328 0.00032031340008241275
359 328 0.0003050483853573653
360 328 0.0003203134000824128
329 329 0.0020134650161677055
330 329 0.00035084152519812063
360 329 0.00033557758280331959
361 329 0.00035084152519812063
330 330 0.00219662864226063
331 330 0.00038136796057939405
361 330 0.00036610483535280035
362 330 0.00038136796057939394
331 331 0.0023797832740013805
332 331 0.00041189308230826896
362 331 0.00039663059411302714
363 331 0.00041189308230826901
332 332 0.0025629308508350939
333 332 0.00044241716253854807
363 332 0.00042715518057073005
364 332 0.00044241716253854801
333 333 0.0027460727913745453
364 333 0.00045767883006411265
334 334 0.0027460727913745449
335 334 0.00044241716253854812
365 334 0.00045767883006411265
366 334 0.00044241716253854812
335 335 0.0025629308508350948
336 335 0.00041189308230826901
366 335 0.00042715518057073027
367 335 0.00041189308230826912
336 336 0.0023797832740013805
337 336 0.00038136796057939399
367 336 0.00039663059411302714
368 336 0.00038136796057939399
337 337 0.0021966286422606296
338 337 0.00035084152519812052
368 337 0.00036610483535280035
369 337 0.00035084152519812052
338 338 0.0020134650161677055
339 338 0.00032031340008241275
369 338 0.00033557758280331937
370 338 0.0003203134000824127
339 339 0.0018302896715571512
340 339 0.00028978305033879758
370 339 0.0003050483853573653
371 339 0.00028978305033879758
340 340 0.0016470986565325222
341 340 0.00025924968845864418
371 340 0.00027451658946881939
372 340 0.00025924968845864418
341 341 0.0014638860087300288
342 341 0.00022871210503690466
372 341 0.0002439812108694656
373 341 0.00022871210503690466
342 342 0.0012806422825091886
343 342 0.00019816834206550974
373 342 0.00021344069415217993
374 342 0.00019816834206550968
343 343 0.0010973515479951223
344 343 0.00016761500625662906
374 343 0.00018289242567542238
375 343 0.00016761500625662906
344 344 0.00092925918712090405
345 344 0.00016616178934738212
375 344 0.00013085279795644093
376 344 0.00014468294637047697
345 345 0.00081720345601404886
346 345 0.00010539428482053524
376 345 0.00016616178934738212
377 345 0.00013704565383910707
346 346 0.00074576621894852069
347 346 0.00012174860564763014
377 346 0.00013704565383910707
378 346 0.00013704565383910707
347 347 0.00073048121133874441
348 347 0.00012174860564763014
378 347 0.00013704565383910707
379 347 0.00013704565383910707
348 348 0.00073048121133874452
349 348 0.00012174860564763014
379 348 0.00013704565383910707
380 348 0.00013704565383910707
349 349 0.00073048121133874452
350 349 0.00012174860564763014
380 349 0.00013704565383910707
381 349 0.00013704565383910707
350 350 0.00073048121133874441
351 350 0.00012174860564763014
381 350 0.00013704565383910707
382 350 0.00013704565383910707
351 351 0.00073048121133874441
352 351 0.00012174860564763014
382 351 0.00013704565383910707
383 351 0.00013704565383910707
352 352 0.00073048121133874441
353 352 0.00012174860564763014
383 352 0.00013704565383910707
384 352 0.00013704565383910707
353 353 0.0007763603153314745
354 353 0.00013704565383910707
384 353 0.00013704565383910707
385 353 0.00014468294637047697
354 354 0.00091398460205816435
355 354 0.00016761500625662906
385 354 0.00015233164093334607
386 354 0.00016761500625662906
355 355 0.0010973515479951223
356 355 0.00019816834206550971
386 355 0.00018289242567542241
387 355 0.00019816834206550971
356 356 0.0012806422825091888
357 356 0.00022871210503690469
387 356 0.00021344069415217993
388 356 0.00022871210503690466
357 357 0.0014638860087300288
358 357 0.00025924968845864418
388 357 0.0002439812108694656
389 357 0.00025924968845864418
358 358 0.0016470986565325224
359 358 0.00028978305033879758
389 358 0.00027451658946881939
390 358 0.00028978305033879758
359 359 0.001830289671557151
360 359 0.0003203134000824127
390 359 0.0003050483853573653
391 359 0.0003203134000824127
360 360 0.0020134650161677055
361 360 0.00035084152519812063
391 360 0.00033557758280331937
392 360 0.00035084152519812052
361 361 0.00219662864226063
362 361 0.00038136796057939399
392 361 0.00036610483535280035
393 361 0.00038136796057939399
362 362 0.0023797832740013805
363 362 0.00041189308230826912
393 362 0.00039663059411302714
394 362 0.00041189308230826912
363 363 0.0025629308508350948
364 363 0.00044241716253854801
394 363 0.00042715518057073027
395 363 0.00044241716253854812
364 364 0.0027460727913745445
395 364 0.00045767883006411265
365 365 0.0027460727913745458
366 365 0.00044241716253854801
396 365 0.00045767883006411308
397 365 0.00044241716253854823
366 366 0.0025629308508350944
367 366 0.00041189308230826901
397 366 0.00042715518057073005
398 366 0.00041189308230826891
367 367 0.0023797832740013805
368 367 0.00038136796057939421
398 367 0.00039663059411302693
399 367 0.0003813679605793941
368 368 0.0021966286422606309
369 368 0.00035084152519812074
399 368 0.00036610483535280073
400 368 0.0003508415251981209
369 369 0.0020134650161677055
370 369 0.00032031340008241264
400 369 0.00033557758280331975
401 369 0.0003203134000824128
370 370 0.001830289671557151
371 370 0.00028978305033879758
401 370 0.00030504838535736509
402 370 0.00028978305033879753
371 371 0.0016470986565325224
372 371 0.00025924968845864428
402 371 0.00027451658946881939
403 371 0.00025924968845864428
372 372 0.0014638860087300292
373 372 0.00022871210503690474
403 372 0.00024398121086946574
404 372 0.00022871210503690479
373 373 0.0012806422825091886
374 373 0.00019816834206550963
404 373 0.00021344069415218009
405 373 0.00019816834206550971
374 374 0.0011126208895159495
375 374 0.00020183935927556439
405 374 0.00015630274341690077
406 374 0.00017524967701704284
375 375 0.0010006143269772688
376 375 0.00013085279795644093
406 375 0.00020183935927556439
407 375 0.00016761500625662906
376 376 0.00092925918712090415
377 376 0.00015233164093334607
407 376 0.00016761500625662906
408 376 0.00016761500625662906
377 377 0.00091398460205816424
378 377 0.00015233164093334607
408 377 0.00016761500625662903
409 377 0.00016761500625662903
378 378 0.00091398460205816424
379 378 0.00015233164093334604
409 378 0.00016761500625662903
410 378 0.00016761500625662903
379 379 0.00091398460205816435
380 379 0.00015233164093334607
410 379 0.00016761500625662903
411 379 0.00016761500625662903
380 380 0.00091398460205816435
381 380 0.00015233164093334607
411 380 0.00016761500625662903
412 380 0.00016761500625662903
381 381 0.00091398460205816424
382 381 0.00015233164093334604
412 381 0.00016761500625662903
413 381 0.00016761500625662903
382 382 0.00091398460205816424
383 382 0.00015233164093334604
413 382 0.00016761500625662903
414 382 0.00016761500625662903
383 383 0.00091398460205816424
384 383 0.00015233164093334604
414 383 0.00016761500625662906
415 383 0.00016761500625662906
384 384 0.00091398460205816435
385 384 0.00015233164093334607
415 384 0.00016761500625662906
416 384 0.00016761500625662906
385 385 0.00095982591776746986
386 385 0.000167615006256629
416 385 0.000167615006256629
417 385 0.00017524967701704287
386 386 0.0010973515479951223
387 386 0.00019816834206550979
417 386 0.00018289242567542228
418 386 0.00019816834206550971
387 387 0.001280642282509189
388 387 0.00022871210503690474
418 387 0.00021344069415218009
419 387 0.00022871210503690485
388 388 0.0014638860087300292
389 388 0.00025924968845864418
419 388 0.00024398121086946576
420 388 0.00025924968845864428
389 389 0.001647098656532522
390 389 0.00028978305033879748
420 389 0.00027451658946881939
421 389 0.00028978305033879748
390 390 0.0018302896715571512
391 390 0.00032031340008241286
421 390 0.00030504838535736509
422 390 0.0003203134000824128
391 391 0.0020134650161677064
392 391 0.00035084152519812074
422 391 0.00033557758280331975
423 391 0.0003508415251981209
392 392 0.0021966286422606305
393 392 0.00038136796057939388
423 392 0.00036610483535280073
424 392 0.0003813679605793941
393 393 0.0023797832740013796
394 393 0.00041189308230826901
424 393 0.00039663059411302693
425 393 0.00041189308230826891
394 394 0.0025629308508350957
395 394 0.00044241716253854834
425 394 0.00042715518057073011
426 394 0.00044241716253854823
395 395 0.0027460727913745458
426 395 0.00045767883006411308
396 396 0.0027460727913745458
397 396 0.00044241716253854823
427 396 0.00045767883006411265
428 396 0.00044241716253854801
397 397 0.0025629308508350948
398 397 0.00041189308230826912
428 397 0.00042715518057073005
429 397 0.00041189308230826912
398 398 0.0023797832740013801
399 398 0.00038136796057939388
429 398 0.00039663059411302736
430 398 0.00038136796057939405
399 399 0.0021966286422606309
400 399 0.0003508415251981209
430 399 0.00036610483535280035
431 399 0.00035084152519812074
400 400 0.0020134650161677072
401 400 0.00032031340008241297
431 400 0.00033557758280331975
432 400 0.00032031340008241297
401 401 0.0018302896715571514
402 401 0.00028978305033879753
432 401 0.00030504838535736547
433 401 0.00028978305033879764
402 402 0.0016470986565325222
403 402 0.00025924968845864412
433 402 0.00027451658946881939
434 402 0.00025924968845864412
403 403 0.001463886008730029
404 403 0.00022871210503690479
434 403 0.00024398121086946544
435 403 0.00022871210503690466
404 404 0.0012959086179726051
405 404 0.00023749458240415988
435 404 0.00018174762154523792
436 404 0.00020580150979721771
405 405 0.0011839313357731407
406 405 0.00015630274341690077
436 405 0.00023749458240415985
437 405 0.00019816834206550968
406 406 0.0011126208895159495
407 406 0.00018289242567542241
437 406 0.00019816834206550963
438 406 0.00019816834206550971
407 407 0.0010973515479951225
408 407 0.00018289242567542241
438 407 0.00019816834206550974
439 407 0.00019816834206550974
408 408 0.0010973515479951223
409 408 0.00018289242567542233
439 408 0.00019816834206550974
440 408 0.00019816834206550968
409 409 0.0010973515479951223
410 409 0.00018289242567542236
440 409 0.00019816834206550971
441 409 0.00019816834206550974
410 410 0.0010973515479951223
411 410 0.00018289242567542236
441 410 0.00019816834206550974
442 410 0.00019816834206550974
411 411 0.0010973515479951223
412 411 0.00018289242567542236
442 411 0.00019816834206550974
443 411 0.00019816834206550974
412 412 0.0010973515479951223
413 412 0.00018289242567542236
443 412 0.00019816834206550974
444 412 0.00019816834206550974
413 413 0.0010973515479951223
414 413 0.00018289242567542233
444 413 0.00019816834206550974
445 413 0.00019816834206550971
414 414 0.0010973515479951223
415 414 0.00018289242567542241
445 414 0.00019816834206550971
446 414 0.00019816834206550974
415 415 0.0010973515479951223
416 415 0.00018289242567542241
446 415 0.00019816834206550971
447 415 0.00019816834206550971
416 416 0.0010973515479951223
417 416 0.00018289242567542228
447 416 0.00019816834206550979
448 416 0.00019816834206550971
417 417 0.0011431727222961246
418 417 0.00019816834206550971
448 417 0.00019816834206550971
449 417 0.00020580150979721774
418 418 0.001280642282509189
419 418 0.00022871210503690469
449 418 0.00021344069415218009
450 418 0.00022871210503690469
419 419 0.001463886008730029
420 419 0.00025924968845864428
450 419 0.00024398121086946544
451 419 0.00025924968845864407
420 420 0.0016470986565325226
421 420 0.00028978305033879764
451 420 0.00027451658946881939
452 420 0.00028978305033879764
421 421 0.0018302896715571514
422 421 0.0003203134000824128
452 421 0.00030504838535736541
453 421 0.00032031340008241297
422 422 0.0020134650161677064
423 422 0.00035084152519812074
453 422 0.00033557758280331975
454 422 0.00035084152519812074
423 423 0.0021966286422606313
424 423 0.00038136796057939432
454 423 0.00036610483535280035
455 423 0.0003813679605793941
424 424 0.0023797832740013805
425 424 0.00041189308230826891
455 424 0.00039663059411302736
456 424 0.00041189308230826912
425 425 0.0025629308508350939
426 425 0.00044241716253854801
456 425 0.00042715518057073005
457 425 0.00044241716253854801
426 426 0.0027460727913745453
457 426 0.00045767883006411265
427 427 0.0027460727913745449
428 427 0.00044241716253854801
458 427 0.00045767883006411265
459 427 0.00044241716253854801
428 428 0.0025629308508350944
429 428 0.00041189308230826891
459 428 0.00042715518057073011
460 428 0.00041189308230826891
429 429 0.0023797832740013801
430 429 0.00038136796057939405
460 429 0.00039663059411302693
461 429 0.00038136796057939388
430 430 0.00219662864226063
431 430 0.00035084152519812052
461 430 0.00036610483535280035
462 430 0.00035084152519812052
431 431 0.0020134650161677059
432 431 0.0003203134000824128
462 431 0.00033557758280331937
463 431 0.00032031340008241264
432 432 0.0018302896715571514
433 432 0.00028978305033879764
463 432 0.00030504838535736509
464 432 0.00028978305033879753
433 433 0.0016470986565325226
434 433 0.00025924968845864428
464 433 0.00027451658946881939
465 433 0.00025924968845864428
434 434 0.0014791504617895539
435 434 0.0002731362890166672
465 434 0.00020718925341946557
466 434 0.00023634433156666717
435 435 0.0013671920311976197
436 435 0.00018174762154523795
466 435 0.0002731362890166672
467 435 0.00022871210503690469
436 436 0.0012959086179726053
437 436 0.00021344069415218009
467 436 0.00022871210503690482
468 436 0.00022871210503690482
437 437 0.0012806422825091888
438 437 0.00021344069415217993
468 437 0.00022871210503690474
469 437 0.00022871210503690466
438 438 0.0012806422825091888
439 438 0.00021344069415217998
469 438 0.00022871210503690466
470 438 0.00022871210503690469
439 439 0.001280642282509189
440 439 0.00021344069415217998
470 439 0.00022871210503690474
471 439 0.00022871210503690474
440 440 0.0012806422825091888
441 440 0.00021344069415218001
471 440 0.00022871210503690471
472 440 0.00022871210503690471
441 441 0.0012806422825091888
442 441 0.00021344069415218001
472 441 0.00022871210503690471
473 441 0.00022871210503690471
442 442 0.0012806422825091888
443 442 0.00021344069415218001
473 442 0.00022871210503690471
474 442 0.00022871210503690471
443 443 0.0012806422825091888
444 443 0.00021344069415218001
474 443 0.00022871210503690471
475 443 0.00022871210503690471
444 444 0.001280642282509189
445 444 0.00021344069415218001
475 444 0.00022871210503690474
476 444 0.00022871210503690474
445 445 0.0012806422825091888
446 445 0.00021344069415218001
476 445 0.00022871210503690469
477 445 0.00022871210503690469
446 446 0.0012806422825091888
447 446 0.00021344069415217993
477 446 0.00022871210503690469
478 446 0.00022871210503690466
447 447 0.001280642282509189
448 447 0.00021344069415218009
478 447 0.00022871210503690474
479 447 0.00022871210503690485
448 448 0.0012806422825091892
449 448 0.00021344069415218009
479 448 0.00022871210503690469
480 448 0.00022871210503690469
449 449 0.001326451439742055
450 449 0.00022871210503690485
480 449 0.00022871210503690485
481 449 0.00023634433156666723
450 450 0.0014638860087300292
451 450 0.00025924968845864412
481 450 0.00024398121086946576
482 450 0.00025924968845864428
451 451 0.001647098656532522
452 451 0.00028978305033879748
482 451 0.00027451658946881939
483 451 0.00028978305033879748
452 452 0.0018302896715571507
453 452 0.00032031340008241275
483 452 0.00030504838535736509
484 452 0.00032031340008241259
453 453 0.0020134650161677059
454 453 0.00035084152519812074
484 453 0.00033557758280331937
485 453 0.00035084152519812052
454 454 0.00219662864226063
455 454 0.00038136796057939388
485 454 0.00036610483535280035
486 454 0.00038136796057939388
455 455 0.0023797832740013801
456 455 0.00041189308230826912
486 455 0.00039663059411302693
487 455 0.00041189308230826891
456 456 0.0025629308508350948
457 456 0.00044241716253854801
487 456 0.00042715518057073011
488 456 0.00044241716253854801
457 457 0.0027460727913745445
488 457 0.00045767883006411265
458 458 0.0027460727913745458
459 458 0.00044241716253854801
489 458 0.00045767883006411303
490 458 0.00044241716253854823
459 459 0.0025629308508350948
460 459 0.00041189308230826912
490 459 0.00042715518057073011
491 459 0.00041189308230826912
460 460 0.0023797832740013801
461 460 0.00038136796057939388
491 460 0.00039663059411302736
492 460 0.00038136796057939405
461 461 0.0021966286422606296
462 461 0.00035084152519812052
492 461 0.00036610483535280035
493 461 0.00035084152519812052
462 462 0.0020134650161677051
463 462 0.00032031340008241264
493 462 0.00033557758280331937
494 462 0.00032031340008241264
463 463 0.0018302896715571505
464 463 0.00028978305033879753
494 463 0.00030504838535736509
495 463 0.00028978305033879753
464 464 0.0016623618531052824
465 464 0.00030876919574253641
495 464 0.00023262868047130725
496 464 0.00026688128674502427
465 465 0.0015504162752412926
466 465 0.00020718925341946557
496 465 0.00030876919574253641
497 465 0.00025924968845864428
466 466 0.0014791504617895537
467 466 0.00024398121086946544
497 466 0.00025924968845864428
498 466 0.00025924968845864412
467 467 0.0014638860087300292
468 467 0.00024398121086946574
498 467 0.00025924968845864412
499 467 0.00025924968845864428
468 468 0.0014638860087300295
469 468 0.0002439812108694656
499 468 0.00025924968845864428
500 468 0.00025924968845864418
469 469 0.0014638860087300288
470 469 0.0002439812108694656
500 469 0.00025924968845864418
501 469 0.00025924968845864418
470 470 0.0014638860087300292
471 470 0.00024398121086946565
501 470 0.00025924968845864418
502 470 0.00025924968845864423
471 471 0.0014638860087300292
472 471 0.00024398121086946563
502 471 0.00025924968845864423
503 471 0.00025924968845864423
472 472 0.0014638860087300292
473 472 0.00024398121086946563
503 472 0.00025924968845864423
504 472 0.00025924968845864423
473 473 0.0014638860087300292
474 473 0.00024398121086946563
504 473 0.00025924968845864423
505 473 0.00025924968845864423
474 474 0.0014638860087300292
475 474 0.00024398121086946563
505 474 0.00025924968845864423
506 474 0.00025924968845864423
475 475 0.0014638860087300292
476 475 0.00024398121086946565
506 475 0.00025924968845864423
507 475 0.00025924968845864423
476 476 0.001463886008730029
477 476 0.0002439812108694656
507 476 0.00025924968845864423
508 476 0.00025924968845864418
477 477 0.0014638860087300288
478 477 0.0002439812108694656
508 477 0.00025924968845864418
509 477 0.00025924968845864418
478 478 0.0014638860087300292
479 478 0.00024398121086946576
509 478 0.00025924968845864418
510 478 0.00025924968845864428
479 479 0.0014638860087300292
480 479 0.00024398121086946544
510 479 0.00025924968845864428
511 479 0.00025924968845864407
480 480 0.0014638860087300292
481 480 0.00024398121086946576
511 480 0.00025924968845864412
512 480 0.00025924968845864428
481 481 0.0015096874169679116
482 481 0.00025924968845864428
512 481 0.00025924968845864428
513 481 0.00026688128674502427
482 482 0.0016470986565325224
483 482 0.00028978305033879753
513 482 0.00027451658946881939
514 482 0.00028978305033879753
483 483 0.0018302896715571503
484 483 0.00032031340008241264
514 483 0.00030504838535736509
515 483 0.00032031340008241264
484 484 0.0020134650161677051
485 484 0.00035084152519812052
515 484 0.00033557758280331943
516 484 0.00035084152519812052
485 485 0.0021966286422606296
486 485 0.00038136796057939405
516 485 0.00036610483535280035
517 485 0.00038136796057939405
486 486 0.0023797832740013801
487 486 0.00041189308230826891
517 486 0.00039663059411302736
518 486 0.00041189308230826912
487 487 0.0025629308508350948
488 487 0.00044241716253854823
518 487 0.00042715518057073011
519 487 0.00044241716253854823
488 488 0.0027460727913745453
519 488 0.00045767883006411308
489 489 0.0027460727913745449
490 489 0.00044241716253854845
520 489 0.00045767883006411227
521 489 0.00044241716253854801
490 490 0.0025629308508350952
491 490 0.00041189308230826891
521 490 0.00042715518057073049
522 490 0.00041189308230826912
491 491 0.0023797832740013801
492 491 0.00038136796057939405
522 491 0.00039663059411302693
523 491 0.00038136796057939388
492 492 0.00219662864226063
493 492 0.00035084152519812052
523 492 0.00036610483535280035
524 492 0.00035084152519812052
493 493 0.0020134650161677055
494 493 0.0003203134000824128
524 493 0.00033557758280331937
525 493 0.0003203134000824128
494 494 0.0018455519878495176
495 494 0.0003443960523108043
525 494 0.00025806654153154188
526 494 0.00029741420848498088
495 495 0.0017336155662418182
496 495 0.00023262868047130725
526 495 0.00034439605231080425
527 495 0.00028978305033879748
496 496 0.0016623618531052824
497 496 0.00027451658946881939
527 496 0.00028978305033879753
528 496 0.00028978305033879753
497 497 0.0016470986565325226
498 497 0.00027451658946881939
528 497 0.00028978305033879764
529 497 0.00028978305033879764
498 498 0.001647098656532522
499 498 0.00027451658946881939
529 498 0.00028978305033879748
530 498 0.00028978305033879748
499 499 0.0016470986565325224
500 499 0.00027451658946881939
530 499 0.00028978305033879758
531 499 0.00028978305033879758
500 500 0.0016470986565325224
501 500 0.00027451658946881939
531 500 0.00028978305033879758
532 500 0.00028978305033879758
501 501 0.0016470986565325222
502 501 0.00027451658946881939
532 501 0.00028978305033879753
533 501 0.00028978305033879753
502 502 0.0016470986565325222
503 502 0.00027451658946881939
533 502 0.00028978305033879753
534 502 0.00028978305033879753
503 503 0.0016470986565325222
504 503 0.00027451658946881939
534 503 0.00028978305033879753
535 503 0.00028978305033879753
504 504 0.0016470986565325222
505 504 0.00027451658946881939
535 504 0.00028978305033879753
536 504 0.00028978305033879753
505 505 0.0016470986565325222
506 505 0.00027451658946881939
536 505 0.00028978305033879753
537 505 0.00028978305033879753
506 506 0.0016470986565325222
507 506 0.00027451658946881939
537 506 0.00028978305033879753
538 506 0.00028978305033879753
507 507 0.0016470986565325224
508 507 0.00027451658946881939
538 507 0.00028978305033879758
539 507 0.00028978305033879758
508 508 0.0016470986565325224
509 508 0.00027451658946881939
539 508 0.00028978305033879758
540 508 0.00028978305033879758
509 509 0.001647098656532522
510 509 0.00027451658946881939
540 509 0.00028978305033879748
541 509 0.00028978305033879748
510 510 0.0016470986565325226
511 510 0.00027451658946881939
541 510 0.00028978305033879764
542 510 0.00028978305033879764
511 511 0.001647098656532522
512 511 0.00027451658946881939
542 511 0.00028978305033879748
543 511 0.00028978305033879748
512 512 0.0016470986565325224
513 512 0.00027451658946881939
543 512 0.00028978305033879753
544 512 0.00028978305033879753
513 513 0.0016928947748452391
514 513 0.00028978305033879764
544 513 0.00028978305033879764
545 513 0.00029741420848498082
514 514 0.0018302896715571512
515 514 0.00032031340008241264
545 514 0.00030504838535736541
546 514 0.00032031340008241275
515 515 0.0020134650161677051
516 515 0.00035084152519812052
546 515 0.00033557758280331937
547 515 0.00035084152519812052
516 516 0.0021966286422606296
517 516 0.00038136796057939388
547 516 0.00036610483535280035
548 516 0.00038136796057939388
517 517 0.0023797832740013805
518 517 0.00041189308230826934
548 517 0.00039663059411302693
549 517 0.00041189308230826912
518 518 0.0025629308508350948
519 518 0.0004424171625385478
549 518 0.00042715518057073049
550 518 0.00044241716253854801
519 519 0.0027460727913745445
550 519 0.00045767883006411222
520 520 0.0027460727913745445
521 520 0.00044241716253854758
551 520 0.00045767883006411308
552 520 0.00044241716253854801
521 521 0.0025629308508350935
522 521 0.00041189308230826912
552 521 0.00042715518057072967
553 521 0.00041189308230826869
522 522 0.0023797832740013801
523 522 0.0003813679605793941
553 522 0.00039663059411302693
554 522 0.0003813679605793941
523 523 0.0021966286422606309
524 523 0.0003508415251981209
554 523 0.00036610483535280073
555 523 0.00035084152519812106
524 524 0.0020287266918730326
525 524 0.00038001857044428028
555 524 0.00028350325029411567
556 524 0.0003279442379350762
525 525 0.0019167970241164697
526 525 0.00025806654153154188
556 525 0.00038001857044428028
557 525 0.00032031340008241275
526 526 0.0018455519878495174
527 526 0.00030504838535736509
557 526 0.00032031340008241275
558 526 0.00032031340008241264
527 527 0.0018302896715571503
528 527 0.00030504838535736509
558 527 0.00032031340008241264
559 527 0.00032031340008241264
528 528 0.0018302896715571516
529 528 0.00030504838535736541
559 528 0.0003203134000824128
560 528 0.00032031340008241297
529 529 0.0018302896715571512
530 529 0.00030504838535736509
560 529 0.00032031340008241297
561 529 0.0003203134000824128
530 530 0.0018302896715571505
531 530 0.0003050483853573653
561 530 0.00032031340008241264
562 530 0.0003203134000824127
531 531 0.0018302896715571512
532 531 0.0003050483853573653
562 531 0.00032031340008241275
563 531 0.00032031340008241275
532 532 0.0018302896715571512
533 532 0.0003050483853573652
563 532 0.0003203134000824128
564 532 0.00032031340008241275
533 533 0.001830289671557151
534 533 0.0003050483853573652
564 533 0.00032031340008241275
565 533 0.00032031340008241275
534 534 0.001830289671557151
535 534 0.0003050483853573652
565 534 0.00032031340008241275
566 534 0.00032031340008241275
535 535 0.001830289671557151
536 535 0.0003050483853573652
566 535 0.00032031340008241275
567 535 0.00032031340008241275
536 536 0.001830289671557151
537 536 0.0003050483853573652
567 536 0.00032031340008241275
568 536 0.00032031340008241275
537 537 0.001830289671557151
538 537 0.0003050483853573652
568 537 0.00032031340008241275
569 537 0.00032031340008241275
538 538 0.0018302896715571512
539 538 0.0003050483853573653
569 538 0.00032031340008241275
570 538 0.0003203134000824128
539 539 0.001830289671557151
540 539 0.0003050483853573653
570 539 0.0003203134000824127
571 539 0.0003203134000824127
540 540 0.0018302896715571512
541 540 0.00030504838535736509
571 540 0.00032031340008241286
572 540 0.0003203134000824128
541 541 0.0018302896715571516
542 541 0.00030504838535736541
572 541 0.0003203134000824128
573 541 0.00032031340008241297
542 542 0.0018302896715571507
543 542 0.00030504838535736509
573 542 0.00032031340008241275
574 542 0.00032031340008241259
543 543 0.0018302896715571503
544 543 0.00030504838535736509
574 543 0.00032031340008241264
575 543 0.00032031340008241264
544 544 0.0018302896715571512
545 544 0.00030504838535736541
575 544 0.00032031340008241264
576 544 0.00032031340008241275
545 545 0.0018760820172996143
546 545 0.00032031340008241313
576 545 0.00032031340008241313
577 545 0.0003279442379350762
546 546 0.0020134650161677072
547 546 0.00035084152519812074
577 546 0.00033557758280332013
578 546 0.00035084152519812111
547 547 0.0021966286422606305
548 547 0.00038136796057939388
578 547 0.00036610483535280078
579 547 0.0003813679605793941
548 548 0.0023797832740013788
549 548 0.00041189308230826869
579 548 0.00039663059411302693
580 548 0.00041189308230826869
549 549 0.0025629308508350948
550 549 0.00044241716253854845
580 549 0.00042715518057072967
581 549 0.00044241716253854801
550 550 0.0027460727913745449
581 550 0.00045767883006411308
551 551 0.0027460727913745471
552 551 0.00044241716253854845
582 551 0.00045767883006411308
583 551 0.00044241716253854845
552 552 0.0025629308508350944
553 552 0.00041189308230826869
583 552 0.00042715518057073049
584 552 0.00041189308230826912
553 553 0.0023797832740013792
554 553 0.0003813679605793941
584 553 0.00039663059411302693
585 553 0.0003813679605793941
554 554 0.002211889837313746
555 554 0.00041563787158701703
585 554 0.00030893908649046186
586 554 0.00035847212272467816
555 555 0.0020999652941585075
556 555 0.00028350325029411567
586 555 0.00041563787158701703
587 555 0.00035084152519812106
556 556 0.0020287266918730331
557 556 0.00033557758280331937
587 556 0.0003508415251981209
588 556 0.00035084152519812052
557 557 0.0020134650161677055
558 557 0.00033557758280331937
588 557 0.00035084152519812052
589 557 0.00035084152519812052
558 558 0.0020134650161677051
559 558 0.00033557758280331937
589 558 0.00035084152519812052
590 558 0.00035084152519812052
559 559 0.0020134650161677059
560 559 0.00033557758280331975
590 559 0.00035084152519812052
591 559 0.00035084152519812074
560 560 0.0020134650161677077
561 560 0.00033557758280331975
591 560 0.0003508415251981209
592 560 0.0003508415251981209
561 561 0.0020134650161677059
562 561 0.00033557758280331937
592 561 0.00035084152519812074
593 561 0.00035084152519812052
562 562 0.0020134650161677055
563 562 0.00033557758280331954
593 562 0.00035084152519812052
594 562 0.00035084152519812063
563 563 0.0020134650161677059
564 563 0.00033557758280331959
594 563 0.00035084152519812068
595 563 0.00035084152519812068
564 564 0.0020134650161677059
565 564 0.00033557758280331959
595 564 0.00035084152519812063
596 564 0.00035084152519812063
565 565 0.0020134650161677059
566 565 0.00033557758280331954
596 565 0.00035084152519812063
597 565 0.00035084152519812063
566 566 0.0020134650161677059
567 566 0.00033557758280331954
597 566 0.00035084152519812063
598 566 0.00035084152519812063
567 567 0.0020134650161677059
568 567 0.00033557758280331954
598 567 0.00035084152519812063
599 567 0.00035084152519812063
568 568 0.0020134650161677059
569 568 0.00033557758280331954
599 568 0.00035084152519812074
600 568 0.00035084152519812074
569 569 0.0020134650161677059
570 569 0.00033557758280331959
600 569 0.00035084152519812063
601 569 0.00035084152519812063
570 570 0.0020134650161677059
571 570 0.00033557758280331937
601 570 0.00035084152519812063
602 570 0.00035084152519812052
571 571 0.0020134650161677068
572 571 0.00033557758280331975
602 571 0.00035084152519812074
603 571 0.0003508415251981209
572 572 0.0020134650161677068
573 572 0.00033557758280331975
603 572 0.00035084152519812074
604 572 0.00035084152519812074
573 573 0.0020134650161677064
574 573 0.00033557758280331937
604 573 0.00035084152519812074
605 573 0.00035084152519812052
574 574 0.0020134650161677051
575 574 0.00033557758280331943
605 574 0.00035084152519812052
606 574 0.00035084152519812052
575 575 0.0020134650161677051
576 575 0.00033557758280331937
606 575 0.00035084152519812052
607 575 0.00035084152519812052
576 576 0.0020134650161677072
577 576 0.00033557758280332013
607 576 0.00035084152519812074
608 576 0.00035084152519812111
577 577 0.0020592545766626369
578 577 0.00035084152519812106
608 577 0.00035084152519812106
609 577 0.00035847212272467816
578 578 0.0021966286422606322
579 578 0.0003813679605793941
609 578 0.00036610483535280073
610 578 0.0003813679605793941
579 579 0.0023797832740013801
580 579 0.00041189308230826912
610 579 0.00039663059411302693
611 579 0.00041189308230826912
580 580 0.0025629308508350944
581 580 0.00044241716253854801
611 580 0.00042715518057073049
612 580 0.00044241716253854839
581 581 0.0027460727913745458
612 581 0.00045767883006411303
582 582 0.0027460727913745445
583 582 0.00044241716253854801
613 582 0.00045767883006411222
614 582 0.00044241716253854758
583 583 0.0025629308508350944
584 583 0.00041189308230826912
614 583 0.00042715518057072967
615 583 0.00041189308230826869
584 584 0.0023950440991983213
585 584 0.00045125472122513067
615 584 0.0003343742460657611
616 584 0.00038899837317786479
585 585 0.0022831235365899732
586 585 0.00030893908649046186
616 585 0.00045125472122513067
617 585 0.0003813679605793941
586 586 0.002211889837313746
587 586 0.00036610483535280073
617 586 0.0003813679605793941
618 586 0.0003813679605793941
587 587 0.0021966286422606309
588 587 0.00036610483535280035
618 587 0.0003813679605793941
619 587 0.00038136796057939388
588 588 0.0021966286422606296
589 588 0.00036610483535280035
619 588 0.00038136796057939405
620 588 0.00038136796057939405
589 589 0.0021966286422606292
590 589 0.00036610483535280035
620 589 0.00038136796057939388
621 589 0.00038136796057939388
590 590 0.0021966286422606296
591 590 0.00036610483535280035
621 590 0.00038136796057939405
622 590 0.00038136796057939405
591 591 0.0021966286422606305
592 591 0.00036610483535280073
622 591 0.00038136796057939388
623 591 0.0003813679605793941
592 592 0.0021966286422606309
593 592 0.00036610483535280035
623 592 0.00038136796057939421
624 592 0.00038136796057939399
593 593 0.0021966286422606296
594 593 0.00036610483535280035
624 593 0.00038136796057939399
625 593 0.00038136796057939399
594 594 0.00219662864226063
595 594 0.00036610483535280051
625 594 0.00038136796057939394
626 594 0.00038136796057939405
595 595 0.0021966286422606305
596 595 0.00036610483535280046
626 595 0.00038136796057939405
627 595 0.00038136796057939399
596 596 0.0021966286422606305
597 596 0.00036610483535280046
627 596 0.00038136796057939399
628 596 0.00038136796057939399
597 597 0.0021966286422606305
598 597 0.00036610483535280046
628 597 0.00038136796057939399
629 597 0.00038136796057939399
598 598 0.0021966286422606305
599 598 0.00036610483535280046
629 598 0.00038136796057939399
630 598 0.00038136796057939399
599 599 0.0021966286422606305
600 599 0.00036610483535280057
630 599 0.00038136796057939399
631 599 0.00038136796057939405
600 600 0.00219662864226063
601 600 0.00036610483535280035
631 600 0.00038136796057939405
632 600 0.00038136796057939394
601 601 0.0021966286422606296
602 601 0.00036610483535280035
632 601 0.00038136796057939399
633 601 0.00038136796057939399
602 602 0.00219662864226063
603 602 0.00036610483535280073
633 602 0.00038136796057939388
634 602 0.0003813679605793941
603 603 0.0021966286422606309
604 603 0.00036610483535280035
634 603 0.00038136796057939432
635 603 0.0003813679605793941
604 604 0.0021966286422606296
605 604 0.00036610483535280035
635 604 0.00038136796057939388
636 604 0.00038136796057939388
605 605 0.0021966286422606296
606 605 0.00036610483535280035
636 605 0.00038136796057939405
637 605 0.00038136796057939405
606 606 0.0021966286422606292
607 606 0.00036610483535280035
637 606 0.00038136796057939388
638 606 0.00038136796057939388
607 607 0.00219662864226063
608 607 0.00036610483535280078
638 607 0.00038136796057939388
639 607 0.0003813679605793941
608 608 0.0021966286422606318
609 608 0.00036610483535280073
639 608 0.0003813679605793941
640 608 0.0003813679605793941
609 609 0.0022424160877669323
610 609 0.0003813679605793941
640 609 0.0003813679605793941
641 609 0.00038899837317786479
610 610 0.0023797832740013792
611 610 0.00041189308230826869
641 610 0.00039663059411302693
642 610 0.00041189308230826869
611 611 0.0025629308508350939
612 611 0.00044241716253854801
642 611 0.00042715518057072967
643 611 0.00044241716253854758
612 612 0.0027460727913745449
643 612 0.00045767883006411222
613 613 0.0027460727913745453
614 613 0.00044241716253854801
644 613 0.00045767883006411308
645 613 0.00044241716253854845
614 614 0.0025781913853552534
615 614 0.00048686965976918977
645 614 0.00035980887036988942
646 614 0.00041952334956834919
615 615 0.002466273976286439
616 615 0.0003343742460657611
646 615 0.00048686965976918977
647 615 0.00041189308230826869
616 616 0.0023950440991983217
617 616 0.00039663059411302693
647 616 0.00041189308230826912
648 616 0.00041189308230826912
617 617 0.0023797832740013792
618 617 0.00039663059411302693
648 617 0.00041189308230826869
649 617 0.00041189308230826869
618 618 0.0023797832740013801
619 618 0.00039663059411302693
649 618 0.00041189308230826912
650 618 0.00041189308230826912
619 619 0.0023797832740013801
620 619 0.00039663059411302736
650 619 0.00041189308230826891
651 619 0.00041189308230826912
620 620 0.0023797832740013801
621 620 0.00039663059411302693
651 620 0.00041189308230826912
652 620 0.00041189308230826891
621 621 0.0023797832740013801
622 621 0.00039663059411302736
652 621 0.00041189308230826891
653 621 0.00041189308230826912
622 622 0.0023797832740013801
623 622 0.00039663059411302693
653 622 0.00041189308230826912
654 622 0.00041189308230826891
623 623 0.0023797832740013805
624 623 0.00039663059411302714
654 623 0.00041189308230826901
655 623 0.00041189308230826912
624 624 0.0023797832740013805
625 624 0.00039663059411302714
655 624 0.00041189308230826901
656 624 0.00041189308230826901
625 625 0.0023797832740013805
626 625 0.00039663059411302709
656 625 0.00041189308230826907
657 625 0.00041189308230826901
626 626 0.0023797832740013805
627 626 0.00039663059411302709
657 626 0.00041189308230826901
658 626 0.00041189308230826901
627 627 0.0023797832740013801
628 627 0.00039663059411302709
658 627 0.00041189308230826901
659 627 0.00041189308230826901
628 628 0.0023797832740013801
629 628 0.00039663059411302709
659 628 0.00041189308230826901
660 628 0.00041189308230826901
629 629 0.0023797832740013801
630 629 0.00039663059411302709
660 629 0.00041189308230826901
661 629 0.00041189308230826901
630 630 0.0023797832740013801
631 630 0.00039663059411302709
661 630 0.00041189308230826901
662 630 0.00041189308230826901
631 631 0.0023797832740013805
632 631 0.00039663059411302714
662 631 0.00041189308230826896
663 631 0.00041189308230826901
632 632 0.0023797832740013805
633 632 0.00039663059411302714
663 632 0.00041189308230826912
664 632 0.00041189308230826912
633 633 0.0023797832740013801
634 633 0.00039663059411302693
664 633 0.00041189308230826901
665 633 0.00041189308230826891
634 634 0.0023797832740013805
635 634 0.00039663059411302736
665 634 0.00041189308230826891
666 634 0.00041189308230826912
635 635 0.0023797832740013801
636 635 0.00039663059411302693
666 635 0.00041189308230826912
667 635 0.00041189308230826891
636 636 0.0023797832740013801
637 636 0.00039663059411302736
667 636 0.00041189308230826891
668 636 0.00041189308230826912
637 637 0.0023797832740013805
638 637 0.00039663059411302693
668 637 0.00041189308230826934
669 637 0.00041189308230826912
638 638 0.0023797832740013788
639 638 0.00039663059411302693
669 638 0.00041189308230826869
670 638 0.00041189308230826869
639 639 0.0023797832740013801
640 639 0.00039663059411302693
670 639 0.00041189308230826912
671 639 0.00041189308230826912
640 640 0.0023797832740013792
641 640 0.00039663059411302693
671 640 0.00041189308230826869
672 640 0.00041189308230826869
641 641 0.0024255690755888063
642 641 0.00041189308230826912
672 641 0.00041189308230826912
673 641 0.00041952334956834914
642 642 0.0025629308508350944
643 642 0.00044241716253854801
673 642 0.00042715518057073049
674 642 0.00044241716253854845
643 643 0.002746072791374544
674 643 0.00045767883006411308
644 644 0.0027613330933054176
645 644 0.00052248307963097707
675 644 0.00038524306393711977
676 644 0.00045004731350398424
645 645 0.0026494182250788303
646 645 0.00035980887036988942
676 645 0.00052248307963097707
677 645 0.00044241716253854845
646 646 0.0025781913853552534
647 646 0.00042715518057072967
677 646 0.00044241716253854801
678 646 0.00044241716253854758
647 647 0.0025629308508350944
648 647 0.00042715518057073049
678 647 0.00044241716253854801
679 647 0.00044241716253854845
648 648 0.0025629308508350948
649 648 0.00042715518057072967
679 648 0.00044241716253854845
680 648 0.00044241716253854801
649 649 0.0025629308508350935
650 649 0.00042715518057073049
680 649 0.00044241716253854758
681 649 0.00044241716253854801
650 650 0.0025629308508350957
651 650 0.00042715518057073005
681 650 0.00044241716253854845
682 650 0.00044241716253854823
651 651 0.0025629308508350944
652 651 0.00042715518057073005
682 651 0.00044241716253854801
683 651 0.00044241716253854801
652 652 0.0025629308508350944
653 652 0.00042715518057073011
683 652 0.00044241716253854801
684 652 0.00044241716253854801
653 653 0.0025629308508350948
654 653 0.00042715518057073005
684 653 0.00044241716253854823
685 653 0.00044241716253854823
654 654 0.0025629308508350944
655 654 0.00042715518057073027
685 654 0.00044241716253854801
686 654 0.00044241716253854812
655 655 0.0025629308508350944
656 655 0.00042715518057073005
686 655 0.00044241716253854812
687 655 0.00044241716253854801
656 656 0.0025629308508350948
657 656 0.00042715518057073016
687 656 0.00044241716253854812
688 656 0.00044241716253854818
657 657 0.0025629308508350944
658 657 0.00042715518057073016
688 657 0.00044241716253854812
689 657 0.00044241716253854807
658 658 0.0025629308508350944
659 658 0.00042715518057073011
689 658 0.00044241716253854807
690 658 0.00044241716253854807
659 659 0.0025629308508350944
660 659 0.00042715518057073011
690 659 0.00044241716253854807
691 659 0.00044241716253854807
660 660 0.0025629308508350944
661 660 0.00042715518057073011
691 660 0.00044241716253854812
692 660 0.00044241716253854812
661 661 0.0025629308508350948
662 661 0.00042715518057073016
692 661 0.00044241716253854812
693 661 0.00044241716253854818
662 662 0.0025629308508350944
663 662 0.00042715518057073005
693 662 0.00044241716253854807
694 662 0.00044241716253854801
663 663 0.0025629308508350948
664 663 0.00042715518057073027
694 663 0.00044241716253854801
695 663 0.00044241716253854812
664 664 0.0025629308508350957
665 664 0.00042715518057073011
695 664 0.00044241716253854834
696 664 0.00044241716253854823
665 665 0.0025629308508350944
666 665 0.00042715518057073005
696 665 0.00044241716253854801
697 665 0.00044241716253854801
666 666 0.0025629308508350948
667 666 0.00042715518057073011
697 666 0.00044241716253854801
698 666 0.00044241716253854801
667 667 0.0025629308508350948
668 667 0.00042715518057073011
698 667 0.00044241716253854823
699 667 0.00044241716253854823
668 668 0.0025629308508350948
669 668 0.00042715518057073049
699 668 0.0004424171625385478
700 668 0.00044241716253854801
669 669 0.0025629308508350948
670 669 0.00042715518057072967
700 669 0.00044241716253854845
701 669 0.00044241716253854801
670 670 0.0025629308508350939
671 670 0.00042715518057073049
701 670 0.00044241716253854801
702 670 0.00044241716253854839
671 671 0.0025629308508350939
672 671 0.00042715518057072967
702 671 0.00044241716253854801
703 671 0.00044241716253854758
672 672 0.0025629308508350944
673 672 0.00042715518057073049
703 672 0.00044241716253854801
704 672 0.00044241716253854845
673 673 0.0026087153492908906
674 673 0.00044241716253854801
704 673 0.00044241716253854801
705 673 0.00045004731350398419
674 674 0.0027460727913745449
705 674 0.00045767883006411222
675 675 0.0028325574793450774
676 675 0.00038524306393711977
676 676 0.0027613330933054176
677 676 0.00045767883006411308
677 677 0.0027460727913745453
678 677 0.00045767883006411222
678 678 0.0027460727913745445
679 678 0.00045767883006411308
679 679 0.0027460727913745471
680 679 0.00045767883006411308
680 680 0.0027460727913745445
681 680 0.00045767883006411222
681 681 0.0027460727913745453
682 681 0.00045767883006411308
682 682 0.0027460727913745458
683 682 0.00045767883006411265
683 683 0.0027460727913745449
684 683 0.00045767883006411265
684 684 0.0027460727913745458
685 684 0.00045767883006411308
685 685 0.0027460727913745458
686 685 0.00045767883006411265
686 686 0.0027460727913745449
687 686 0.00045767883006411265
687 687 0.0027460727913745453
688 687 0.00045767883006411287
688 688 0.0027460727913745453
689 688 0.0004576788300641127
689 689 0.0027460727913745449
690 689 0.0004576788300641127
690 690 0.0027460727913745449
691 690 0.0004576788300641127
691 691 0.0027460727913745449
692 691 0.00045767883006411276
692 692 0.0027460727913745458
693 692 0.00045767883006411287
693 693 0.0027460727913745453
694 693 0.00045767883006411265
694 694 0.0027460727913745449
695 694 0.00045767883006411265
695 695 0.0027460727913745458
696 695 0.00045767883006411308
696 696 0.0027460727913745458
697 696 0.00045767883006411265
697 697 0.0027460727913745449
698 697 0.00045767883006411265
698 698 0.0027460727913745458
699 698 0.00045767883006411308
699 699 0.0027460727913745449
700 699 0.00045767883006411222
700 700 0.0027460727913745453
701 700 0.00045767883006411308
701 701 0.0027460727913745462
702 701 0.00045767883006411303
702 702 0.0027460727913745453
703 702 0.00045767883006411222
703 703 0.0027460727913745445
704 703 0.00045767883006411308
704 704 0.0027460727913745453
705 704 0.00045767883006411222
705 705 0.0027918562393464143
