%%MatrixMarket matrix coordinate real symmetric
% lshape_p2_n16 mass M[int,int], mesh=lshape_16 p=2, interior-restricted
% lower triangle only (row >= col); mirror for the full matrix
2945 2945 17631
1 1 0.00078124999999999993
2 1 4.3402777777777779e-05
16 1 4.3402777777777779e-05
17 1 4.3402777777777779e-05
706 1 6.5104166666666666e-05
707 1 6.5104166666666666e-05
708 1 1.0850694444444445e-05
737 1 6.5104166666666666e-05
738 1 1.0850694444444445e-05
739 1 6.5104166666666666e-05
740 1 6.5104166666666666e-05
741 1 6.5104166666666666e-05
743 1 1.0850694444444445e-05
786 1 1.0850694444444445e-05
2 2 0.00078124999999999993
3 2 4.3402777777777779e-05
17 2 4.3402777777777779e-05
18 2 4.3402777777777779e-05
707 2 1.0850694444444445e-05
708 2 6.5104166666666666e-05
709 2 6.5104166666666666e-05
710 2 1.0850694444444445e-05
739 2 6.5104166666666666e-05
741 2 1.0850694444444445e-05
742 2 6.5104166666666666e-05
743 2 6.5104166666666666e-05
744 2 6.5104166666666666e-05
746 2 1.0850694444444445e-05
789 2 1.0850694444444445e-05
3 3 0.00078124999999999993
4 3 4.3402777777777779e-05
18 3 4.3402777777777779e-05
19 3 4.3402777777777779e-05
709 3 1.0850694444444445e-05
710 3 6.5104166666666666e-05
711 3 6.5104166666666666e-05
712 3 1.0850694444444445e-05
742 3 6.5104166666666666e-05
744 3 1.0850694444444445e-05
745 3 6.5104166666666666e-05
746 3 6.5104166666666666e-05
747 3 6.5104166666666666e-05
749 3 1.0850694444444445e-05
792 3 1.0850694444444445e-05
4 4 0.00078124999999999993
5 4 4.3402777777777779e-05
19 4 4.3402777777777779e-05
20 4 4.3402777777777779e-05
711 4 1.0850694444444445e-05
712 4 6.5104166666666666e-05
713 4 6.5104166666666666e-05
714 4 1.0850694444444445e-05
745 4 6.5104166666666666e-05
747 4 1.0850694444444445e-05
748 4 6.5104166666666666e-05
749 4 6.5104166666666666e-05
750 4 6.5104166666666666e-05
752 4 1.0850694444444445e-05
795 4 1.0850694444444445e-05
5 5 0.00078124999999999993
6 5 4.3402777777777779e-05
20 5 4.3402777777777779e-05
21 5 4.3402777777777779e-05
713 5 1.0850694444444445e-05
714 5 6.5104166666666666e-05
715 5 6.5104166666666666e-05
716 5 1.0850694444444445e-05
748 5 6.5104166666666666e-05
750 5 1.0850694444444445e-05
751 5 6.5104166666666666e-05
752 5 6.5104166666666666e-05
753 5 6.5104166666666666e-05
755 5 1.0850694444444445e-05
798 5 1.0850694444444445e-05
6 6 0.00078124999999999993
7 6 4.3402777777777779e-05
21 6 4.3402777777777779e-05
22 6 4.3402777777777779e-05
715 6 1.0850694444444445e-05
716 6 6.5104166666666666e-05
717 6 6.5104166666666666e-05
718 6 1.0850694444444445e-05
751 6 6.5104166666666666e-05
753 6 1.0850694444444445e-05
754 6 6.5104166666666666e-05
755 6 6.5104166666666666e-05
756 6 6.5104166666666666e-05
758 6 1.0850694444444445e-05
801 6 1.0850694444444445e-05
7 7 0.00078124999999999993
8 7 4.3402777777777779e-05
22 7 4.3402777777777779e-05
23 7 4.3402777777777779e-05
717 7 1.0850694444444445e-05
718 7 6.5104166666666666e-05
719 7 6.5104166666666666e-05
720 7 1.0850694444444445e-05
754 7 6.5104166666666666e-05
756 7 1.0850694444444445e-05
757 7 6.5104166666666666e-05
758 7 6.5104166666666666e-05
759 7 6.5104166666666666e-05
761 7 1.0850694444444445e-05
804 7 1.0850694444444445e-05
8 8 0.00078124999999999993
9 8 4.3402777777777779e-05
23 8 4.3402777777777779e-05
24 8 4.3402777777777779e-05
719 8 1.0850694444444445e-05
720 8 6.5104166666666666e-05
721 8 6.5104166666666666e-05
722 8 1.0850694444444445e-05
757 8 6.5104166666666666e-05
759 8 1.0850694444444445e-05
760 8 6.5104166666666666e-05
761 8 6.5104166666666666e-05
762 8 6.5104166666666666e-05
764 8 1.0850694444444445e-05
807 8 1.0850694444444445e-05
9 9 0.00078124999999999993
10 9 4.3402777777777779e-05
24 9 4.3402777777777779e-05
25 9 4.3402777777777779e-05
721 9 1.0850694444444445e-05
722 9 6.5104166666666666e-05
723 9 6.5104166666666666e-05
724 9 1.0850694444444445e-05
760 9 6.5104166666666666e-05
762 9 1.0850694444444445e-05
763 9 6.5104166666666666e-05
764 9 6.5104166666666666e-05
765 9 6.5104166666666666e-05
767 9 1.0850694444444445e-05
810 9 1.0850694444444445e-05
10 10 0.00078124999999999993
11 10 4.3402777777777779e-05
25 10 4.3402777777777779e-05
26 10 4.3402777777777779e-05
723 10 1.0850694444444445e-05
724 10 6.5104166666666666e-05
725 10 6.5104166666666666e-05
726 10 1.0850694444444445e-05
763 10 6.5104166666666666e-05
765 10 1.0850694444444445e-05
766 10 6.5104166666666666e-05
767 10 6.5104166666666666e-05
768 10 6.5104166666666666e-05
770 10 1.0850694444444445e-05
813 10 1.0850694444444445e-05
11 11 0.00078124999999999993
12 11 4.3402777777777779e-05
26 11 4.3402777777777779e-05
27 11 4.3402777777777779e-05
725 11 1.0850694444444445e-05
726 11 6.5104166666666666e-05
727 11 6.5104166666666666e-05
728 11 1.0850694444444445e-05
766 11 6.5104166666666666e-05
768 11 1.0850694444444445e-05
769 11 6.5104166666666666e-05
770 11 6.5104166666666666e-05
771 11 6.5104166666666666e-05
773 11 1.0850694444444445e-05
816 11 1.0850694444444445e-05
12 12 0.00078124999999999993
13 12 4.3402777777777779e-05
27 12 4.3402777777777779e-05
28 12 4.3402777777777779e-05
727 12 1.0850694444444445e-05
728 12 6.5104166666666666e-05
729 12 6.5104166666666666e-05
730 12 1.0850694444444445e-05
769 12 6.5104166666666666e-05
771 12 1.0850694444444445e-05
772 12 6.5104166666666666e-05
773 12 6.5104166666666666e-05
774 12 6.5104166666666666e-05
776 12 1.0850694444444445e-05
819 12 1.0850694444444445e-05
13 13 0.00078124999999999993
14 13 4.3402777777777779e-05
28 13 4.3402777777777779e-05
29 13 4.3402777777777779e-05
729 13 1.0850694444444445e-05
730 13 6.5104166666666666e-05
731 13 6.5104166666666666e-05
732 13 1.0850694444444445e-05
772 13 6.5104166666666666e-05
774 13 1.0850694444444445e-05
775 13 6.5104166666666666e-05
776 13 6.5104166666666666e-05
777 13 6.5104166666666666e-05
779 13 1.0850694444444445e-05
822 13 1.0850694444444445e-05
14 14 0.00078124999999999993
15 14 4.3402777777777779e-05
29 14 4.3402777777777779e-05
30 14 4.3402777777777779e-05
731 14 1.0850694444444445e-05
732 14 6.5104166666666666e-05
733 14 6.5104166666666666e-05
734 14 1.0850694444444445e-05
775 14 6.5104166666666666e-05
777 14 1.0850694444444445e-05
778 14 6.5104166666666666e-05
779 14 6.5104166666666666e-05
780 14 6.5104166666666666e-05
782 14 1.0850694444444445e-05
825 14 1.0850694444444445e-05
15 15 0.00078124999999999993
30 15 4.3402777777777779e-05
733 15 1.0850694444444445e-05
734 15 6.5104166666666666e-05
735 15 6.5104166666666666e-05
736 15 1.0850694444444445e-05
778 15 6.5104166666666666e-05
780 15 1.0850694444444445e-05
781 15 6.5104166666666666e-05
782 15 6.5104166666666666e-05
783 15 6.5104166666666666e-05
828 15 1.0850694444444445e-05
16 16 0.00078124999999999993
17 16 4.3402777777777779e-05
31 16 4.3402777777777779e-05
32 16 4.3402777777777779e-05
737 16 1.0850694444444445e-05
738 16 6.5104166666666666e-05
740 16 6.5104166666666666e-05
741 16 1.0850694444444445e-05
784 16 6.5104166666666666e-05
785 16 1.0850694444444445e-05
786 16 6.5104166666666666e-05
787 16 6.5104166666666666e-05
788 16 6.5104166666666666e-05
790 16 1.0850694444444445e-05
833 16 1.0850694444444445e-05
17 17 0.00078124999999999993
18 17 4.3402777777777779e-05
32 17 4.3402777777777779e-05
33 17 4.3402777777777779e-05
739 17 1.0850694444444445e-05
740 17 1.0850694444444445e-05
741 17 6.5104166666666666e-05
743 17 6.5104166666666666e-05
744 17 1.0850694444444445e-05
786 17 6.5104166666666666e-05
788 17 1.0850694444444445e-05
789 17 6.5104166666666666e-05
790 17 6.5104166666666666e-05
791 17 6.5104166666666666e-05
793 17 1.0850694444444445e-05
836 17 1.0850694444444445e-05
18 18 0.00078124999999999993
19 18 4.3402777777777779e-05
33 18 4.3402777777777779e-05
34 18 4.3402777777777779e-05
742 18 1.0850694444444445e-05
743 18 1.0850694444444445e-05
744 18 6.5104166666666666e-05
746 18 6.5104166666666666e-05
747 18 1.0850694444444445e-05
789 18 6.5104166666666666e-05
791 18 1.0850694444444445e-05
792 18 6.5104166666666666e-05
793 18 6.5104166666666666e-05
794 18 6.5104166666666666e-05
796 18 1.0850694444444445e-05
839 18 1.0850694444444445e-05
19 19 0.00078124999999999993
20 19 4.3402777777777779e-05
34 19 4.3402777777777779e-05
35 19 4.3402777777777779e-05
745 19 1.0850694444444445e-05
746 19 1.0850694444444445e-05
747 19 6.5104166666666666e-05
749 19 6.5104166666666666e-05
750 19 1.0850694444444445e-05
792 19 6.5104166666666666e-05
794 19 1.0850694444444445e-05
795 19 6.5104166666666666e-05
796 19 6.5104166666666666e-05
797 19 6.5104166666666666e-05
799 19 1.0850694444444445e-05
842 19 1.0850694444444445e-05
20 20 0.00078124999999999993
21 20 4.3402777777777779e-05
35 20 4.3402777777777779e-05
36 20 4.3402777777777779e-05
748 20 1.0850694444444445e-05
749 20 1.0850694444444445e-05
750 20 6.5104166666666666e-05
752 20 6.5104166666666666e-05
753 20 1.0850694444444445e-05
795 20 6.5104166666666666e-05
797 20 1.0850694444444445e-05
798 20 6.5104166666666666e-05
799 20 6.5104166666666666e-05
800 20 6.5104166666666666e-05
802 20 1.0850694444444445e-05
845 20 1.0850694444444445e-05
21 21 0.00078124999999999993
22 21 4.3402777777777779e-05
36 21 4.3402777777777779e-05
37 21 4.3402777777777779e-05
751 21 1.0850694444444445e-05
752 21 1.0850694444444445e-05
753 21 6.5104166666666666e-05
755 21 6.5104166666666666e-05
756 21 1.0850694444444445e-05
798 21 6.5104166666666666e-05
800 21 1.0850694444444445e-05
801 21 6.5104166666666666e-05
802 21 6.5104166666666666e-05
803 21 6.5104166666666666e-05
805 21 1.0850694444444445e-05
848 21 1.0850694444444445e-05
22 22 0.00078124999999999993
23 22 4.3402777777777779e-05
37 22 4.3402777777777779e-05
38 22 4.3402777777777779e-05
754 22 1.0850694444444445e-05
755 22 1.0850694444444445e-05
756 22 6.5104166666666666e-05
758 22 6.5104166666666666e-05
759 22 1.0850694444444445e-05
801 22 6.5104166666666666e-05
803 22 1.0850694444444445e-05
804 22 6.5104166666666666e-05
805 22 6.5104166666666666e-05
806 22 6.5104166666666666e-05
808 22 1.0850694444444445e-05
851 22 1.0850694444444445e-05
23 23 0.00078124999999999993
24 23 4.3402777777777779e-05
38 23 4.3402777777777779e-05
39 23 4.3402777777777779e-05
757 23 1.0850694444444445e-05
758 23 1.0850694444444445e-05
759 23 6.5104166666666666e-05
761 23 6.5104166666666666e-05
762 23 1.0850694444444445e-05
804 23 6.5104166666666666e-05
806 23 1.0850694444444445e-05
807 23 6.5104166666666666e-05
808 23 6.5104166666666666e-05
809 23 6.5104166666666666e-05
811 23 1.0850694444444445e-05
854 23 1.0850694444444445e-05
24 24 0.00078124999999999993
25 24 4.3402777777777779e-05
39 24 4.3402777777777779e-05
40 24 4.3402777777777779e-05
760 24 1.0850694444444445e-05
761 24 1.0850694444444445e-05
762 24 6.5104166666666666e-05
764 24 6.5104166666666666e-05
765 24 1.0850694444444445e-05
807 24 6.5104166666666666e-05
809 24 1.0850694444444445e-05
810 24 6.5104166666666666e-05
811 24 6.5104166666666666e-05
812 24 6.5104166666666666e-05
814 24 1.0850694444444445e-05
857 24 1.0850694444444445e-05
25 25 0.00078124999999999993
26 25 4.3402777777777779e-05
40 25 4.3402777777777779e-05
41 25 4.3402777777777779e-05
763 25 1.0850694444444445e-05
764 25 1.0850694444444445e-05
765 25 6.5104166666666666e-05
767 25 6.5104166666666666e-05
768 25 1.0850694444444445e-05
810 25 6.5104166666666666e-05
812 25 1.0850694444444445e-05
813 25 6.5104166666666666e-05
814 25 6.5104166666666666e-05
815 25 6.5104166666666666e-05
817 25 1.0850694444444445e-05
860 25 1.0850694444444445e-05
26 26 0.00078124999999999993
27 26 4.3402777777777779e-05
41 26 4.3402777777777779e-05
42 26 4.3402777777777779e-05
766 26 1.0850694444444445e-05
767 26 1.0850694444444445e-05
768 26 6.5104166666666666e-05
770 26 6.5104166666666666e-05
771 26 1.0850694444444445e-05
813 26 6.5104166666666666e-05
815 26 1.0850694444444445e-05
816 26 6.5104166666666666e-05
817 26 6.5104166666666666e-05
818 26 6.5104166666666666e-05
820 26 1.0850694444444445e-05
863 26 1.0850694444444445e-05
27 27 0.00078124999999999993
28 27 4.3402777777777779e-05
42 27 4.3402777777777779e-05
43 27 4.3402777777777779e-05
769 27 1.0850694444444445e-05
770 27 1.0850694444444445e-05
771 27 6.5104166666666666e-05
773 27 6.5104166666666666e-05
774 27 1.0850694444444445e-05
816 27 6.5104166666666666e-05
818 27 1.0850694444444445e-05
819 27 6.5104166666666666e-05
820 27 6.5104166666666666e-05
821 27 6.5104166666666666e-05
823 27 1.0850694444444445e-05
866 27 1.0850694444444445e-05
28 28 0.00078124999999999993
29 28 4.3402777777777779e-05
43 28 4.3402777777777779e-05
44 28 4.3402777777777779e-05
772 28 1.0850694444444445e-05
773 28 1.0850694444444445e-05
774 28 6.5104166666666666e-05
776 28 6.5104166666666666e-05
777 28 1.0850694444444445e-05
819 28 6.5104166666666666e-05
821 28 1.0850694444444445e-05
822 28 6.5104166666666666e-05
823 28 6.5104166666666666e-05
824 28 6.5104166666666666e-05
826 28 1.0850694444444445e-05
869 28 1.0850694444444445e-05
29 29 0.00078124999999999993
30 29 4.3402777777777779e-05
44 29 4.3402777777777779e-05
45 29 4.3402777777777779e-05
775 29 1.0850694444444445e-05
776 29 1.0850694444444445e-05
777 29 6.5104166666666666e-05
779 29 6.5104166666666666e-05
780 29 1.0850694444444445e-05
822 29 6.5104166666666666e-05
824 29 1.0850694444444445e-05
825 29 6.5104166666666666e-05
826 29 6.5104166666666666e-05
827 29 6.5104166666666666e-05
829 29 1.0850694444444445e-05
872 29 1.0850694444444445e-05
30 30 0.00078124999999999993
45 30 4.3402777777777779e-05
778 30 1.0850694444444445e-05
779 30 1.0850694444444445e-05
780 30 6.5104166666666666e-05
782 30 6.5104166666666666e-05
783 30 1.0850694444444445e-05
825 30 6.5104166666666666e-05
827 30 1.0850694444444445e-05
828 30 6.5104166666666666e-05
829 30 6.5104166666666666e-05
830 30 6.5104166666666666e-05
875 30 1.0850694444444445e-05
31 31 0.00078124999999999993
32 31 4.3402777777777779e-05
46 31 4.3402777777777779e-05
47 31 4.3402777777777779e-05
784 31 1.0850694444444445e-05
785 31 6.5104166666666666e-05
787 31 6.5104166666666666e-05
788 31 1.0850694444444445e-05
831 31 6.5104166666666666e-05
832 31 1.0850694444444445e-05
833 31 6.5104166666666666e-05
834 31 6.5104166666666666e-05
835 31 6.5104166666666666e-05
837 31 1.0850694444444445e-05
880 31 1.0850694444444445e-05
32 32 0.00078124999999999993
33 32 4.3402777777777779e-05
47 32 4.3402777777777779e-05
48 32 4.3402777777777779e-05
786 32 1.0850694444444445e-05
787 32 1.0850694444444445e-05
788 32 6.5104166666666666e-05
790 32 6.5104166666666666e-05
791 32 1.0850694444444445e-05
833 32 6.5104166666666666e-05
835 32 1.0850694444444445e-05
836 32 6.5104166666666666e-05
837 32 6.5104166666666666e-05
838 32 6.5104166666666666e-05
840 32 1.0850694444444445e-05
883 32 1.0850694444444445e-05
33 33 0.00078124999999999993
34 33 4.3402777777777779e-05
48 33 4.3402777777777779e-05
49 33 4.3402777777777779e-05
789 33 1.0850694444444445e-05
790 33 1.0850694444444445e-05
791 33 6.5104166666666666e-05
793 33 6.5104166666666666e-05
794 33 1.0850694444444445e-05
836 33 6.5104166666666666e-05
838 33 1.0850694444444445e-05
839 33 6.5104166666666666e-05
840 33 6.5104166666666666e-05
841 33 6.5104166666666666e-05
843 33 1.0850694444444445e-05
886 33 1.0850694444444445e-05
34 34 0.00078124999999999993
35 34 4.3402777777777779e-05
49 34 4.3402777777777779e-05
50 34 4.3402777777777779e-05
792 34 1.0850694444444445e-05
793 34 1.0850694444444445e-05
794 34 6.5104166666666666e-05
796 34 6.5104166666666666e-05
797 34 1.0850694444444445e-05
839 34 6.5104166666666666e-05
841 34 1.0850694444444445e-05
842 34 6.5104166666666666e-05
843 34 6.5104166666666666e-05
844 34 6.5104166666666666e-05
846 34 1.0850694444444445e-05
889 34 1.0850694444444445e-05
35 35 0.00078124999999999993
36 35 4.3402777777777779e-05
50 35 4.3402777777777779e-05
51 35 4.3402777777777779e-05
795 35 1.0850694444444445e-05
796 35 1.0850694444444445e-05
797 35 6.5104166666666666e-05
799 35 6.5104166666666666e-05
800 35 1.0850694444444445e-05
842 35 6.5104166666666666e-05
844 35 1.0850694444444445e-05
845 35 6.5104166666666666e-05
846 35 6.5104166666666666e-05
847 35 6.5104166666666666e-05
849 35 1.0850694444444445e-05
892 35 1.0850694444444445e-05
36 36 0.00078124999999999993
37 36 4.3402777777777779e-05
51 36 4.3402777777777779e-05
52 36 4.3402777777777779e-05
798 36 1.0850694444444445e-05
799 36 1.0850694444444445e-05
800 36 6.5104166666666666e-05
802 36 6.5104166666666666e-05
803 36 1.0850694444444445e-05
845 36 6.5104166666666666e-05
847 36 1.0850694444444445e-05
848 36 6.5104166666666666e-05
849 36 6.5104166666666666e-05
850 36 6.5104166666666666e-05
852 36 1.0850694444444445e-05
895 36 1.0850694444444445e-05
37 37 0.00078124999999999993
38 37 4.3402777777777779e-05
52 37 4.3402777777777779e-05
53 37 4.3402777777777779e-05
801 37 1.0850694444444445e-05
802 37 1.0850694444444445e-05
803 37 6.5104166666666666e-05
805 37 6.5104166666666666e-05
806 37 1.0850694444444445e-05
848 37 6.5104166666666666e-05
850 37 1.0850694444444445e-05
851 37 6.5104166666666666e-05
852 37 6.5104166666666666e-05
853 37 6.5104166666666666e-05
855 37 1.0850694444444445e-05
898 37 1.0850694444444445e-05
38 38 0.00078124999999999993
39 38 4.3402777777777779e-05
53 38 4.3402777777777779e-05
54 38 4.3402777777777779e-05
804 38 1.0850694444444445e-05
805 38 1.0850694444444445e-05
806 38 6.5104166666666666e-05
808 38 6.5104166666666666e-05
809 38 1.0850694444444445e-05
851 38 6.5104166666666666e-05
853 38 1.0850694444444445e-05
854 38 6.5104166666666666e-05
855 38 6.5104166666666666e-05
856 38 6.5104166666666666e-05
858 38 1.0850694444444445e-05
901 38 1.0850694444444445e-05
39 39 0.00078124999999999993
40 39 4.3402777777777779e-05
54 39 4.3402777777777779e-05
55 39 4.3402777777777779e-05
807 39 1.0850694444444445e-05
808 39 1.0850694444444445e-05
809 39 6.5104166666666666e-05
811 39 6.5104166666666666e-05
812 39 1.0850694444444445e-05
854 39 6.5104166666666666e-05
856 39 1.0850694444444445e-05
857 39 6.5104166666666666e-05
858 39 6.5104166666666666e-05
859 39 6.5104166666666666e-05
861 39 1.0850694444444445e-05
904 39 1.0850694444444445e-05
40 40 0.00078124999999999993
41 40 4.3402777777777779e-05
55 40 4.3402777777777779e-05
56 40 4.3402777777777779e-05
810 40 1.0850694444444445e-05
811 40 1.0850694444444445e-05
812 40 6.5104166666666666e-05
814 40 6.5104166666666666e-05
815 40 1.0850694444444445e-05
857 40 6.5104166666666666e-05
859 40 1.0850694444444445e-05
860 40 6.5104166666666666e-05
861 40 6.5104166666666666e-05
862 40 6.5104166666666666e-05
864 40 1.0850694444444445e-05
907 40 1.0850694444444445e-05
41 41 0.00078124999999999993
42 41 4.3402777777777779e-05
56 41 4.3402777777777779e-05
57 41 4.3402777777777779e-05
813 41 1.0850694444444445e-05
814 41 1.0850694444444445e-05
815 41 6.5104166666666666e-05
817 41 6.5104166666666666e-05
818 41 1.0850694444444445e-05
860 41 6.5104166666666666e-05
862 41 1.0850694444444445e-05
863 41 6.5104166666666666e-05
864 41 6.5104166666666666e-05
865 41 6.5104166666666666e-05
867 41 1.0850694444444445e-05
910 41 1.0850694444444445e-05
42 42 0.00078124999999999993
43 42 4.3402777777777779e-05
57 42 4.3402777777777779e-05
58 42 4.3402777777777779e-05
816 42 1.0850694444444445e-05
817 42 1.0850694444444445e-05
818 42 6.5104166666666666e-05
820 42 6.5104166666666666e-05
821 42 1.0850694444444445e-05
863 42 6.5104166666666666e-05
865 42 1.0850694444444445e-05
866 42 6.5104166666666666e-05
867 42 6.5104166666666666e-05
868 42 6.5104166666666666e-05
870 42 1.0850694444444445e-05
913 42 1.0850694444444445e-05
43 43 0.00078124999999999993
44 43 4.3402777777777779e-05
58 43 4.3402777777777779e-05
59 43 4.3402777777777779e-05
819 43 1.0850694444444445e-05
820 43 1.0850694444444445e-05
821 43 6.5104166666666666e-05
823 43 6.5104166666666666e-05
824 43 1.0850694444444445e-05
866 43 6.5104166666666666e-05
868 43 1.0850694444444445e-05
869 43 6.5104166666666666e-05
870 43 6.5104166666666666e-05
871 43 6.5104166666666666e-05
873 43 1.0850694444444445e-05
916 43 1.0850694444444445e-05
44 44 0.00078124999999999993
45 44 4.3402777777777779e-05
59 44 4.3402777777777779e-05
60 44 4.3402777777777779e-05
822 44 1.0850694444444445e-05
823 44 1.0850694444444445e-05
824 44 6.5104166666666666e-05
826 44 6.5104166666666666e-05
827 44 1.0850694444444445e-05
869 44 6.5104166666666666e-05
871 44 1.0850694444444445e-05
872 44 6.5104166666666666e-05
873 44 6.5104166666666666e-05
874 44 6.5104166666666666e-05
876 44 1.0850694444444445e-05
919 44 1.0850694444444445e-05
45 45 0.00078124999999999993
60 45 4.3402777777777779e-05
825 45 1.0850694444444445e-05
826 45 1.0850694444444445e-05
827 45 6.5104166666666666e-05
829 45 6.5104166666666666e-05
830 45 1.0850694444444445e-05
872 45 6.5104166666666666e-05
874 45 1.0850694444444445e-05
875 45 6.5104166666666666e-05
876 45 6.5104166666666666e-05
877 45 6.5104166666666666e-05
922 45 1.0850694444444445e-05
46 46 0.00078124999999999993
47 46 4.3402777777777779e-05
61 46 4.3402777777777779e-05
62 46 4.3402777777777779e-05
831 46 1.0850694444444445e-05
832 46 6.5104166666666666e-05
834 46 6.5104166666666666e-05
835 46 1.0850694444444445e-05
878 46 6.5104166666666666e-05
879 46 1.0850694444444445e-05
880 46 6.5104166666666666e-05
881 46 6.5104166666666666e-05
882 46 6.5104166666666666e-05
884 46 1.0850694444444445e-05
927 46 1.0850694444444445e-05
47 47 0.00078124999999999993
48 47 4.3402777777777779e-05
62 47 4.3402777777777779e-05
63 47 4.3402777777777779e-05
833 47 1.0850694444444445e-05
834 47 1.0850694444444445e-05
835 47 6.5104166666666666e-05
837 47 6.5104166666666666e-05
838 47 1.0850694444444445e-05
880 47 6.5104166666666666e-05
882 47 1.0850694444444445e-05
883 47 6.5104166666666666e-05
884 47 6.5104166666666666e-05
885 47 6.5104166666666666e-05
887 47 1.0850694444444445e-05
930 47 1.0850694444444445e-05
48 48 0.00078124999999999993
49 48 4.3402777777777779e-05
63 48 4.3402777777777779e-05
64 48 4.3402777777777779e-05
836 48 1.0850694444444445e-05
837 48 1.0850694444444445e-05
838 48 6.5104166666666666e-05
840 48 6.5104166666666666e-05
841 48 1.0850694444444445e-05
883 48 6.5104166666666666e-05
885 48 1.0850694444444445e-05
886 48 6.5104166666666666e-05
887 48 6.5104166666666666e-05
888 48 6.5104166666666666e-05
890 48 1.0850694444444445e-05
933 48 1.0850694444444445e-05
49 49 0.00078124999999999993
50 49 4.3402777777777779e-05
64 49 4.3402777777777779e-05
65 49 4.3402777777777779e-05
839 49 1.0850694444444445e-05
840 49 1.0850694444444445e-05
841 49 6.5104166666666666e-05
843 49 6.5104166666666666e-05
844 49 1.0850694444444445e-05
886 49 6.5104166666666666e-05
888 49 1.0850694444444445e-05
889 49 6.5104166666666666e-05
890 49 6.5104166666666666e-05
891 49 6.5104166666666666e-05
893 49 1.0850694444444445e-05
936 49 1.0850694444444445e-05
50 50 0.00078124999999999993
51 50 4.3402777777777779e-05
65 50 4.3402777777777779e-05
66 50 4.3402777777777779e-05
842 50 1.0850694444444445e-05
843 50 1.0850694444444445e-05
844 50 6.5104166666666666e-05
846 50 6.5104166666666666e-05
847 50 1.0850694444444445e-05
889 50 6.5104166666666666e-05
891 50 1.0850694444444445e-05
892 50 6.5104166666666666e-05
893 50 6.5104166666666666e-05
894 50 6.5104166666666666e-05
896 50 1.0850694444444445e-05
939 50 1.0850694444444445e-05
51 51 0.00078124999999999993
52 51 4.3402777777777779e-05
66 51 4.3402777777777779e-05
67 51 4.3402777777777779e-05
845 51 1.0850694444444445e-05
846 51 1.0850694444444445e-05
847 51 6.5104166666666666e-05
849 51 6.5104166666666666e-05
850 51 1.0850694444444445e-05
892 51 6.5104166666666666e-05
894 51 1.0850694444444445e-05
895 51 6.5104166666666666e-05
896 51 6.5104166666666666e-05
897 51 6.5104166666666666e-05
899 51 1.0850694444444445e-05
942 51 1.0850694444444445e-05
52 52 0.00078124999999999993
53 52 4.3402777777777779e-05
67 52 4.3402777777777779e-05
68 52 4.3402777777777779e-05
848 52 1.0850694444444445e-05
849 52 1.0850694444444445e-05
850 52 6.5104166666666666e-05
852 52 6.5104166666666666e-05
853 52 1.0850694444444445e-05
895 52 6.5104166666666666e-05
897 52 1.0850694444444445e-05
898 52 6.5104166666666666e-05
899 52 6.5104166666666666e-05
900 52 6.5104166666666666e-05
902 52 1.0850694444444445e-05
945 52 1.0850694444444445e-05
53 53 0.00078124999999999993
54 53 4.3402777777777779e-05
68 53 4.3402777777777779e-05
69 53 4.3402777777777779e-05
851 53 1.0850694444444445e-05
852 53 1.0850694444444445e-05
853 53 6.5104166666666666e-05
855 53 6.5104166666666666e-05
856 53 1.0850694444444445e-05
898 53 6.5104166666666666e-05
900 53 1.0850694444444445e-05
901 53 6.5104166666666666e-05
902 53 6.5104166666666666e-05
903 53 6.5104166666666666e-05
905 53 1.0850694444444445e-05
948 53 1.0850694444444445e-05
54 54 0.00078124999999999993
55 54 4.3402777777777779e-05
69 54 4.3402777777777779e-05
70 54 4.3402777777777779e-05
854 54 1.0850694444444445e-05
855 54 1.0850694444444445e-05
856 54 6.5104166666666666e-05
858 54 6.5104166666666666e-05
859 54 1.0850694444444445e-05
901 54 6.5104166666666666e-05
903 54 1.0850694444444445e-05
904 54 6.5104166666666666e-05
905 54 6.5104166666666666e-05
906 54 6.5104166666666666e-05
908 54 1.0850694444444445e-05
951 54 1.0850694444444445e-05
55 55 0.00078124999999999993
56 55 4.3402777777777779e-05
70 55 4.3402777777777779e-05
71 55 4.3402777777777779e-05
857 55 1.0850694444444445e-05
858 55 1.0850694444444445e-05
859 55 6.5104166666666666e-05
861 55 6.5104166666666666e-05
862 55 1.0850694444444445e-05
904 55 6.5104166666666666e-05
906 55 1.0850694444444445e-05
907 55 6.5104166666666666e-05
908 55 6.5104166666666666e-05
909 55 6.5104166666666666e-05
911 55 1.0850694444444445e-05
954 55 1.0850694444444445e-05
56 56 0.00078124999999999993
57 56 4.3402777777777779e-05
71 56 4.3402777777777779e-05
72 56 4.3402777777777779e-05
860 56 1.0850694444444445e-05
861 56 1.0850694444444445e-05
862 56 6.5104166666666666e-05
864 56 6.5104166666666666e-05
865 56 1.0850694444444445e-05
907 56 6.5104166666666666e-05
909 56 1.0850694444444445e-05
910 56 6.5104166666666666e-05
911 56 6.5104166666666666e-05
912 56 6.5104166666666666e-05
914 56 1.0850694444444445e-05
957 56 1.0850694444444445e-05
57 57 0.00078124999999999993
58 57 4.3402777777777779e-05
72 57 4.3402777777777779e-05
73 57 4.3402777777777779e-05
863 57 1.0850694444444445e-05
864 57 1.0850694444444445e-05
865 57 6.5104166666666666e-05
867 57 6.5104166666666666e-05
868 57 1.0850694444444445e-05
910 57 6.5104166666666666e-05
912 57 1.0850694444444445e-05
913 57 6.5104166666666666e-05
914 57 6.5104166666666666e-05
915 57 6.5104166666666666e-05
917 57 1.0850694444444445e-05
960 57 1.0850694444444445e-05
58 58 0.00078124999999999993
59 58 4.3402777777777779e-05
73 58 4.3402777777777779e-05
74 58 4.3402777777777779e-05
866 58 1.0850694444444445e-05
867 58 1.0850694444444445e-05
868 58 6.5104166666666666e-05
870 58 6.5104166666666666e-05
871 58 1.0850694444444445e-05
913 58 6.5104166666666666e-05
915 58 1.0850694444444445e-05
916 58 6.5104166666666666e-05
917 58 6.5104166666666666e-05
918 58 6.5104166666666666e-05
920 58 1.0850694444444445e-05
963 58 1.0850694444444445e-05
59 59 0.00078124999999999993
60 59 4.3402777777777779e-05
74 59 4.3402777777777779e-05
75 59 4.3402777777777779e-05
869 59 1.0850694444444445e-05
870 59 1.0850694444444445e-05
871 59 6.5104166666666666e-05
873 59 6.5104166666666666e-05
874 59 1.0850694444444445e-05
916 59 6.5104166666666666e-05
918 59 1.0850694444444445e-05
919 59 6.5104166666666666e-05
920 59 6.5104166666666666e-05
921 59 6.5104166666666666e-05
923 59 1.0850694444444445e-05
966 59 1.0850694444444445e-05
60 60 0.00078124999999999993
75 60 4.3402777777777779e-05
872 60 1.0850694444444445e-05
873 60 1.0850694444444445e-05
874 60 6.5104166666666666e-05
876 60 6.5104166666666666e-05
877 60 1.0850694444444445e-05
919 60 6.5104166666666666e-05
921 60 1.0850694444444445e-05
922 60 6.5104166666666666e-05
923 60 6.5104166666666666e-05
924 60 6.5104166666666666e-05
969 60 1.0850694444444445e-05
61 61 0.00078124999999999993
62 61 4.3402777777777779e-05
76 61 4.3402777777777779e-05
77 61 4.3402777777777779e-05
878 61 1.0850694444444445e-05
879 61 6.5104166666666666e-05
881 61 6.5104166666666666e-05
882 61 1.0850694444444445e-05
925 61 6.5104166666666666e-05
926 61 1.0850694444444445e-05
927 61 6.5104166666666666e-05
928 61 6.5104166666666666e-05
929 61 6.5104166666666666e-05
931 61 1.0850694444444445e-05
974 61 1.0850694444444445e-05
62 62 0.00078124999999999993
63 62 4.3402777777777779e-05
77 62 4.3402777777777779e-05
78 62 4.3402777777777779e-05
880 62 1.0850694444444445e-05
881 62 1.0850694444444445e-05
882 62 6.5104166666666666e-05
884 62 6.5104166666666666e-05
885 62 1.0850694444444445e-05
927 62 6.5104166666666666e-05
929 62 1.0850694444444445e-05
930 62 6.5104166666666666e-05
931 62 6.5104166666666666e-05
932 62 6.5104166666666666e-05
934 62 1.0850694444444445e-05
977 62 1.0850694444444445e-05
63 63 0.00078124999999999993
64 63 4.3402777777777779e-05
78 63 4.3402777777777779e-05
79 63 4.3402777777777779e-05
883 63 1.0850694444444445e-05
884 63 1.0850694444444445e-05
885 63 6.5104166666666666e-05
887 63 6.5104166666666666e-05
888 63 1.0850694444444445e-05
930 63 6.5104166666666666e-05
932 63 1.0850694444444445e-05
933 63 6.5104166666666666e-05
934 63 6.5104166666666666e-05
935 63 6.5104166666666666e-05
937 63 1.0850694444444445e-05
980 63 1.0850694444444445e-05
64 64 0.00078124999999999993
65 64 4.3402777777777779e-05
79 64 4.3402777777777779e-05
80 64 4.3402777777777779e-05
886 64 1.0850694444444445e-05
887 64 1.0850694444444445e-05
888 64 6.5104166666666666e-05
890 64 6.5104166666666666e-05
891 64 1.0850694444444445e-05
933 64 6.5104166666666666e-05
935 64 1.0850694444444445e-05
936 64 6.5104166666666666e-05
937 64 6.5104166666666666e-05
938 64 6.5104166666666666e-05
940 64 1.0850694444444445e-05
983 64 1.0850694444444445e-05
65 65 0.00078124999999999993
66 65 4.3402777777777779e-05
80 65 4.3402777777777779e-05
81 65 4.3402777777777779e-05
889 65 1.0850694444444445e-05
890 65 1.0850694444444445e-05
891 65 6.5104166666666666e-05
893 65 6.5104166666666666e-05
894 65 1.0850694444444445e-05
936 65 6.5104166666666666e-05
938 65 1.0850694444444445e-05
939 65 6.5104166666666666e-05
940 65 6.5104166666666666e-05
941 65 6.5104166666666666e-05
943 65 1.0850694444444445e-05
986 65 1.0850694444444445e-05
66 66 0.00078124999999999993
67 66 4.3402777777777779e-05
81 66 4.3402777777777779e-05
82 66 4.3402777777777779e-05
892 66 1.0850694444444445e-05
893 66 1.0850694444444445e-05
894 66 6.5104166666666666e-05
896 66 6.5104166666666666e-05
897 66 1.0850694444444445e-05
939 66 6.5104166666666666e-05
941 66 1.0850694444444445e-05
942 66 6.5104166666666666e-05
943 66 6.5104166666666666e-05
944 66 6.5104166666666666e-05
946 66 1.0850694444444445e-05
989 66 1.0850694444444445e-05
67 67 0.00078124999999999993
68 67 4.3402777777777779e-05
82 67 4.3402777777777779e-05
83 67 4.3402777777777779e-05
895 67 1.0850694444444445e-05
896 67 1.0850694444444445e-05
897 67 6.5104166666666666e-05
899 67 6.5104166666666666e-05
900 67 1.0850694444444445e-05
942 67 6.5104166666666666e-05
944 67 1.0850694444444445e-05
945 67 6.5104166666666666e-05
946 67 6.5104166666666666e-05
947 67 6.5104166666666666e-05
949 67 1.0850694444444445e-05
992 67 1.0850694444444445e-05
68 68 0.00078124999999999993
69 68 4.3402777777777779e-05
83 68 4.3402777777777779e-05
84 68 4.3402777777777779e-05
898 68 1.0850694444444445e-05
899 68 1.0850694444444445e-05
900 68 6.5104166666666666e-05
902 68 6.5104166666666666e-05
903 68 1.0850694444444445e-05
945 68 6.5104166666666666e-05
947 68 1.0850694444444445e-05
948 68 6.5104166666666666e-05
949 68 6.5104166666666666e-05
950 68 6.5104166666666666e-05
952 68 1.0850694444444445e-05
995 68 1.0850694444444445e-05
69 69 0.00078124999999999993
70 69 4.3402777777777779e-05
84 69 4.3402777777777779e-05
85 69 4.3402777777777779e-05
901 69 1.0850694444444445e-05
902 69 1.0850694444444445e-05
903 69 6.5104166666666666e-05
905 69 6.5104166666666666e-05
906 69 1.0850694444444445e-05
948 69 6.5104166666666666e-05
950 69 1.0850694444444445e-05
951 69 6.5104166666666666e-05
952 69 6.5104166666666666e-05
953 69 6.5104166666666666e-05
955 69 1.0850694444444445e-05
998 69 1.0850694444444445e-05
70 70 0.00078124999999999993
71 70 4.3402777777777779e-05
85 70 4.3402777777777779e-05
86 70 4.3402777777777779e-05
904 70 1.0850694444444445e-05
905 70 1.0850694444444445e-05
906 70 6.5104166666666666e-05
908 70 6.5104166666666666e-05
909 70 1.0850694444444445e-05
951 70 6.5104166666666666e-05
953 70 1.0850694444444445e-05
954 70 6.5104166666666666e-05
955 70 6.5104166666666666e-05
956 70 6.5104166666666666e-05
958 70 1.0850694444444445e-05
1001 70 1.0850694444444445e-05
71 71 0.00078124999999999993
72 71 4.3402777777777779e-05
86 71 4.3402777777777779e-05
87 71 4.3402777777777779e-05
907 71 1.0850694444444445e-05
908 71 1.0850694444444445e-05
909 71 6.5104166666666666e-05
911 71 6.5104166666666666e-05
912 71 1.0850694444444445e-05
954 71 6.5104166666666666e-05
956 71 1.0850694444444445e-05
957 71 6.5104166666666666e-05
958 71 6.5104166666666666e-05
959 71 6.5104166666666666e-05
961 71 1.0850694444444445e-05
1004 71 1.0850694444444445e-05
72 72 0.00078124999999999993
73 72 4.3402777777777779e-05
87 72 4.3402777777777779e-05
88 72 4.3402777777777779e-05
910 72 1.0850694444444445e-05
911 72 1.0850694444444445e-05
912 72 6.5104166666666666e-05
914 72 6.5104166666666666e-05
915 72 1.0850694444444445e-05
957 72 6.5104166666666666e-05
959 72 1.0850694444444445e-05
960 72 6.5104166666666666e-05
961 72 6.5104166666666666e-05
962 72 6.5104166666666666e-05
964 72 1.0850694444444445e-05
1007 72 1.0850694444444445e-05
73 73 0.00078124999999999993
74 73 4.3402777777777779e-05
88 73 4.3402777777777779e-05
89 73 4.3402777777777779e-05
913 73 1.0850694444444445e-05
914 73 1.0850694444444445e-05
915 73 6.5104166666666666e-05
917 73 6.5104166666666666e-05
918 73 1.0850694444444445e-05
960 73 6.5104166666666666e-05
962 73 1.0850694444444445e-05
963 73 6.5104166666666666e-05
964 73 6.5104166666666666e-05
965 73 6.5104166666666666e-05
967 73 1.0850694444444445e-05
1010 73 1.0850694444444445e-05
74 74 0.00078124999999999993
75 74 4.3402777777777779e-05
89 74 4.3402777777777779e-05
90 74 4.3402777777777779e-05
916 74 1.0850694444444445e-05
917 74 1.0850694444444445e-05
918 74 6.5104166666666666e-05
920 74 6.5104166666666666e-05
921 74 1.0850694444444445e-05
963 74 6.5104166666666666e-05
965 74 1.0850694444444445e-05
966 74 6.5104166666666666e-05
967 74 6.5104166666666666e-05
968 74 6.5104166666666666e-05
970 74 1.0850694444444445e-05
1013 74 1.0850694444444445e-05
75 75 0.00078124999999999993
90 75 4.3402777777777779e-05
919 75 1.0850694444444445e-05
920 75 1.0850694444444445e-05
921 75 6.5104166666666666e-05
923 75 6.5104166666666666e-05
924 75 1.0850694444444445e-05
966 75 6.5104166666666666e-05
968 75 1.0850694444444445e-05
969 75 6.5104166666666666e-05
970 75 6.5104166666666666e-05
971 75 6.5104166666666666e-05
1016 75 1.0850694444444445e-05
76 76 0.00078124999999999993
77 76 4.3402777777777779e-05
91 76 4.3402777777777779e-05
92 76 4.3402777777777779e-05
925 76 1.0850694444444445e-05
926 76 6.5104166666666666e-05
928 76 6.5104166666666666e-05
929 76 1.0850694444444445e-05
972 76 6.5104166666666666e-05
973 76 1.0850694444444445e-05
974 76 6.5104166666666666e-05
975 76 6.5104166666666666e-05
976 76 6.5104166666666666e-05
978 76 1.0850694444444445e-05
1021 76 1.0850694444444445e-05
77 77 0.00078124999999999993
78 77 4.3402777777777779e-05
92 77 4.3402777777777779e-05
93 77 4.3402777777777779e-05
927 77 1.0850694444444445e-05
928 77 1.0850694444444445e-05
929 77 6.5104166666666666e-05
931 77 6.5104166666666666e-05
932 77 1.0850694444444445e-05
974 77 6.5104166666666666e-05
976 77 1.0850694444444445e-05
977 77 6.5104166666666666e-05
978 77 6.5104166666666666e-05
979 77 6.5104166666666666e-05
981 77 1.0850694444444445e-05
1024 77 1.0850694444444445e-05
78 78 0.00078124999999999993
79 78 4.3402777777777779e-05
93 78 4.3402777777777779e-05
94 78 4.3402777777777779e-05
930 78 1.0850694444444445e-05
931 78 1.0850694444444445e-05
932 78 6.5104166666666666e-05
934 78 6.5104166666666666e-05
935 78 1.0850694444444445e-05
977 78 6.5104166666666666e-05
979 78 1.0850694444444445e-05
980 78 6.5104166666666666e-05
981 78 6.5104166666666666e-05
982 78 6.5104166666666666e-05
984 78 1.0850694444444445e-05
1027 78 1.0850694444444445e-05
79 79 0.00078124999999999993
80 79 4.3402777777777779e-05
94 79 4.3402777777777779e-05
95 79 4.3402777777777779e-05
933 79 1.0850694444444445e-05
934 79 1.0850694444444445e-05
935 79 6.5104166666666666e-05
937 79 6.5104166666666666e-05
938 79 1.0850694444444445e-05
980 79 6.5104166666666666e-05
982 79 1.0850694444444445e-05
983 79 6.5104166666666666e-05
984 79 6.5104166666666666e-05
985 79 6.5104166666666666e-05
987 79 1.0850694444444445e-05
1030 79 1.0850694444444445e-05
80 80 0.00078124999999999993
81 80 4.3402777777777779e-05
95 80 4.3402777777777779e-05
96 80 4.3402777777777779e-05
936 80 1.0850694444444445e-05
937 80 1.0850694444444445e-05
938 80 6.5104166666666666e-05
940 80 6.5104166666666666e-05
941 80 1.0850694444444445e-05
983 80 6.5104166666666666e-05
985 80 1.0850694444444445e-05
986 80 6.5104166666666666e-05
987 80 6.5104166666666666e-05
988 80 6.5104166666666666e-05
990 80 1.0850694444444445e-05
1033 80 1.0850694444444445e-05
81 81 0.00078124999999999993
82 81 4.3402777777777779e-05
96 81 4.3402777777777779e-05
97 81 4.3402777777777779e-05
939 81 1.0850694444444445e-05
940 81 1.0850694444444445e-05
941 81 6.5104166666666666e-05
943 81 6.5104166666666666e-05
944 81 1.0850694444444445e-05
986 81 6.5104166666666666e-05
988 81 1.0850694444444445e-05
989 81 6.5104166666666666e-05
990 81 6.5104166666666666e-05
991 81 6.5104166666666666e-05
993 81 1.0850694444444445e-05
1036 81 1.0850694444444445e-05
82 82 0.00078124999999999993
83 82 4.3402777777777779e-05
97 82 4.3402777777777779e-05
98 82 4.3402777777777779e-05
942 82 1.0850694444444445e-05
943 82 1.0850694444444445e-05
944 82 6.5104166666666666e-05
946 82 6.5104166666666666e-05
947 82 1.0850694444444445e-05
989 82 6.5104166666666666e-05
991 82 1.0850694444444445e-05
992 82 6.5104166666666666e-05
993 82 6.5104166666666666e-05
994 82 6.5104166666666666e-05
996 82 1.0850694444444445e-05
1039 82 1.0850694444444445e-05
83 83 0.00078124999999999993
84 83 4.3402777777777779e-05
98 83 4.3402777777777779e-05
99 83 4.3402777777777779e-05
945 83 1.0850694444444445e-05
946 83 1.0850694444444445e-05
947 83 6.5104166666666666e-05
949 83 6.5104166666666666e-05
950 83 1.0850694444444445e-05
992 83 6.5104166666666666e-05
994 83 1.0850694444444445e-05
995 83 6.5104166666666666e-05
996 83 6.5104166666666666e-05
997 83 6.5104166666666666e-05
999 83 1.0850694444444445e-05
1042 83 1.0850694444444445e-05
84 84 0.00078124999999999993
85 84 4.3402777777777779e-05
99 84 4.3402777777777779e-05
100 84 4.3402777777777779e-05
948 84 1.0850694444444445e-05
949 84 1.0850694444444445e-05
950 84 6.5104166666666666e-05
952 84 6.5104166666666666e-05
953 84 1.0850694444444445e-05
995 84 6.5104166666666666e-05
997 84 1.0850694444444445e-05
998 84 6.5104166666666666e-05
999 84 6.5104166666666666e-05
1000 84 6.5104166666666666e-05
1002 84 1.0850694444444445e-05
1045 84 1.0850694444444445e-05
85 85 0.00078124999999999993
86 85 4.3402777777777779e-05
100 85 4.3402777777777779e-05
101 85 4.3402777777777779e-05
951 85 1.0850694444444445e-05
952 85 1.0850694444444445e-05
953 85 6.5104166666666666e-05
955 85 6.5104166666666666e-05
956 85 1.0850694444444445e-05
998 85 6.5104166666666666e-05
1000 85 1.0850694444444445e-05
1001 85 6.5104166666666666e-05
1002 85 6.5104166666666666e-05
1003 85 6.5104166666666666e-05
1005 85 1.0850694444444445e-05
1048 85 1.0850694444444445e-05
86 86 0.00078124999999999993
87 86 4.3402777777777779e-05
101 86 4.3402777777777779e-05
102 86 4.3402777777777779e-05
954 86 1.0850694444444445e-05
955 86 1.0850694444444445e-05
956 86 6.5104166666666666e-05
958 86 6.5104166666666666e-05
959 86 1.0850694444444445e-05
1001 86 6.5104166666666666e-05
1003 86 1.0850694444444445e-05
1004 86 6.5104166666666666e-05
1005 86 6.5104166666666666e-05
1006 86 6.5104166666666666e-05
1008 86 1.0850694444444445e-05
1051 86 1.0850694444444445e-05
87 87 0.00078124999999999993
88 87 4.3402777777777779e-05
102 87 4.3402777777777779e-05
103 87 4.3402777777777779e-05
957 87 1.0850694444444445e-05
958 87 1.0850694444444445e-05
959 87 6.5104166666666666e-05
961 87 6.5104166666666666e-05
962 87 1.0850694444444445e-05
1004 87 6.5104166666666666e-05
1006 87 1.0850694444444445e-05
1007 87 6.5104166666666666e-05
1008 87 6.5104166666666666e-05
1009 87 6.5104166666666666e-05
1011 87 1.0850694444444445e-05
1054 87 1.0850694444444445e-05
88 88 0.00078124999999999993
89 88 4.3402777777777779e-05
103 88 4.3402777777777779e-05
104 88 4.3402777777777779e-05
960 88 1.0850694444444445e-05
961 88 1.0850694444444445e-05
962 88 6.5104166666666666e-05
964 88 6.5104166666666666e-05
965 88 1.0850694444444445e-05
1007 88 6.5104166666666666e-05
1009 88 1.0850694444444445e-05
1010 88 6.5104166666666666e-05
1011 88 6.5104166666666666e-05
1012 88 6.5104166666666666e-05
1014 88 1.0850694444444445e-05
1057 88 1.0850694444444445e-05
89 89 0.00078124999999999993
90 89 4.3402777777777779e-05
104 89 4.3402777777777779e-05
105 89 4.3402777777777779e-05
963 89 1.0850694444444445e-05
964 89 1.0850694444444445e-05
965 89 6.5104166666666666e-05
967 89 6.5104166666666666e-05
968 89 1.0850694444444445e-05
1010 89 6.5104166666666666e-05
1012 89 1.0850694444444445e-05
1013 89 6.5104166666666666e-05
1014 89 6.5104166666666666e-05
1015 89 6.5104166666666666e-05
1017 89 1.0850694444444445e-05
1060 89 1.0850694444444445e-05
90 90 0.00078124999999999993
105 90 4.3402777777777779e-05
966 90 1.0850694444444445e-05
967 90 1.0850694444444445e-05
968 90 6.5104166666666666e-05
970 90 6.5104166666666666e-05
971 90 1.0850694444444445e-05
1013 90 6.5104166666666666e-05
1015 90 1.0850694444444445e-05
1016 90 6.5104166666666666e-05
1017 90 6.5104166666666666e-05
1018 90 6.5104166666666666e-05
1063 90 1.0850694444444445e-05
91 91 0.00078124999999999993
92 91 4.3402777777777779e-05
106 91 4.3402777777777779e-05
107 91 4.3402777777777779e-05
972 91 1.0850694444444445e-05
973 91 6.5104166666666666e-05
975 91 6.5104166666666666e-05
976 91 1.0850694444444445e-05
1019 91 6.5104166666666666e-05
1020 91 1.0850694444444445e-05
1021 91 6.5104166666666666e-05
1022 91 6.5104166666666666e-05
1023 91 6.5104166666666666e-05
1025 91 1.0850694444444445e-05
1068 91 1.0850694444444445e-05
92 92 0.00078124999999999993
93 92 4.3402777777777779e-05
107 92 4.3402777777777779e-05
108 92 4.3402777777777779e-05
974 92 1.0850694444444445e-05
975 92 1.0850694444444445e-05
976 92 6.5104166666666666e-05
978 92 6.5104166666666666e-05
979 92 1.0850694444444445e-05
1021 92 6.5104166666666666e-05
1023 92 1.0850694444444445e-05
1024 92 6.5104166666666666e-05
1025 92 6.5104166666666666e-05
1026 92 6.5104166666666666e-05
1028 92 1.0850694444444445e-05
1071 92 1.0850694444444445e-05
93 93 0.00078124999999999993
94 93 4.3402777777777779e-05
108 93 4.3402777777777779e-05
109 93 4.3402777777777779e-05
977 93 1.0850694444444445e-05
978 93 1.0850694444444445e-05
979 93 6.5104166666666666e-05
981 93 6.5104166666666666e-05
982 93 1.0850694444444445e-05
1024 93 6.5104166666666666e-05
1026 93 1.0850694444444445e-05
1027 93 6.5104166666666666e-05
1028 93 6.5104166666666666e-05
1029 93 6.5104166666666666e-05
1031 93 1.0850694444444445e-05
1074 93 1.0850694444444445e-05
94 94 0.00078124999999999993
95 94 4.3402777777777779e-05
109 94 4.3402777777777779e-05
110 94 4.3402777777777779e-05
980 94 1.0850694444444445e-05
981 94 1.0850694444444445e-05
982 94 6.5104166666666666e-05
984 94 6.5104166666666666e-05
985 94 1.0850694444444445e-05
1027 94 6.5104166666666666e-05
1029 94 1.0850694444444445e-05
1030 94 6.5104166666666666e-05
1031 94 6.5104166666666666e-05
1032 94 6.5104166666666666e-05
1034 94 1.0850694444444445e-05
1077 94 1.0850694444444445e-05
95 95 0.00078124999999999993
96 95 4.3402777777777779e-05
110 95 4.3402777777777779e-05
111 95 4.3402777777777779e-05
983 95 1.0850694444444445e-05
984 95 1.0850694444444445e-05
985 95 6.5104166666666666e-05
987 95 6.5104166666666666e-05
988 95 1.0850694444444445e-05
1030 95 6.5104166666666666e-05
1032 95 1.0850694444444445e-05
1033 95 6.5104166666666666e-05
1034 95 6.5104166666666666e-05
1035 95 6.5104166666666666e-05
1037 95 1.0850694444444445e-05
1080 95 1.0850694444444445e-05
96 96 0.00078124999999999993
97 96 4.3402777777777779e-05
111 96 4.3402777777777779e-05
112 96 4.3402777777777779e-05
986 96 1.0850694444444445e-05
987 96 1.0850694444444445e-05
988 96 6.5104166666666666e-05
990 96 6.5104166666666666e-05
991 96 1.0850694444444445e-05
1033 96 6.5104166666666666e-05
1035 96 1.0850694444444445e-05
1036 96 6.5104166666666666e-05
1037 96 6.5104166666666666e-05
1038 96 6.5104166666666666e-05
1040 96 1.0850694444444445e-05
1083 96 1.0850694444444445e-05
97 97 0.00078124999999999993
98 97 4.3402777777777779e-05
112 97 4.3402777777777779e-05
113 97 4.3402777777777779e-05
989 97 1.0850694444444445e-05
990 97 1.0850694444444445e-05
991 97 6.5104166666666666e-05
993 97 6.5104166666666666e-05
994 97 1.0850694444444445e-05
1036 97 6.5104166666666666e-05
1038 97 1.0850694444444445e-05
1039 97 6.5104166666666666e-05
1040 97 6.5104166666666666e-05
1041 97 6.5104166666666666e-05
1043 97 1.0850694444444445e-05
1086 97 1.0850694444444445e-05
98 98 0.00078124999999999993
99 98 4.3402777777777779e-05
113 98 4.3402777777777779e-05
114 98 4.3402777777777779e-05
992 98 1.0850694444444445e-05
993 98 1.0850694444444445e-05
994 98 6.5104166666666666e-05
996 98 6.5104166666666666e-05
997 98 1.0850694444444445e-05
1039 98 6.5104166666666666e-05
1041 98 1.0850694444444445e-05
1042 98 6.5104166666666666e-05
1043 98 6.5104166666666666e-05
1044 98 6.5104166666666666e-05
1046 98 1.0850694444444445e-05
1089 98 1.0850694444444445e-05
99 99 0.00078124999999999993
100 99 4.3402777777777779e-05
114 99 4.3402777777777779e-05
115 99 4.3402777777777779e-05
995 99 1.0850694444444445e-05
996 99 1.0850694444444445e-05
997 99 6.5104166666666666e-05
999 99 6.5104166666666666e-05
1000 99 1.0850694444444445e-05
1042 99 6.5104166666666666e-05
1044 99 1.0850694444444445e-05
1045 99 6.5104166666666666e-05
1046 99 6.5104166666666666e-05
1047 99 6.5104166666666666e-05
1049 99 1.0850694444444445e-05
1092 99 1.0850694444444445e-05
100 100 0.00078124999999999993
101 100 4.3402777777777779e-05
115 100 4.3402777777777779e-05
116 100 4.3402777777777779e-05
998 100 1.0850694444444445e-05
999 100 1.0850694444444445e-05
1000 100 6.5104166666666666e-05
1002 100 6.5104166666666666e-05
1003 100 1.0850694444444445e-05
1045 100 6.5104166666666666e-05
1047 100 1.0850694444444445e-05
1048 100 6.5104166666666666e-05
1049 100 6.5104166666666666e-05
1050 100 6.5104166666666666e-05
1052 100 1.0850694444444445e-05
1095 100 1.0850694444444445e-05
101 101 0.00078124999999999993
102 101 4.3402777777777779e-05
116 101 4.3402777777777779e-05
117 101 4.3402777777777779e-05
1001 101 1.0850694444444445e-05
1002 101 1.0850694444444445e-05
1003 101 6.5104166666666666e-05
1005 101 6.5104166666666666e-05
1006 101 1.0850694444444445e-05
1048 101 6.5104166666666666e-05
1050 101 1.0850694444444445e-05
1051 101 6.5104166666666666e-05
1052 101 6.5104166666666666e-05
1053 101 6.5104166666666666e-05
1055 101 1.0850694444444445e-05
1098 101 1.0850694444444445e-05
102 102 0.00078124999999999993
103 102 4.3402777777777779e-05
117 102 4.3402777777777779e-05
118 102 4.3402777777777779e-05
1004 102 1.0850694444444445e-05
1005 102 1.0850694444444445e-05
1006 102 6.5104166666666666e-05
1008 102 6.5104166666666666e-05
1009 102 1.0850694444444445e-05
1051 102 6.5104166666666666e-05
1053 102 1.0850694444444445e-05
1054 102 6.5104166666666666e-05
1055 102 6.5104166666666666e-05
1056 102 6.5104166666666666e-05
1058 102 1.0850694444444445e-05
1101 102 1.0850694444444445e-05
103 103 0.00078124999999999993
104 103 4.3402777777777779e-05
118 103 4.3402777777777779e-05
119 103 4.3402777777777779e-05
1007 103 1.0850694444444445e-05
1008 103 1.0850694444444445e-05
1009 103 6.5104166666666666e-05
1011 103 6.5104166666666666e-05
1012 103 1.0850694444444445e-05
1054 103 6.5104166666666666e-05
1056 103 1.0850694444444445e-05
1057 103 6.5104166666666666e-05
1058 103 6.5104166666666666e-05
1059 103 6.5104166666666666e-05
1061 103 1.0850694444444445e-05
1104 103 1.0850694444444445e-05
104 104 0.00078124999999999993
105 104 4.3402777777777779e-05
119 104 4.3402777777777779e-05
120 104 4.3402777777777779e-05
1010 104 1.0850694444444445e-05
1011 104 1.0850694444444445e-05
1012 104 6.5104166666666666e-05
1014 104 6.5104166666666666e-05
1015 104 1.0850694444444445e-05
1057 104 6.5104166666666666e-05
1059 104 1.0850694444444445e-05
1060 104 6.5104166666666666e-05
1061 104 6.5104166666666666e-05
1062 104 6.5104166666666666e-05
1064 104 1.0850694444444445e-05
1107 104 1.0850694444444445e-05
105 105 0.00078124999999999993
120 105 4.3402777777777779e-05
1013 105 1.0850694444444445e-05
1014 105 1.0850694444444445e-05
1015 105 6.5104166666666666e-05
1017 105 6.5104166666666666e-05
1018 105 1.0850694444444445e-05
1060 105 6.5104166666666666e-05
1062 105 1.0850694444444445e-05
1063 105 6.5104166666666666e-05
1064 105 6.5104166666666666e-05
1065 105 6.5104166666666666e-05
1110 105 1.0850694444444445e-05
106 106 0.00078124999999999993
107 106 4.3402777777777779e-05
121 106 4.3402777777777779e-05
122 106 4.3402777777777779e-05
1019 106 1.0850694444444445e-05
1020 106 6.5104166666666666e-05
1022 106 6.5104166666666666e-05
1023 106 1.0850694444444445e-05
1066 106 6.5104166666666666e-05
1067 106 1.0850694444444445e-05
1068 106 6.5104166666666666e-05
1069 106 6.5104166666666666e-05
1070 106 6.5104166666666666e-05
1072 106 1.0850694444444445e-05
1115 106 1.0850694444444445e-05
107 107 0.00078124999999999993
108 107 4.3402777777777779e-05
122 107 4.3402777777777779e-05
123 107 4.3402777777777779e-05
1021 107 1.0850694444444445e-05
1022 107 1.0850694444444445e-05
1023 107 6.5104166666666666e-05
1025 107 6.5104166666666666e-05
1026 107 1.0850694444444445e-05
1068 107 6.5104166666666666e-05
1070 107 1.0850694444444445e-05
1071 107 6.5104166666666666e-05
1072 107 6.5104166666666666e-05
1073 107 6.5104166666666666e-05
1075 107 1.0850694444444445e-05
1118 107 1.0850694444444445e-05
108 108 0.00078124999999999993
109 108 4.3402777777777779e-05
123 108 4.3402777777777779e-05
124 108 4.3402777777777779e-05
1024 108 1.0850694444444445e-05
1025 108 1.0850694444444445e-05
1026 108 6.5104166666666666e-05
1028 108 6.5104166666666666e-05
1029 108 1.0850694444444445e-05
1071 108 6.5104166666666666e-05
1073 108 1.0850694444444445e-05
1074 108 6.5104166666666666e-05
1075 108 6.5104166666666666e-05
1076 108 6.5104166666666666e-05
1078 108 1.0850694444444445e-05
1121 108 1.0850694444444445e-05
109 109 0.00078124999999999993
110 109 4.3402777777777779e-05
124 109 4.3402777777777779e-05
125 109 4.3402777777777779e-05
1027 109 1.0850694444444445e-05
1028 109 1.0850694444444445e-05
1029 109 6.5104166666666666e-05
1031 109 6.5104166666666666e-05
1032 109 1.0850694444444445e-05
1074 109 6.5104166666666666e-05
1076 109 1.0850694444444445e-05
1077 109 6.5104166666666666e-05
1078 109 6.5104166666666666e-05
1079 109 6.5104166666666666e-05
1081 109 1.0850694444444445e-05
1124 109 1.0850694444444445e-05
110 110 0.00078124999999999993
111 110 4.3402777777777779e-05
125 110 4.3402777777777779e-05
126 110 4.3402777777777779e-05
1030 110 1.0850694444444445e-05
1031 110 1.0850694444444445e-05
1032 110 6.5104166666666666e-05
1034 110 6.5104166666666666e-05
1035 110 1.0850694444444445e-05
1077 110 6.5104166666666666e-05
1079 110 1.0850694444444445e-05
1080 110 6.5104166666666666e-05
1081 110 6.5104166666666666e-05
1082 110 6.5104166666666666e-05
1084 110 1.0850694444444445e-05
1127 110 1.0850694444444445e-05
111 111 0.00078124999999999993
112 111 4.3402777777777779e-05
126 111 4.3402777777777779e-05
127 111 4.3402777777777779e-05
1033 111 1.0850694444444445e-05
1034 111 1.0850694444444445e-05
1035 111 6.5104166666666666e-05
1037 111 6.5104166666666666e-05
1038 111 1.0850694444444445e-05
1080 111 6.5104166666666666e-05
1082 111 1.0850694444444445e-05
1083 111 6.5104166666666666e-05
1084 111 6.5104166666666666e-05
1085 111 6.5104166666666666e-05
1087 111 1.0850694444444445e-05
1130 111 1.0850694444444445e-05
112 112 0.00078124999999999993
113 112 4.3402777777777779e-05
127 112 4.3402777777777779e-05
128 112 4.3402777777777779e-05
1036 112 1.0850694444444445e-05
1037 112 1.0850694444444445e-05
1038 112 6.5104166666666666e-05
1040 112 6.5104166666666666e-05
1041 112 1.0850694444444445e-05
1083 112 6.5104166666666666e-05
1085 112 1.0850694444444445e-05
1086 112 6.5104166666666666e-05
1087 112 6.5104166666666666e-05
1088 112 6.5104166666666666e-05
1090 112 1.0850694444444445e-05
1133 112 1.0850694444444445e-05
113 113 0.00078124999999999993
114 113 4.3402777777777779e-05
128 113 4.3402777777777779e-05
129 113 4.3402777777777779e-05
1039 113 1.0850694444444445e-05
1040 113 1.0850694444444445e-05
1041 113 6.5104166666666666e-05
1043 113 6.5104166666666666e-05
1044 113 1.0850694444444445e-05
1086 113 6.5104166666666666e-05
1088 113 1.0850694444444445e-05
1089 113 6.5104166666666666e-05
1090 113 6.5104166666666666e-05
1091 113 6.5104166666666666e-05
1093 113 1.0850694444444445e-05
1136 113 1.0850694444444445e-05
114 114 0.00078124999999999993
115 114 4.3402777777777779e-05
129 114 4.3402777777777779e-05
130 114 4.3402777777777779e-05
1042 114 1.0850694444444445e-05
1043 114 1.0850694444444445e-05
1044 114 6.5104166666666666e-05
1046 114 6.5104166666666666e-05
1047 114 1.0850694444444445e-05
1089 114 6.5104166666666666e-05
1091 114 1.0850694444444445e-05
1092 114 6.5104166666666666e-05
1093 114 6.5104166666666666e-05
1094 114 6.5104166666666666e-05
1096 114 1.0850694444444445e-05
1139 114 1.0850694444444445e-05
115 115 0.00078124999999999993
116 115 4.3402777777777779e-05
130 115 4.3402777777777779e-05
131 115 4.3402777777777779e-05
1045 115 1.0850694444444445e-05
1046 115 1.0850694444444445e-05
1047 115 6.5104166666666666e-05
1049 115 6.5104166666666666e-05
1050 115 1.0850694444444445e-05
1092 115 6.5104166666666666e-05
1094 115 1.0850694444444445e-05
1095 115 6.5104166666666666e-05
1096 115 6.5104166666666666e-05
1097 115 6.5104166666666666e-05
1099 115 1.0850694444444445e-05
1142 115 1.0850694444444445e-05
116 116 0.00078124999999999993
117 116 4.3402777777777779e-05
131 116 4.3402777777777779e-05
132 116 4.3402777777777779e-05
1048 116 1.0850694444444445e-05
1049 116 1.0850694444444445e-05
1050 116 6.5104166666666666e-05
1052 116 6.5104166666666666e-05
1053 116 1.0850694444444445e-05
1095 116 6.5104166666666666e-05
1097 116 1.0850694444444445e-05
1098 116 6.5104166666666666e-05
1099 116 6.5104166666666666e-05
1100 116 6.5104166666666666e-05
1102 116 1.0850694444444445e-05
1145 116 1.0850694444444445e-05
117 117 0.00078124999999999993
118 117 4.3402777777777779e-05
132 117 4.3402777777777779e-05
133 117 4.3402777777777779e-05
1051 117 1.0850694444444445e-05
1052 117 1.0850694444444445e-05
1053 117 6.5104166666666666e-05
1055 117 6.5104166666666666e-05
1056 117 1.0850694444444445e-05
1098 117 6.5104166666666666e-05
1100 117 1.0850694444444445e-05
1101 117 6.5104166666666666e-05
1102 117 6.5104166666666666e-05
1103 117 6.5104166666666666e-05
1105 117 1.0850694444444445e-05
1148 117 1.0850694444444445e-05
118 118 0.00078124999999999993
119 118 4.3402777777777779e-05
133 118 4.3402777777777779e-05
134 118 4.3402777777777779e-05
1054 118 1.0850694444444445e-05
1055 118 1.0850694444444445e-05
1056 118 6.5104166666666666e-05
1058 118 6.5104166666666666e-05
1059 118 1.0850694444444445e-05
1101 118 6.5104166666666666e-05
1103 118 1.0850694444444445e-05
1104 118 6.5104166666666666e-05
1105 118 6.5104166666666666e-05
1106 118 6.5104166666666666e-05
1108 118 1.0850694444444445e-05
1151 118 1.0850694444444445e-05
119 119 0.00078124999999999993
120 119 4.3402777777777779e-05
134 119 4.3402777777777779e-05
135 119 4.3402777777777779e-05
1057 119 1.0850694444444445e-05
1058 119 1.0850694444444445e-05
1059 119 6.5104166666666666e-05
1061 119 6.5104166666666666e-05
1062 119 1.0850694444444445e-05
1104 119 6.5104166666666666e-05
1106 119 1.0850694444444445e-05
1107 119 6.5104166666666666e-05
1108 119 6.5104166666666666e-05
1109 119 6.5104166666666666e-05
1111 119 1.0850694444444445e-05
1154 119 1.0850694444444445e-05
120 120 0.00078124999999999993
135 120 4.3402777777777779e-05
1060 120 1.0850694444444445e-05
1061 120 1.0850694444444445e-05
1062 120 6.5104166666666666e-05
1064 120 6.5104166666666666e-05
1065 120 1.0850694444444445e-05
1107 120 6.5104166666666666e-05
1109 120 1.0850694444444445e-05
1110 120 6.5104166666666666e-05
1111 120 6.5104166666666666e-05
1112 120 6.5104166666666666e-05
1157 120 1.0850694444444445e-05
121 121 0.00078124999999999993
122 121 4.3402777777777779e-05
136 121 4.3402777777777779e-05
137 121 4.3402777777777779e-05
1066 121 1.0850694444444445e-05
1067 121 6.5104166666666666e-05
1069 121 6.5104166666666666e-05
1070 121 1.0850694444444445e-05
1113 121 6.5104166666666666e-05
1114 121 1.0850694444444445e-05
1115 121 6.5104166666666666e-05
1116 121 6.5104166666666666e-05
1117 121 6.5104166666666666e-05
1119 121 1.0850694444444445e-05
1162 121 1.0850694444444445e-05
122 122 0.00078124999999999993
123 122 4.3402777777777779e-05
137 122 4.3402777777777779e-05
138 122 4.3402777777777779e-05
1068 122 1.0850694444444445e-05
1069 122 1.0850694444444445e-05
1070 122 6.5104166666666666e-05
1072 122 6.5104166666666666e-05
1073 122 1.0850694444444445e-05
1115 122 6.5104166666666666e-05
1117 122 1.0850694444444445e-05
1118 122 6.5104166666666666e-05
1119 122 6.5104166666666666e-05
1120 122 6.5104166666666666e-05
1122 122 1.0850694444444445e-05
1165 122 1.0850694444444445e-05
123 123 0.00078124999999999993
124 123 4.3402777777777779e-05
138 123 4.3402777777777779e-05
139 123 4.3402777777777779e-05
1071 123 1.0850694444444445e-05
1072 123 1.0850694444444445e-05
1073 123 6.5104166666666666e-05
1075 123 6.5104166666666666e-05
1076 123 1.0850694444444445e-05
1118 123 6.5104166666666666e-05
1120 123 1.0850694444444445e-05
1121 123 6.5104166666666666e-05
1122 123 6.5104166666666666e-05
1123 123 6.5104166666666666e-05
1125 123 1.0850694444444445e-05
1168 123 1.0850694444444445e-05
124 124 0.00078124999999999993
125 124 4.3402777777777779e-05
139 124 4.3402777777777779e-05
140 124 4.3402777777777779e-05
1074 124 1.0850694444444445e-05
1075 124 1.0850694444444445e-05
1076 124 6.5104166666666666e-05
1078 124 6.5104166666666666e-05
1079 124 1.0850694444444445e-05
1121 124 6.5104166666666666e-05
1123 124 1.0850694444444445e-05
1124 124 6.5104166666666666e-05
1125 124 6.5104166666666666e-05
1126 124 6.5104166666666666e-05
1128 124 1.0850694444444445e-05
1171 124 1.0850694444444445e-05
125 125 0.00078124999999999993
126 125 4.3402777777777779e-05
140 125 4.3402777777777779e-05
141 125 4.3402777777777779e-05
1077 125 1.0850694444444445e-05
1078 125 1.0850694444444445e-05
1079 125 6.5104166666666666e-05
1081 125 6.5104166666666666e-05
1082 125 1.0850694444444445e-05
1124 125 6.5104166666666666e-05
1126 125 1.0850694444444445e-05
1127 125 6.5104166666666666e-05
1128 125 6.5104166666666666e-05
1129 125 6.5104166666666666e-05
1131 125 1.0850694444444445e-05
1174 125 1.0850694444444445e-05
126 126 0.00078124999999999993
127 126 4.3402777777777779e-05
141 126 4.3402777777777779e-05
142 126 4.3402777777777779e-05
1080 126 1.0850694444444445e-05
1081 126 1.0850694444444445e-05
1082 126 6.5104166666666666e-05
1084 126 6.5104166666666666e-05
1085 126 1.0850694444444445e-05
1127 126 6.5104166666666666e-05
1129 126 1.0850694444444445e-05
1130 126 6.5104166666666666e-05
1131 126 6.5104166666666666e-05
1132 126 6.5104166666666666e-05
1134 126 1.0850694444444445e-05
1177 126 1.0850694444444445e-05
127 127 0.00078124999999999993
128 127 4.3402777777777779e-05
142 127 4.3402777777777779e-05
143 127 4.3402777777777779e-05
1083 127 1.0850694444444445e-05
1084 127 1.0850694444444445e-05
1085 127 6.5104166666666666e-05
1087 127 6.5104166666666666e-05
1088 127 1.0850694444444445e-05
1130 127 6.5104166666666666e-05
1132 127 1.0850694444444445e-05
1133 127 6.5104166666666666e-05
1134 127 6.5104166666666666e-05
1135 127 6.5104166666666666e-05
1137 127 1.0850694444444445e-05
1180 127 1.0850694444444445e-05
128 128 0.00078124999999999993
129 128 4.3402777777777779e-05
143 128 4.3402777777777779e-05
144 128 4.3402777777777779e-05
1086 128 1.0850694444444445e-05
1087 128 1.0850694444444445e-05
1088 128 6.5104166666666666e-05
1090 128 6.5104166666666666e-05
1091 128 1.0850694444444445e-05
1133 128 6.5104166666666666e-05
1135 128 1.0850694444444445e-05
1136 128 6.5104166666666666e-05
1137 128 6.5104166666666666e-05
1138 128 6.5104166666666666e-05
1140 128 1.0850694444444445e-05
1183 128 1.0850694444444445e-05
129 129 0.00078124999999999993
130 129 4.3402777777777779e-05
144 129 4.3402777777777779e-05
145 129 4.3402777777777779e-05
1089 129 1.0850694444444445e-05
1090 129 1.0850694444444445e-05
1091 129 6.5104166666666666e-05
1093 129 6.5104166666666666e-05
1094 129 1.0850694444444445e-05
1136 129 6.5104166666666666e-05
1138 129 1.0850694444444445e-05
1139 129 6.5104166666666666e-05
1140 129 6.5104166666666666e-05
1141 129 6.5104166666666666e-05
1143 129 1.0850694444444445e-05
1186 129 1.0850694444444445e-05
130 130 0.00078124999999999993
131 130 4.3402777777777779e-05
145 130 4.3402777777777779e-05
146 130 4.3402777777777779e-05
1092 130 1.0850694444444445e-05
1093 130 1.0850694444444445e-05
1094 130 6.5104166666666666e-05
1096 130 6.5104166666666666e-05
1097 130 1.0850694444444445e-05
1139 130 6.5104166666666666e-05
1141 130 1.0850694444444445e-05
1142 130 6.5104166666666666e-05
1143 130 6.5104166666666666e-05
1144 130 6.5104166666666666e-05
1146 130 1.0850694444444445e-05
1189 130 1.0850694444444445e-05
131 131 0.00078124999999999993
132 131 4.3402777777777779e-05
146 131 4.3402777777777779e-05
147 131 4.3402777777777779e-05
1095 131 1.0850694444444445e-05
1096 131 1.0850694444444445e-05
1097 131 6.5104166666666666e-05
1099 131 6.5104166666666666e-05
1100 131 1.0850694444444445e-05
1142 131 6.5104166666666666e-05
1144 131 1.0850694444444445e-05
1145 131 6.5104166666666666e-05
1146 131 6.5104166666666666e-05
1147 131 6.5104166666666666e-05
1149 131 1.0850694444444445e-05
1192 131 1.0850694444444445e-05
132 132 0.00078124999999999993
133 132 4.3402777777777779e-05
147 132 4.3402777777777779e-05
148 132 4.3402777777777779e-05
1098 132 1.0850694444444445e-05
1099 132 1.0850694444444445e-05
1100 132 6.5104166666666666e-05
1102 132 6.5104166666666666e-05
1103 132 1.0850694444444445e-05
1145 132 6.5104166666666666e-05
1147 132 1.0850694444444445e-05
1148 132 6.5104166666666666e-05
1149 132 6.5104166666666666e-05
1150 132 6.5104166666666666e-05
1152 132 1.0850694444444445e-05
1195 132 1.0850694444444445e-05
133 133 0.00078124999999999993
134 133 4.3402777777777779e-05
148 133 4.3402777777777779e-05
149 133 4.3402777777777779e-05
1101 133 1.0850694444444445e-05
1102 133 1.0850694444444445e-05
1103 133 6.5104166666666666e-05
1105 133 6.5104166666666666e-05
1106 133 1.0850694444444445e-05
1148 133 6.5104166666666666e-05
1150 133 1.0850694444444445e-05
1151 133 6.5104166666666666e-05
1152 133 6.5104166666666666e-05
1153 133 6.5104166666666666e-05
1155 133 1.0850694444444445e-05
1198 133 1.0850694444444445e-05
134 134 0.00078124999999999993
135 134 4.3402777777777779e-05
149 134 4.3402777777777779e-05
150 134 4.3402777777777779e-05
1104 134 1.0850694444444445e-05
1105 134 1.0850694444444445e-05
1106 134 6.5104166666666666e-05
1108 134 6.5104166666666666e-05
1109 134 1.0850694444444445e-05
1151 134 6.5104166666666666e-05
1153 134 1.0850694444444445e-05
1154 134 6.5104166666666666e-05
1155 134 6.5104166666666666e-05
1156 134 6.5104166666666666e-05
1158 134 1.0850694444444445e-05
1201 134 1.0850694444444445e-05
135 135 0.00078124999999999993
150 135 4.3402777777777779e-05
1107 135 1.0850694444444445e-05
1108 135 1.0850694444444445e-05
1109 135 6.5104166666666666e-05
1111 135 6.5104166666666666e-05
1112 135 1.0850694444444445e-05
1154 135 6.5104166666666666e-05
1156 135 1.0850694444444445e-05
1157 135 6.5104166666666666e-05
1158 135 6.5104166666666666e-05
1159 135 6.5104166666666666e-05
1204 135 1.0850694444444445e-05
136 136 0.00078124999999999993
137 136 4.3402777777777779e-05
151 136 4.3402777777777779e-05
152 136 4.3402777777777779e-05
1113 136 1.0850694444444445e-05
1114 136 6.5104166666666666e-05
1116 136 6.5104166666666666e-05
1117 136 1.0850694444444445e-05
1160 136 6.5104166666666666e-05
1161 136 1.0850694444444445e-05
1162 136 6.5104166666666666e-05
1163 136 6.5104166666666666e-05
1164 136 6.5104166666666666e-05
1166 136 1.0850694444444445e-05
1209 136 1.0850694444444445e-05
137 137 0.00078124999999999993
138 137 4.3402777777777779e-05
152 137 4.3402777777777779e-05
153 137 4.3402777777777779e-05
1115 137 1.0850694444444445e-05
1116 137 1.0850694444444445e-05
1117 137 6.5104166666666666e-05
1119 137 6.5104166666666666e-05
1120 137 1.0850694444444445e-05
1162 137 6.5104166666666666e-05
1164 137 1.0850694444444445e-05
1165 137 6.5104166666666666e-05
1166 137 6.5104166666666666e-05
1167 137 6.5104166666666666e-05
1169 137 1.0850694444444445e-05
1212 137 1.0850694444444445e-05
138 138 0.00078124999999999993
139 138 4.3402777777777779e-05
153 138 4.3402777777777779e-05
154 138 4.3402777777777779e-05
1118 138 1.0850694444444445e-05
1119 138 1.0850694444444445e-05
1120 138 6.5104166666666666e-05
1122 138 6.5104166666666666e-05
1123 138 1.0850694444444445e-05
1165 138 6.5104166666666666e-05
1167 138 1.0850694444444445e-05
1168 138 6.5104166666666666e-05
1169 138 6.5104166666666666e-05
1170 138 6.5104166666666666e-05
1172 138 1.0850694444444445e-05
1215 138 1.0850694444444445e-05
139 139 0.00078124999999999993
140 139 4.3402777777777779e-05
154 139 4.3402777777777779e-05
155 139 4.3402777777777779e-05
1121 139 1.0850694444444445e-05
1122 139 1.0850694444444445e-05
1123 139 6.5104166666666666e-05
1125 139 6.5104166666666666e-05
1126 139 1.0850694444444445e-05
1168 139 6.5104166666666666e-05
1170 139 1.0850694444444445e-05
1171 139 6.5104166666666666e-05
1172 139 6.5104166666666666e-05
1173 139 6.5104166666666666e-05
1175 139 1.0850694444444445e-05
1218 139 1.0850694444444445e-05
140 140 0.00078124999999999993
141 140 4.3402777777777779e-05
155 140 4.3402777777777779e-05
156 140 4.3402777777777779e-05
1124 140 1.0850694444444445e-05
1125 140 1.0850694444444445e-05
1126 140 6.5104166666666666e-05
1128 140 6.5104166666666666e-05
1129 140 1.0850694444444445e-05
1171 140 6.5104166666666666e-05
1173 140 1.0850694444444445e-05
1174 140 6.5104166666666666e-05
1175 140 6.5104166666666666e-05
1176 140 6.5104166666666666e-05
1178 140 1.0850694444444445e-05
1221 140 1.0850694444444445e-05
141 141 0.00078124999999999993
142 141 4.3402777777777779e-05
156 141 4.3402777777777779e-05
157 141 4.3402777777777779e-05
1127 141 1.0850694444444445e-05
1128 141 1.0850694444444445e-05
1129 141 6.5104166666666666e-05
1131 141 6.5104166666666666e-05
1132 141 1.0850694444444445e-05
1174 141 6.5104166666666666e-05
1176 141 1.0850694444444445e-05
1177 141 6.5104166666666666e-05
1178 141 6.5104166666666666e-05
1179 141 6.5104166666666666e-05
1181 141 1.0850694444444445e-05
1224 141 1.0850694444444445e-05
142 142 0.00078124999999999993
143 142 4.3402777777777779e-05
157 142 4.3402777777777779e-05
158 142 4.3402777777777779e-05
1130 142 1.0850694444444445e-05
1131 142 1.0850694444444445e-05
1132 142 6.5104166666666666e-05
1134 142 6.5104166666666666e-05
1135 142 1.0850694444444445e-05
1177 142 6.5104166666666666e-05
1179 142 1.0850694444444445e-05
1180 142 6.5104166666666666e-05
1181 142 6.5104166666666666e-05
1182 142 6.5104166666666666e-05
1184 142 1.0850694444444445e-05
1227 142 1.0850694444444445e-05
143 143 0.00078124999999999993
144 143 4.3402777777777779e-05
158 143 4.3402777777777779e-05
159 143 4.3402777777777779e-05
1133 143 1.0850694444444445e-05
1134 143 1.0850694444444445e-05
1135 143 6.5104166666666666e-05
1137 143 6.5104166666666666e-05
1138 143 1.0850694444444445e-05
1180 143 6.5104166666666666e-05
1182 143 1.0850694444444445e-05
1183 143 6.5104166666666666e-05
1184 143 6.5104166666666666e-05
1185 143 6.5104166666666666e-05
1187 143 1.0850694444444445e-05
1230 143 1.0850694444444445e-05
144 144 0.00078124999999999993
145 144 4.3402777777777779e-05
159 144 4.3402777777777779e-05
160 144 4.3402777777777779e-05
1136 144 1.0850694444444445e-05
1137 144 1.0850694444444445e-05
1138 144 6.5104166666666666e-05
1140 144 6.5104166666666666e-05
1141 144 1.0850694444444445e-05
1183 144 6.5104166666666666e-05
1185 144 1.0850694444444445e-05
1186 144 6.5104166666666666e-05
1187 144 6.5104166666666666e-05
1188 144 6.5104166666666666e-05
1190 144 1.0850694444444445e-05
1233 144 1.0850694444444445e-05
145 145 0.00078124999999999993
146 145 4.3402777777777779e-05
160 145 4.3402777777777779e-05
161 145 4.3402777777777779e-05
1139 145 1.0850694444444445e-05
1140 145 1.0850694444444445e-05
1141 145 6.5104166666666666e-05
1143 145 6.5104166666666666e-05
1144 145 1.0850694444444445e-05
1186 145 6.5104166666666666e-05
1188 145 1.0850694444444445e-05
1189 145 6.5104166666666666e-05
1190 145 6.5104166666666666e-05
1191 145 6.5104166666666666e-05
1193 145 1.0850694444444445e-05
1236 145 1.0850694444444445e-05
146 146 0.00078124999999999993
147 146 4.3402777777777779e-05
161 146 4.3402777777777779e-05
162 146 4.3402777777777779e-05
1142 146 1.0850694444444445e-05
1143 146 1.0850694444444445e-05
1144 146 6.5104166666666666e-05
1146 146 6.5104166666666666e-05
1147 146 1.0850694444444445e-05
1189 146 6.5104166666666666e-05
1191 146 1.0850694444444445e-05
1192 146 6.5104166666666666e-05
1193 146 6.5104166666666666e-05
1194 146 6.5104166666666666e-05
1196 146 1.0850694444444445e-05
1239 146 1.0850694444444445e-05
147 147 0.00078124999999999993
148 147 4.3402777777777779e-05
162 147 4.3402777777777779e-05
163 147 4.3402777777777779e-05
1145 147 1.0850694444444445e-05
1146 147 1.0850694444444445e-05
1147 147 6.5104166666666666e-05
1149 147 6.5104166666666666e-05
1150 147 1.0850694444444445e-05
1192 147 6.5104166666666666e-05
1194 147 1.0850694444444445e-05
1195 147 6.5104166666666666e-05
1196 147 6.5104166666666666e-05
1197 147 6.5104166666666666e-05
1199 147 1.0850694444444445e-05
1242 147 1.0850694444444445e-05
148 148 0.00078124999999999993
149 148 4.3402777777777779e-05
163 148 4.3402777777777779e-05
164 148 4.3402777777777779e-05
1148 148 1.0850694444444445e-05
1149 148 1.0850694444444445e-05
1150 148 6.5104166666666666e-05
1152 148 6.5104166666666666e-05
1153 148 1.0850694444444445e-05
1195 148 6.5104166666666666e-05
1197 148 1.0850694444444445e-05
1198 148 6.5104166666666666e-05
1199 148 6.5104166666666666e-05
1200 148 6.5104166666666666e-05
1202 148 1.0850694444444445e-05
1245 148 1.0850694444444445e-05
149 149 0.00078124999999999993
150 149 4.3402777777777779e-05
164 149 4.3402777777777779e-05
165 149 4.3402777777777779e-05
1151 149 1.0850694444444445e-05
1152 149 1.0850694444444445e-05
1153 149 6.5104166666666666e-05
1155 149 6.5104166666666666e-05
1156 149 1.0850694444444445e-05
1198 149 6.5104166666666666e-05
1200 149 1.0850694444444445e-05
1201 149 6.5104166666666666e-05
1202 149 6.5104166666666666e-05
1203 149 6.5104166666666666e-05
1205 149 1.0850694444444445e-05
1248 149 1.0850694444444445e-05
150 150 0.00078124999999999993
165 150 4.3402777777777779e-05
1154 150 1.0850694444444445e-05
1155 150 1.0850694444444445e-05
1156 150 6.5104166666666666e-05
1158 150 6.5104166666666666e-05
1159 150 1.0850694444444445e-05
1201 150 6.5104166666666666e-05
1203 150 1.0850694444444445e-05
1204 150 6.5104166666666666e-05
1205 150 6.5104166666666666e-05
1206 150 6.5104166666666666e-05
1251 150 1.0850694444444445e-05
151 151 0.00078124999999999993
152 151 4.3402777777777779e-05
166 151 4.3402777777777779e-05
167 151 4.3402777777777779e-05
1160 151 1.0850694444444445e-05
1161 151 6.5104166666666666e-05
1163 151 6.5104166666666666e-05
1164 151 1.0850694444444445e-05
1207 151 6.5104166666666666e-05
1208 151 1.0850694444444445e-05
1209 151 6.5104166666666666e-05
1210 151 6.5104166666666666e-05
1211 151 6.5104166666666666e-05
1213 151 1.0850694444444445e-05
1256 151 1.0850694444444445e-05
152 152 0.00078124999999999993
153 152 4.3402777777777779e-05
167 152 4.3402777777777779e-05
168 152 4.3402777777777779e-05
1162 152 1.0850694444444445e-05
1163 152 1.0850694444444445e-05
1164 152 6.5104166666666666e-05
1166 152 6.5104166666666666e-05
1167 152 1.0850694444444445e-05
1209 152 6.5104166666666666e-05
1211 152 1.0850694444444445e-05
1212 152 6.5104166666666666e-05
1213 152 6.5104166666666666e-05
1214 152 6.5104166666666666e-05
1216 152 1.0850694444444445e-05
1259 152 1.0850694444444445e-05
153 153 0.00078124999999999993
154 153 4.3402777777777779e-05
168 153 4.3402777777777779e-05
169 153 4.3402777777777779e-05
1165 153 1.0850694444444445e-05
1166 153 1.0850694444444445e-05
1167 153 6.5104166666666666e-05
1169 153 6.5104166666666666e-05
1170 153 1.0850694444444445e-05
1212 153 6.5104166666666666e-05
1214 153 1.0850694444444445e-05
1215 153 6.5104166666666666e-05
1216 153 6.5104166666666666e-05
1217 153 6.5104166666666666e-05
1219 153 1.0850694444444445e-05
1262 153 1.0850694444444445e-05
154 154 0.00078124999999999993
155 154 4.3402777777777779e-05
169 154 4.3402777777777779e-05
170 154 4.3402777777777779e-05
1168 154 1.0850694444444445e-05
1169 154 1.0850694444444445e-05
1170 154 6.5104166666666666e-05
1172 154 6.5104166666666666e-05
1173 154 1.0850694444444445e-05
1215 154 6.5104166666666666e-05
1217 154 1.0850694444444445e-05
1218 154 6.5104166666666666e-05
1219 154 6.5104166666666666e-05
1220 154 6.5104166666666666e-05
1222 154 1.0850694444444445e-05
1265 154 1.0850694444444445e-05
155 155 0.00078124999999999993
156 155 4.3402777777777779e-05
170 155 4.3402777777777779e-05
171 155 4.3402777777777779e-05
1171 155 1.0850694444444445e-05
1172 155 1.0850694444444445e-05
1173 155 6.5104166666666666e-05
1175 155 6.5104166666666666e-05
1176 155 1.0850694444444445e-05
1218 155 6.5104166666666666e-05
1220 155 1.0850694444444445e-05
1221 155 6.5104166666666666e-05
1222 155 6.5104166666666666e-05
1223 155 6.5104166666666666e-05
1225 155 1.0850694444444445e-05
1268 155 1.0850694444444445e-05
156 156 0.00078124999999999993
157 156 4.3402777777777779e-05
171 156 4.3402777777777779e-05
172 156 4.3402777777777779e-05
1174 156 1.0850694444444445e-05
1175 156 1.0850694444444445e-05
1176 156 6.5104166666666666e-05
1178 156 6.5104166666666666e-05
1179 156 1.0850694444444445e-05
1221 156 6.5104166666666666e-05
1223 156 1.0850694444444445e-05
1224 156 6.5104166666666666e-05
1225 156 6.5104166666666666e-05
1226 156 6.5104166666666666e-05
1228 156 1.0850694444444445e-05
1271 156 1.0850694444444445e-05
157 157 0.00078124999999999993
158 157 4.3402777777777779e-05
172 157 4.3402777777777779e-05
173 157 4.3402777777777779e-05
1177 157 1.0850694444444445e-05
1178 157 1.0850694444444445e-05
1179 157 6.5104166666666666e-05
1181 157 6.5104166666666666e-05
1182 157 1.0850694444444445e-05
1224 157 6.5104166666666666e-05
1226 157 1.0850694444444445e-05
1227 157 6.5104166666666666e-05
1228 157 6.5104166666666666e-05
1229 157 6.5104166666666666e-05
1231 157 1.0850694444444445e-05
1274 157 1.0850694444444445e-05
158 158 0.00078124999999999993
159 158 4.3402777777777779e-05
173 158 4.3402777777777779e-05
174 158 4.3402777777777779e-05
1180 158 1.0850694444444445e-05
1181 158 1.0850694444444445e-05
1182 158 6.5104166666666666e-05
1184 158 6.5104166666666666e-05
1185 158 1.0850694444444445e-05
1227 158 6.5104166666666666e-05
1229 158 1.0850694444444445e-05
1230 158 6.5104166666666666e-05
1231 158 6.5104166666666666e-05
1232 158 6.5104166666666666e-05
1234 158 1.0850694444444445e-05
1277 158 1.0850694444444445e-05
159 159 0.00078124999999999993
160 159 4.3402777777777779e-05
174 159 4.3402777777777779e-05
175 159 4.3402777777777779e-05
1183 159 1.0850694444444445e-05
1184 159 1.0850694444444445e-05
1185 159 6.5104166666666666e-05
1187 159 6.5104166666666666e-05
1188 159 1.0850694444444445e-05
1230 159 6.5104166666666666e-05
1232 159 1.0850694444444445e-05
1233 159 6.5104166666666666e-05
1234 159 6.5104166666666666e-05
1235 159 6.5104166666666666e-05
1237 159 1.0850694444444445e-05
1280 159 1.0850694444444445e-05
160 160 0.00078124999999999993
161 160 4.3402777777777779e-05
175 160 4.3402777777777779e-05
176 160 4.3402777777777779e-05
1186 160 1.0850694444444445e-05
1187 160 1.0850694444444445e-05
1188 160 6.5104166666666666e-05
1190 160 6.5104166666666666e-05
1191 160 1.0850694444444445e-05
1233 160 6.5104166666666666e-05
1235 160 1.0850694444444445e-05
1236 160 6.5104166666666666e-05
1237 160 6.5104166666666666e-05
1238 160 6.5104166666666666e-05
1240 160 1.0850694444444445e-05
1283 160 1.0850694444444445e-05
161 161 0.00078124999999999993
162 161 4.3402777777777779e-05
176 161 4.3402777777777779e-05
177 161 4.3402777777777779e-05
1189 161 1.0850694444444445e-05
1190 161 1.0850694444444445e-05
1191 161 6.5104166666666666e-05
1193 161 6.5104166666666666e-05
1194 161 1.0850694444444445e-05
1236 161 6.5104166666666666e-05
1238 161 1.0850694444444445e-05
1239 161 6.5104166666666666e-05
1240 161 6.5104166666666666e-05
1241 161 6.5104166666666666e-05
1243 161 1.0850694444444445e-05
1286 161 1.0850694444444445e-05
162 162 0.00078124999999999993
163 162 4.3402777777777779e-05
177 162 4.3402777777777779e-05
178 162 4.3402777777777779e-05
1192 162 1.0850694444444445e-05
1193 162 1.0850694444444445e-05
1194 162 6.5104166666666666e-05
1196 162 6.5104166666666666e-05
1197 162 1.0850694444444445e-05
1239 162 6.5104166666666666e-05
1241 162 1.0850694444444445e-05
1242 162 6.5104166666666666e-05
1243 162 6.5104166666666666e-05
1244 162 6.5104166666666666e-05
1246 162 1.0850694444444445e-05
1289 162 1.0850694444444445e-05
163 163 0.00078124999999999993
164 163 4.3402777777777779e-05
178 163 4.3402777777777779e-05
179 163 4.3402777777777779e-05
1195 163 1.0850694444444445e-05
1196 163 1.0850694444444445e-05
1197 163 6.5104166666666666e-05
1199 163 6.5104166666666666e-05
1200 163 1.0850694444444445e-05
1242 163 6.5104166666666666e-05
1244 163 1.0850694444444445e-05
1245 163 6.5104166666666666e-05
1246 163 6.5104166666666666e-05
1247 163 6.5104166666666666e-05
1249 163 1.0850694444444445e-05
1292 163 1.0850694444444445e-05
164 164 0.00078124999999999993
165 164 4.3402777777777779e-05
179 164 4.3402777777777779e-05
180 164 4.3402777777777779e-05
1198 164 1.0850694444444445e-05
1199 164 1.0850694444444445e-05
1200 164 6.5104166666666666e-05
1202 164 6.5104166666666666e-05
1203 164 1.0850694444444445e-05
1245 164 6.5104166666666666e-05
1247 164 1.0850694444444445e-05
1248 164 6.5104166666666666e-05
1249 164 6.5104166666666666e-05
1250 164 6.5104166666666666e-05
1252 164 1.0850694444444445e-05
1295 164 1.0850694444444445e-05
165 165 0.00078124999999999993
180 165 4.3402777777777779e-05
1201 165 1.0850694444444445e-05
1202 165 1.0850694444444445e-05
1203 165 6.5104166666666666e-05
1205 165 6.5104166666666666e-05
1206 165 1.0850694444444445e-05
1248 165 6.5104166666666666e-05
1250 165 1.0850694444444445e-05
1251 165 6.5104166666666666e-05
1252 165 6.5104166666666666e-05
1253 165 6.5104166666666666e-05
1298 165 1.0850694444444445e-05
166 166 0.00078124999999999993
167 166 4.3402777777777779e-05
181 166 4.3402777777777779e-05
182 166 4.3402777777777779e-05
1207 166 1.0850694444444445e-05
1208 166 6.5104166666666666e-05
1210 166 6.5104166666666666e-05
1211 166 1.0850694444444445e-05
1254 166 6.5104166666666666e-05
1255 166 1.0850694444444445e-05
1256 166 6.5104166666666666e-05
1257 166 6.5104166666666666e-05
1258 166 6.5104166666666666e-05
1260 166 1.0850694444444445e-05
1303 166 1.0850694444444445e-05
167 167 0.00078124999999999993
168 167 4.3402777777777779e-05
182 167 4.3402777777777779e-05
183 167 4.3402777777777779e-05
1209 167 1.0850694444444445e-05
1210 167 1.0850694444444445e-05
1211 167 6.5104166666666666e-05
1213 167 6.5104166666666666e-05
1214 167 1.0850694444444445e-05
1256 167 6.5104166666666666e-05
1258 167 1.0850694444444445e-05
1259 167 6.5104166666666666e-05
1260 167 6.5104166666666666e-05
1261 167 6.5104166666666666e-05
1263 167 1.0850694444444445e-05
1306 167 1.0850694444444445e-05
168 168 0.00078124999999999993
169 168 4.3402777777777779e-05
183 168 4.3402777777777779e-05
184 168 4.3402777777777779e-05
1212 168 1.0850694444444445e-05
1213 168 1.0850694444444445e-05
1214 168 6.5104166666666666e-05
1216 168 6.5104166666666666e-05
1217 168 1.0850694444444445e-05
1259 168 6.5104166666666666e-05
1261 168 1.0850694444444445e-05
1262 168 6.5104166666666666e-05
1263 168 6.5104166666666666e-05
1264 168 6.5104166666666666e-05
1266 168 1.0850694444444445e-05
1309 168 1.0850694444444445e-05
169 169 0.00078124999999999993
170 169 4.3402777777777779e-05
184 169 4.3402777777777779e-05
185 169 4.3402777777777779e-05
1215 169 1.0850694444444445e-05
1216 169 1.0850694444444445e-05
1217 169 6.5104166666666666e-05
1219 169 6.5104166666666666e-05
1220 169 1.0850694444444445e-05
1262 169 6.5104166666666666e-05
1264 169 1.0850694444444445e-05
1265 169 6.5104166666666666e-05
1266 169 6.5104166666666666e-05
1267 169 6.5104166666666666e-05
1269 169 1.0850694444444445e-05
1312 169 1.0850694444444445e-05
170 170 0.00078124999999999993
171 170 4.3402777777777779e-05
185 170 4.3402777777777779e-05
186 170 4.3402777777777779e-05
1218 170 1.0850694444444445e-05
1219 170 1.0850694444444445e-05
1220 170 6.5104166666666666e-05
1222 170 6.5104166666666666e-05
1223 170 1.0850694444444445e-05
1265 170 6.5104166666666666e-05
1267 170 1.0850694444444445e-05
1268 170 6.5104166666666666e-05
1269 170 6.5104166666666666e-05
1270 170 6.5104166666666666e-05
1272 170 1.0850694444444445e-05
1315 170 1.0850694444444445e-05
171 171 0.00078124999999999993
172 171 4.3402777777777779e-05
186 171 4.3402777777777779e-05
187 171 4.3402777777777779e-05
1221 171 1.0850694444444445e-05
1222 171 1.0850694444444445e-05
1223 171 6.5104166666666666e-05
1225 171 6.5104166666666666e-05
1226 171 1.0850694444444445e-05
1268 171 6.5104166666666666e-05
1270 171 1.0850694444444445e-05
1271 171 6.5104166666666666e-05
1272 171 6.5104166666666666e-05
1273 171 6.5104166666666666e-05
1275 171 1.0850694444444445e-05
1318 171 1.0850694444444445e-05
172 172 0.00078124999999999993
173 172 4.3402777777777779e-05
187 172 4.3402777777777779e-05
188 172 4.3402777777777779e-05
1224 172 1.0850694444444445e-05
1225 172 1.0850694444444445e-05
1226 172 6.5104166666666666e-05
1228 172 6.5104166666666666e-05
1229 172 1.0850694444444445e-05
1271 172 6.5104166666666666e-05
1273 172 1.0850694444444445e-05
1274 172 6.5104166666666666e-05
1275 172 6.5104166666666666e-05
1276 172 6.5104166666666666e-05
1278 172 1.0850694444444445e-05
1321 172 1.0850694444444445e-05
173 173 0.00078124999999999993
174 173 4.3402777777777779e-05
188 173 4.3402777777777779e-05
189 173 4.3402777777777779e-05
1227 173 1.0850694444444445e-05
1228 173 1.0850694444444445e-05
1229 173 6.5104166666666666e-05
1231 173 6.5104166666666666e-05
1232 173 1.0850694444444445e-05
1274 173 6.5104166666666666e-05
1276 173 1.0850694444444445e-05
1277 173 6.5104166666666666e-05
1278 173 6.5104166666666666e-05
1279 173 6.5104166666666666e-05
1281 173 1.0850694444444445e-05
1324 173 1.0850694444444445e-05
174 174 0.00078124999999999993
175 174 4.3402777777777779e-05
189 174 4.3402777777777779e-05
190 174 4.3402777777777779e-05
1230 174 1.0850694444444445e-05
1231 174 1.0850694444444445e-05
1232 174 6.5104166666666666e-05
1234 174 6.5104166666666666e-05
1235 174 1.0850694444444445e-05
1277 174 6.5104166666666666e-05
1279 174 1.0850694444444445e-05
1280 174 6.5104166666666666e-05
1281 174 6.5104166666666666e-05
1282 174 6.5104166666666666e-05
1284 174 1.0850694444444445e-05
1327 174 1.0850694444444445e-05
175 175 0.00078124999999999993
176 175 4.3402777777777779e-05
190 175 4.3402777777777779e-05
191 175 4.3402777777777779e-05
1233 175 1.0850694444444445e-05
1234 175 1.0850694444444445e-05
1235 175 6.5104166666666666e-05
1237 175 6.5104166666666666e-05
1238 175 1.0850694444444445e-05
1280 175 6.5104166666666666e-05
1282 175 1.0850694444444445e-05
1283 175 6.5104166666666666e-05
1284 175 6.5104166666666666e-05
1285 175 6.5104166666666666e-05
1287 175 1.0850694444444445e-05
1330 175 1.0850694444444445e-05
176 176 0.00078124999999999993
177 176 4.3402777777777779e-05
191 176 4.3402777777777779e-05
192 176 4.3402777777777779e-05
1236 176 1.0850694444444445e-05
1237 176 1.0850694444444445e-05
1238 176 6.5104166666666666e-05
1240 176 6.5104166666666666e-05
1241 176 1.0850694444444445e-05
1283 176 6.5104166666666666e-05
1285 176 1.0850694444444445e-05
1286 176 6.5104166666666666e-05
1287 176 6.5104166666666666e-05
1288 176 6.5104166666666666e-05
1290 176 1.0850694444444445e-05
1333 176 1.0850694444444445e-05
177 177 0.00078124999999999993
178 177 4.3402777777777779e-05
192 177 4.3402777777777779e-05
193 177 4.3402777777777779e-05
1239 177 1.0850694444444445e-05
1240 177 1.0850694444444445e-05
1241 177 6.5104166666666666e-05
1243 177 6.5104166666666666e-05
1244 177 1.0850694444444445e-05
1286 177 6.5104166666666666e-05
1288 177 1.0850694444444445e-05
1289 177 6.5104166666666666e-05
1290 177 6.5104166666666666e-05
1291 177 6.5104166666666666e-05
1293 177 1.0850694444444445e-05
1336 177 1.0850694444444445e-05
178 178 0.00078124999999999993
179 178 4.3402777777777779e-05
193 178 4.3402777777777779e-05
194 178 4.3402777777777779e-05
1242 178 1.0850694444444445e-05
1243 178 1.0850694444444445e-05
1244 178 6.5104166666666666e-05
1246 178 6.5104166666666666e-05
1247 178 1.0850694444444445e-05
1289 178 6.5104166666666666e-05
1291 178 1.0850694444444445e-05
1292 178 6.5104166666666666e-05
1293 178 6.5104166666666666e-05
1294 178 6.5104166666666666e-05
1296 178 1.0850694444444445e-05
1339 178 1.0850694444444445e-05
179 179 0.00078124999999999993
180 179 4.3402777777777779e-05
194 179 4.3402777777777779e-05
195 179 4.3402777777777779e-05
1245 179 1.0850694444444445e-05
1246 179 1.0850694444444445e-05
1247 179 6.5104166666666666e-05
1249 179 6.5104166666666666e-05
1250 179 1.0850694444444445e-05
1292 179 6.5104166666666666e-05
1294 179 1.0850694444444445e-05
1295 179 6.5104166666666666e-05
1296 179 6.5104166666666666e-05
1297 179 6.5104166666666666e-05
1299 179 1.0850694444444445e-05
1342 179 1.0850694444444445e-05
180 180 0.00078124999999999993
195 180 4.3402777777777779e-05
1248 180 1.0850694444444445e-05
1249 180 1.0850694444444445e-05
1250 180 6.5104166666666666e-05
1252 180 6.5104166666666666e-05
1253 180 1.0850694444444445e-05
1295 180 6.5104166666666666e-05
1297 180 1.0850694444444445e-05
1298 180 6.5104166666666666e-05
1299 180 6.5104166666666666e-05
1300 180 6.5104166666666666e-05
1345 180 1.0850694444444445e-05
181 181 0.00078124999999999993
182 181 4.3402777777777779e-05
196 181 4.3402777777777779e-05
197 181 4.3402777777777779e-05
1254 181 1.0850694444444445e-05
1255 181 6.5104166666666666e-05
1257 181 6.5104166666666666e-05
1258 181 1.0850694444444445e-05
1301 181 6.5104166666666666e-05
1302 181 1.0850694444444445e-05
1303 181 6.5104166666666666e-05
1304 181 6.5104166666666666e-05
1305 181 6.5104166666666666e-05
1307 181 1.0850694444444445e-05
1350 181 1.0850694444444445e-05
182 182 0.00078124999999999993
183 182 4.3402777777777779e-05
197 182 4.3402777777777779e-05
198 182 4.3402777777777779e-05
1256 182 1.0850694444444445e-05
1257 182 1.0850694444444445e-05
1258 182 6.5104166666666666e-05
1260 182 6.5104166666666666e-05
1261 182 1.0850694444444445e-05
1303 182 6.5104166666666666e-05
1305 182 1.0850694444444445e-05
1306 182 6.5104166666666666e-05
1307 182 6.5104166666666666e-05
1308 182 6.5104166666666666e-05
1310 182 1.0850694444444445e-05
1353 182 1.0850694444444445e-05
183 183 0.00078124999999999993
184 183 4.3402777777777779e-05
198 183 4.3402777777777779e-05
199 183 4.3402777777777779e-05
1259 183 1.0850694444444445e-05
1260 183 1.0850694444444445e-05
1261 183 6.5104166666666666e-05
1263 183 6.5104166666666666e-05
1264 183 1.0850694444444445e-05
1306 183 6.5104166666666666e-05
1308 183 1.0850694444444445e-05
1309 183 6.5104166666666666e-05
1310 183 6.5104166666666666e-05
1311 183 6.5104166666666666e-05
1313 183 1.0850694444444445e-05
1356 183 1.0850694444444445e-05
184 184 0.00078124999999999993
185 184 4.3402777777777779e-05
199 184 4.3402777777777779e-05
200 184 4.3402777777777779e-05
1262 184 1.0850694444444445e-05
1263 184 1.0850694444444445e-05
1264 184 6.5104166666666666e-05
1266 184 6.5104166666666666e-05
1267 184 1.0850694444444445e-05
1309 184 6.5104166666666666e-05
1311 184 1.0850694444444445e-05
1312 184 6.5104166666666666e-05
1313 184 6.5104166666666666e-05
1314 184 6.5104166666666666e-05
1316 184 1.0850694444444445e-05
1359 184 1.0850694444444445e-05
185 185 0.00078124999999999993
186 185 4.3402777777777779e-05
200 185 4.3402777777777779e-05
201 185 4.3402777777777779e-05
1265 185 1.0850694444444445e-05
1266 185 1.0850694444444445e-05
1267 185 6.5104166666666666e-05
1269 185 6.5104166666666666e-05
1270 185 1.0850694444444445e-05
1312 185 6.5104166666666666e-05
1314 185 1.0850694444444445e-05
1315 185 6.5104166666666666e-05
1316 185 6.5104166666666666e-05
1317 185 6.5104166666666666e-05
1319 185 1.0850694444444445e-05
1362 185 1.0850694444444445e-05
186 186 0.00078124999999999993
187 186 4.3402777777777779e-05
201 186 4.3402777777777779e-05
202 186 4.3402777777777779e-05
1268 186 1.0850694444444445e-05
1269 186 1.0850694444444445e-05
1270 186 6.5104166666666666e-05
1272 186 6.5104166666666666e-05
1273 186 1.0850694444444445e-05
1315 186 6.5104166666666666e-05
1317 186 1.0850694444444445e-05
1318 186 6.5104166666666666e-05
1319 186 6.5104166666666666e-05
1320 186 6.5104166666666666e-05
1322 186 1.0850694444444445e-05
1365 186 1.0850694444444445e-05
187 187 0.00078124999999999993
188 187 4.3402777777777779e-05
202 187 4.3402777777777779e-05
203 187 4.3402777777777779e-05
1271 187 1.0850694444444445e-05
1272 187 1.0850694444444445e-05
1273 187 6.5104166666666666e-05
1275 187 6.5104166666666666e-05
1276 187 1.0850694444444445e-05
1318 187 6.5104166666666666e-05
1320 187 1.0850694444444445e-05
1321 187 6.5104166666666666e-05
1322 187 6.5104166666666666e-05
1323 187 6.5104166666666666e-05
1325 187 1.0850694444444445e-05
1368 187 1.0850694444444445e-05
188 188 0.00078124999999999993
189 188 4.3402777777777779e-05
203 188 4.3402777777777779e-05
204 188 4.3402777777777779e-05
1274 188 1.0850694444444445e-05
1275 188 1.0850694444444445e-05
1276 188 6.5104166666666666e-05
1278 188 6.5104166666666666e-05
1279 188 1.0850694444444445e-05
1321 188 6.5104166666666666e-05
1323 188 1.0850694444444445e-05
1324 188 6.5104166666666666e-05
1325 188 6.5104166666666666e-05
1326 188 6.5104166666666666e-05
1328 188 1.0850694444444445e-05
1371 188 1.0850694444444445e-05
189 189 0.00078124999999999993
190 189 4.3402777777777779e-05
204 189 4.3402777777777779e-05
205 189 4.3402777777777779e-05
1277 189 1.0850694444444445e-05
1278 189 1.0850694444444445e-05
1279 189 6.5104166666666666e-05
1281 189 6.5104166666666666e-05
1282 189 1.0850694444444445e-05
1324 189 6.5104166666666666e-05
1326 189 1.0850694444444445e-05
1327 189 6.5104166666666666e-05
1328 189 6.5104166666666666e-05
1329 189 6.5104166666666666e-05
1331 189 1.0850694444444445e-05
1374 189 1.0850694444444445e-05
190 190 0.00078124999999999993
191 190 4.3402777777777779e-05
205 190 4.3402777777777779e-05
206 190 4.3402777777777779e-05
1280 190 1.0850694444444445e-05
1281 190 1.0850694444444445e-05
1282 190 6.5104166666666666e-05
1284 190 6.5104166666666666e-05
1285 190 1.0850694444444445e-05
1327 190 6.5104166666666666e-05
1329 190 1.0850694444444445e-05
1330 190 6.5104166666666666e-05
1331 190 6.5104166666666666e-05
1332 190 6.5104166666666666e-05
1334 190 1.0850694444444445e-05
1377 190 1.0850694444444445e-05
191 191 0.00078124999999999993
192 191 4.3402777777777779e-05
206 191 4.3402777777777779e-05
207 191 4.3402777777777779e-05
1283 191 1.0850694444444445e-05
1284 191 1.0850694444444445e-05
1285 191 6.5104166666666666e-05
1287 191 6.5104166666666666e-05
1288 191 1.0850694444444445e-05
1330 191 6.5104166666666666e-05
1332 191 1.0850694444444445e-05
1333 191 6.5104166666666666e-05
1334 191 6.5104166666666666e-05
1335 191 6.5104166666666666e-05
1337 191 1.0850694444444445e-05
1380 191 1.0850694444444445e-05
192 192 0.00078124999999999993
193 192 4.3402777777777779e-05
207 192 4.3402777777777779e-05
208 192 4.3402777777777779e-05
1286 192 1.0850694444444445e-05
1287 192 1.0850694444444445e-05
1288 192 6.5104166666666666e-05
1290 192 6.5104166666666666e-05
1291 192 1.0850694444444445e-05
1333 192 6.5104166666666666e-05
1335 192 1.0850694444444445e-05
1336 192 6.5104166666666666e-05
1337 192 6.5104166666666666e-05
1338 192 6.5104166666666666e-05
1340 192 1.0850694444444445e-05
1383 192 1.0850694444444445e-05
193 193 0.00078124999999999993
194 193 4.3402777777777779e-05
208 193 4.3402777777777779e-05
209 193 4.3402777777777779e-05
1289 193 1.0850694444444445e-05
1290 193 1.0850694444444445e-05
1291 193 6.5104166666666666e-05
1293 193 6.5104166666666666e-05
1294 193 1.0850694444444445e-05
1336 193 6.5104166666666666e-05
1338 193 1.0850694444444445e-05
1339 193 6.5104166666666666e-05
1340 193 6.5104166666666666e-05
1341 193 6.5104166666666666e-05
1343 193 1.0850694444444445e-05
1386 193 1.0850694444444445e-05
194 194 0.00078124999999999993
195 194 4.3402777777777779e-05
209 194 4.3402777777777779e-05
210 194 4.3402777777777779e-05
1292 194 1.0850694444444445e-05
1293 194 1.0850694444444445e-05
1294 194 6.5104166666666666e-05
1296 194 6.5104166666666666e-05
1297 194 1.0850694444444445e-05
1339 194 6.5104166666666666e-05
1341 194 1.0850694444444445e-05
1342 194 6.5104166666666666e-05
1343 194 6.5104166666666666e-05
1344 194 6.5104166666666666e-05
1346 194 1.0850694444444445e-05
1389 194 1.0850694444444445e-05
195 195 0.00078124999999999993
210 195 4.3402777777777779e-05
1295 195 1.0850694444444445e-05
1296 195 1.0850694444444445e-05
1297 195 6.5104166666666666e-05
1299 195 6.5104166666666666e-05
1300 195 1.0850694444444445e-05
1342 195 6.5104166666666666e-05
1344 195 1.0850694444444445e-05
1345 195 6.5104166666666666e-05
1346 195 6.5104166666666666e-05
1347 195 6.5104166666666666e-05
1392 195 1.0850694444444445e-05
196 196 0.00078124999999999993
197 196 4.3402777777777779e-05
211 196 4.3402777777777779e-05
212 196 4.3402777777777779e-05
1301 196 1.0850694444444445e-05
1302 196 6.5104166666666666e-05
1304 196 6.5104166666666666e-05
1305 196 1.0850694444444445e-05
1348 196 6.5104166666666666e-05
1349 196 1.0850694444444445e-05
1350 196 6.5104166666666666e-05
1351 196 6.5104166666666666e-05
1352 196 6.5104166666666666e-05
1354 196 1.0850694444444445e-05
1397 196 1.0850694444444445e-05
197 197 0.00078124999999999993
198 197 4.3402777777777779e-05
212 197 4.3402777777777779e-05
213 197 4.3402777777777779e-05
1303 197 1.0850694444444445e-05
1304 197 1.0850694444444445e-05
1305 197 6.5104166666666666e-05
1307 197 6.5104166666666666e-05
1308 197 1.0850694444444445e-05
1350 197 6.5104166666666666e-05
1352 197 1.0850694444444445e-05
1353 197 6.5104166666666666e-05
1354 197 6.5104166666666666e-05
1355 197 6.5104166666666666e-05
1357 197 1.0850694444444445e-05
1400 197 1.0850694444444445e-05
198 198 0.00078124999999999993
199 198 4.3402777777777779e-05
213 198 4.3402777777777779e-05
214 198 4.3402777777777779e-05
1306 198 1.0850694444444445e-05
1307 198 1.0850694444444445e-05
1308 198 6.5104166666666666e-05
1310 198 6.5104166666666666e-05
1311 198 1.0850694444444445e-05
1353 198 6.5104166666666666e-05
1355 198 1.0850694444444445e-05
1356 198 6.5104166666666666e-05
1357 198 6.5104166666666666e-05
1358 198 6.5104166666666666e-05
1360 198 1.0850694444444445e-05
1403 198 1.0850694444444445e-05
199 199 0.00078124999999999993
200 199 4.3402777777777779e-05
214 199 4.3402777777777779e-05
215 199 4.3402777777777779e-05
1309 199 1.0850694444444445e-05
1310 199 1.0850694444444445e-05
1311 199 6.5104166666666666e-05
1313 199 6.5104166666666666e-05
1314 199 1.0850694444444445e-05
1356 199 6.5104166666666666e-05
1358 199 1.0850694444444445e-05
1359 199 6.5104166666666666e-05
1360 199 6.5104166666666666e-05
1361 199 6.5104166666666666e-05
1363 199 1.0850694444444445e-05
1406 199 1.0850694444444445e-05
200 200 0.00078124999999999993
201 200 4.3402777777777779e-05
215 200 4.3402777777777779e-05
216 200 4.3402777777777779e-05
1312 200 1.0850694444444445e-05
1313 200 1.0850694444444445e-05
1314 200 6.5104166666666666e-05
1316 200 6.5104166666666666e-05
1317 200 1.0850694444444445e-05
1359 200 6.5104166666666666e-05
1361 200 1.0850694444444445e-05
1362 200 6.5104166666666666e-05
1363 200 6.5104166666666666e-05
1364 200 6.5104166666666666e-05
1366 200 1.0850694444444445e-05
1409 200 1.0850694444444445e-05
201 201 0.00078124999999999993
202 201 4.3402777777777779e-05
216 201 4.3402777777777779e-05
217 201 4.3402777777777779e-05
1315 201 1.0850694444444445e-05
1316 201 1.0850694444444445e-05
1317 201 6.5104166666666666e-05
1319 201 6.5104166666666666e-05
1320 201 1.0850694444444445e-05
1362 201 6.5104166666666666e-05
1364 201 1.0850694444444445e-05
1365 201 6.5104166666666666e-05
1366 201 6.5104166666666666e-05
1367 201 6.5104166666666666e-05
1369 201 1.0850694444444445e-05
1412 201 1.0850694444444445e-05
202 202 0.00078124999999999993
203 202 4.3402777777777779e-05
217 202 4.3402777777777779e-05
218 202 4.3402777777777779e-05
1318 202 1.0850694444444445e-05
1319 202 1.0850694444444445e-05
1320 202 6.5104166666666666e-05
1322 202 6.5104166666666666e-05
1323 202 1.0850694444444445e-05
1365 202 6.5104166666666666e-05
1367 202 1.0850694444444445e-05
1368 202 6.5104166666666666e-05
1369 202 6.5104166666666666e-05
1370 202 6.5104166666666666e-05
1372 202 1.0850694444444445e-05
1415 202 1.0850694444444445e-05
203 203 0.00078124999999999993
204 203 4.3402777777777779e-05
218 203 4.3402777777777779e-05
219 203 4.3402777777777779e-05
1321 203 1.0850694444444445e-05
1322 203 1.0850694444444445e-05
1323 203 6.5104166666666666e-05
1325 203 6.5104166666666666e-05
1326 203 1.0850694444444445e-05
1368 203 6.5104166666666666e-05
1370 203 1.0850694444444445e-05
1371 203 6.5104166666666666e-05
1372 203 6.5104166666666666e-05
1373 203 6.5104166666666666e-05
1375 203 1.0850694444444445e-05
1418 203 1.0850694444444445e-05
204 204 0.00078124999999999993
205 204 4.3402777777777779e-05
219 204 4.3402777777777779e-05
220 204 4.3402777777777779e-05
1324 204 1.0850694444444445e-05
1325 204 1.0850694444444445e-05
1326 204 6.5104166666666666e-05
1328 204 6.5104166666666666e-05
1329 204 1.0850694444444445e-05
1371 204 6.5104166666666666e-05
1373 204 1.0850694444444445e-05
1374 204 6.5104166666666666e-05
1375 204 6.5104166666666666e-05
1376 204 6.5104166666666666e-05
1378 204 1.0850694444444445e-05
1421 204 1.0850694444444445e-05
205 205 0.00078124999999999993
206 205 4.3402777777777779e-05
220 205 4.3402777777777779e-05
221 205 4.3402777777777779e-05
1327 205 1.0850694444444445e-05
1328 205 1.0850694444444445e-05
1329 205 6.5104166666666666e-05
1331 205 6.5104166666666666e-05
1332 205 1.0850694444444445e-05
1374 205 6.5104166666666666e-05
1376 205 1.0850694444444445e-05
1377 205 6.5104166666666666e-05
1378 205 6.5104166666666666e-05
1379 205 6.5104166666666666e-05
1381 205 1.0850694444444445e-05
1424 205 1.0850694444444445e-05
206 206 0.00078124999999999993
207 206 4.3402777777777779e-05
221 206 4.3402777777777779e-05
222 206 4.3402777777777779e-05
1330 206 1.0850694444444445e-05
1331 206 1.0850694444444445e-05
1332 206 6.5104166666666666e-05
1334 206 6.5104166666666666e-05
1335 206 1.0850694444444445e-05
1377 206 6.5104166666666666e-05
1379 206 1.0850694444444445e-05
1380 206 6.5104166666666666e-05
1381 206 6.5104166666666666e-05
1382 206 6.5104166666666666e-05
1384 206 1.0850694444444445e-05
1427 206 1.0850694444444445e-05
207 207 0.00078124999999999993
208 207 4.3402777777777779e-05
222 207 4.3402777777777779e-05
223 207 4.3402777777777779e-05
1333 207 1.0850694444444445e-05
1334 207 1.0850694444444445e-05
1335 207 6.5104166666666666e-05
1337 207 6.5104166666666666e-05
1338 207 1.0850694444444445e-05
1380 207 6.5104166666666666e-05
1382 207 1.0850694444444445e-05
1383 207 6.5104166666666666e-05
1384 207 6.5104166666666666e-05
1385 207 6.5104166666666666e-05
1387 207 1.0850694444444445e-05
1430 207 1.0850694444444445e-05
208 208 0.00078124999999999993
209 208 4.3402777777777779e-05
223 208 4.3402777777777779e-05
224 208 4.3402777777777779e-05
1336 208 1.0850694444444445e-05
1337 208 1.0850694444444445e-05
1338 208 6.5104166666666666e-05
1340 208 6.5104166666666666e-05
1341 208 1.0850694444444445e-05
1383 208 6.5104166666666666e-05
1385 208 1.0850694444444445e-05
1386 208 6.5104166666666666e-05
1387 208 6.5104166666666666e-05
1388 208 6.5104166666666666e-05
1390 208 1.0850694444444445e-05
1433 208 1.0850694444444445e-05
209 209 0.00078124999999999993
210 209 4.3402777777777779e-05
224 209 4.3402777777777779e-05
225 209 4.3402777777777779e-05
1339 209 1.0850694444444445e-05
1340 209 1.0850694444444445e-05
1341 209 6.5104166666666666e-05
1343 209 6.5104166666666666e-05
1344 209 1.0850694444444445e-05
1386 209 6.5104166666666666e-05
1388 209 1.0850694444444445e-05
1389 209 6.5104166666666666e-05
1390 209 6.5104166666666666e-05
1391 209 6.5104166666666666e-05
1393 209 1.0850694444444445e-05
1436 209 1.0850694444444445e-05
210 210 0.00078124999999999993
225 210 4.3402777777777779e-05
1342 210 1.0850694444444445e-05
1343 210 1.0850694444444445e-05
1344 210 6.5104166666666666e-05
1346 210 6.5104166666666666e-05
1347 210 1.0850694444444445e-05
1389 210 6.5104166666666666e-05
1391 210 1.0850694444444445e-05
1392 210 6.5104166666666666e-05
1393 210 6.5104166666666666e-05
1394 210 6.5104166666666666e-05
1439 210 1.0850694444444445e-05
211 211 0.00078124999999999993
212 211 4.3402777777777779e-05
226 211 4.3402777777777779e-05
227 211 4.3402777777777779e-05
1348 211 1.0850694444444445e-05
1349 211 6.5104166666666666e-05
1351 211 6.5104166666666666e-05
1352 211 1.0850694444444445e-05
1395 211 6.5104166666666666e-05
1396 211 1.0850694444444445e-05
1397 211 6.5104166666666666e-05
1398 211 6.5104166666666666e-05
1399 211 6.5104166666666666e-05
1401 211 1.0850694444444445e-05
1444 211 1.0850694444444445e-05
212 212 0.00078124999999999993
213 212 4.3402777777777779e-05
227 212 4.3402777777777779e-05
228 212 4.3402777777777779e-05
1350 212 1.0850694444444445e-05
1351 212 1.0850694444444445e-05
1352 212 6.5104166666666666e-05
1354 212 6.5104166666666666e-05
1355 212 1.0850694444444445e-05
1397 212 6.5104166666666666e-05
1399 212 1.0850694444444445e-05
1400 212 6.5104166666666666e-05
1401 212 6.5104166666666666e-05
1402 212 6.5104166666666666e-05
1404 212 1.0850694444444445e-05
1447 212 1.0850694444444445e-05
213 213 0.00078124999999999993
214 213 4.3402777777777779e-05
228 213 4.3402777777777779e-05
229 213 4.3402777777777779e-05
1353 213 1.0850694444444445e-05
1354 213 1.0850694444444445e-05
1355 213 6.5104166666666666e-05
1357 213 6.5104166666666666e-05
1358 213 1.0850694444444445e-05
1400 213 6.5104166666666666e-05
1402 213 1.0850694444444445e-05
1403 213 6.5104166666666666e-05
1404 213 6.5104166666666666e-05
1405 213 6.5104166666666666e-05
1407 213 1.0850694444444445e-05
1450 213 1.0850694444444445e-05
214 214 0.00078124999999999993
215 214 4.3402777777777779e-05
229 214 4.3402777777777779e-05
230 214 4.3402777777777779e-05
1356 214 1.0850694444444445e-05
1357 214 1.0850694444444445e-05
1358 214 6.5104166666666666e-05
1360 214 6.5104166666666666e-05
1361 214 1.0850694444444445e-05
1403 214 6.5104166666666666e-05
1405 214 1.0850694444444445e-05
1406 214 6.5104166666666666e-05
1407 214 6.5104166666666666e-05
1408 214 6.5104166666666666e-05
1410 214 1.0850694444444445e-05
1453 214 1.0850694444444445e-05
215 215 0.00078124999999999993
216 215 4.3402777777777779e-05
230 215 4.3402777777777779e-05
231 215 4.3402777777777779e-05
1359 215 1.0850694444444445e-05
1360 215 1.0850694444444445e-05
1361 215 6.5104166666666666e-05
1363 215 6.5104166666666666e-05
1364 215 1.0850694444444445e-05
1406 215 6.5104166666666666e-05
1408 215 1.0850694444444445e-05
1409 215 6.5104166666666666e-05
1410 215 6.5104166666666666e-05
1411 215 6.5104166666666666e-05
1413 215 1.0850694444444445e-05
1456 215 1.0850694444444445e-05
216 216 0.00078124999999999993
217 216 4.3402777777777779e-05
231 216 4.3402777777777779e-05
232 216 4.3402777777777779e-05
1362 216 1.0850694444444445e-05
1363 216 1.0850694444444445e-05
1364 216 6.5104166666666666e-05
1366 216 6.5104166666666666e-05
1367 216 1.0850694444444445e-05
1409 216 6.5104166666666666e-05
1411 216 1.0850694444444445e-05
1412 216 6.5104166666666666e-05
1413 216 6.5104166666666666e-05
1414 216 6.5104166666666666e-05
1416 216 1.0850694444444445e-05
1459 216 1.0850694444444445e-05
217 217 0.00078124999999999993
218 217 4.3402777777777779e-05
232 217 4.3402777777777779e-05
233 217 4.3402777777777779e-05
1365 217 1.0850694444444445e-05
1366 217 1.0850694444444445e-05
1367 217 6.5104166666666666e-05
1369 217 6.5104166666666666e-05
1370 217 1.0850694444444445e-05
1412 217 6.5104166666666666e-05
1414 217 1.0850694444444445e-05
1415 217 6.5104166666666666e-05
1416 217 6.5104166666666666e-05
1417 217 6.5104166666666666e-05
1419 217 1.0850694444444445e-05
1462 217 1.0850694444444445e-05
218 218 0.00078124999999999993
219 218 4.3402777777777779e-05
233 218 4.3402777777777779e-05
234 218 4.3402777777777779e-05
1368 218 1.0850694444444445e-05
1369 218 1.0850694444444445e-05
1370 218 6.5104166666666666e-05
1372 218 6.5104166666666666e-05
1373 218 1.0850694444444445e-05
1415 218 6.5104166666666666e-05
1417 218 1.0850694444444445e-05
1418 218 6.5104166666666666e-05
1419 218 6.5104166666666666e-05
1420 218 6.5104166666666666e-05
1422 218 1.0850694444444445e-05
1465 218 1.0850694444444445e-05
219 219 0.00078124999999999993
220 219 4.3402777777777779e-05
234 219 4.3402777777777779e-05
235 219 4.3402777777777779e-05
1371 219 1.0850694444444445e-05
1372 219 1.0850694444444445e-05
1373 219 6.5104166666666666e-05
1375 219 6.5104166666666666e-05
1376 219 1.0850694444444445e-05
1418 219 6.5104166666666666e-05
1420 219 1.0850694444444445e-05
1421 219 6.5104166666666666e-05
1422 219 6.5104166666666666e-05
1423 219 6.5104166666666666e-05
1425 219 1.0850694444444445e-05
1468 219 1.0850694444444445e-05
220 220 0.00078124999999999993
221 220 4.3402777777777779e-05
235 220 4.3402777777777779e-05
236 220 4.3402777777777779e-05
1374 220 1.0850694444444445e-05
1375 220 1.0850694444444445e-05
1376 220 6.5104166666666666e-05
1378 220 6.5104166666666666e-05
1379 220 1.0850694444444445e-05
1421 220 6.5104166666666666e-05
1423 220 1.0850694444444445e-05
1424 220 6.5104166666666666e-05
1425 220 6.5104166666666666e-05
1426 220 6.5104166666666666e-05
1428 220 1.0850694444444445e-05
1471 220 1.0850694444444445e-05
221 221 0.00078124999999999993
222 221 4.3402777777777779e-05
236 221 4.3402777777777779e-05
237 221 4.3402777777777779e-05
1377 221 1.0850694444444445e-05
1378 221 1.0850694444444445e-05
1379 221 6.5104166666666666e-05
1381 221 6.5104166666666666e-05
1382 221 1.0850694444444445e-05
1424 221 6.5104166666666666e-05
1426 221 1.0850694444444445e-05
1427 221 6.5104166666666666e-05
1428 221 6.5104166666666666e-05
1429 221 6.5104166666666666e-05
1431 221 1.0850694444444445e-05
1474 221 1.0850694444444445e-05
222 222 0.00078124999999999993
223 222 4.3402777777777779e-05
237 222 4.3402777777777779e-05
238 222 4.3402777777777779e-05
1380 222 1.0850694444444445e-05
1381 222 1.0850694444444445e-05
1382 222 6.5104166666666666e-05
1384 222 6.5104166666666666e-05
1385 222 1.0850694444444445e-05
1427 222 6.5104166666666666e-05
1429 222 1.0850694444444445e-05
1430 222 6.5104166666666666e-05
1431 222 6.5104166666666666e-05
1432 222 6.5104166666666666e-05
1434 222 1.0850694444444445e-05
1477 222 1.0850694444444445e-05
223 223 0.00078124999999999993
224 223 4.3402777777777779e-05
238 223 4.3402777777777779e-05
239 223 4.3402777777777779e-05
1383 223 1.0850694444444445e-05
1384 223 1.0850694444444445e-05
1385 223 6.5104166666666666e-05
1387 223 6.5104166666666666e-05
1388 223 1.0850694444444445e-05
1430 223 6.5104166666666666e-05
1432 223 1.0850694444444445e-05
1433 223 6.5104166666666666e-05
1434 223 6.5104166666666666e-05
1435 223 6.5104166666666666e-05
1437 223 1.0850694444444445e-05
1480 223 1.0850694444444445e-05
224 224 0.00078124999999999993
225 224 4.3402777777777779e-05
239 224 4.3402777777777779e-05
240 224 4.3402777777777779e-05
1386 224 1.0850694444444445e-05
1387 224 1.0850694444444445e-05
1388 224 6.5104166666666666e-05
1390 224 6.5104166666666666e-05
1391 224 1.0850694444444445e-05
1433 224 6.5104166666666666e-05
1435 224 1.0850694444444445e-05
1436 224 6.5104166666666666e-05
1437 224 6.5104166666666666e-05
1438 224 6.5104166666666666e-05
1440 224 1.0850694444444445e-05
1483 224 1.0850694444444445e-05
225 225 0.00078124999999999993
240 225 4.3402777777777779e-05
1389 225 1.0850694444444445e-05
1390 225 1.0850694444444445e-05
1391 225 6.5104166666666666e-05
1393 225 6.5104166666666666e-05
1394 225 1.0850694444444445e-05
1436 225 6.5104166666666666e-05
1438 225 1.0850694444444445e-05
1439 225 6.5104166666666666e-05
1440 225 6.5104166666666666e-05
1441 225 6.5104166666666666e-05
1486 225 1.0850694444444445e-05
226 226 0.00078124999999999993
227 226 4.3402777777777779e-05
241 226 4.3402777777777779e-05
242 226 4.3402777777777779e-05
1395 226 1.0850694444444445e-05
1396 226 6.5104166666666666e-05
1398 226 6.5104166666666666e-05
1399 226 1.0850694444444445e-05
1442 226 6.5104166666666666e-05
1443 226 1.0850694444444445e-05
1444 226 6.5104166666666666e-05
1445 226 6.5104166666666666e-05
1446 226 6.5104166666666666e-05
1448 226 1.0850694444444445e-05
1523 226 1.0850694444444445e-05
227 227 0.00078124999999999993
228 227 4.3402777777777779e-05
242 227 4.3402777777777779e-05
243 227 4.3402777777777779e-05
1397 227 1.0850694444444445e-05
1398 227 1.0850694444444445e-05
1399 227 6.5104166666666666e-05
1401 227 6.5104166666666666e-05
1402 227 1.0850694444444445e-05
1444 227 6.5104166666666666e-05
1446 227 1.0850694444444445e-05
1447 227 6.5104166666666666e-05
1448 227 6.5104166666666666e-05
1449 227 6.5104166666666666e-05
1451 227 1.0850694444444445e-05
1526 227 1.0850694444444445e-05
228 228 0.00078124999999999993
229 228 4.3402777777777779e-05
243 228 4.3402777777777779e-05
244 228 4.3402777777777779e-05
1400 228 1.0850694444444445e-05
1401 228 1.0850694444444445e-05
1402 228 6.5104166666666666e-05
1404 228 6.5104166666666666e-05
1405 228 1.0850694444444445e-05
1447 228 6.5104166666666666e-05
1449 228 1.0850694444444445e-05
1450 228 6.5104166666666666e-05
1451 228 6.5104166666666666e-05
1452 228 6.5104166666666666e-05
1454 228 1.0850694444444445e-05
1529 228 1.0850694444444445e-05
229 229 0.00078124999999999993
230 229 4.3402777777777779e-05
244 229 4.3402777777777779e-05
245 229 4.3402777777777779e-05
1403 229 1.0850694444444445e-05
1404 229 1.0850694444444445e-05
1405 229 6.5104166666666666e-05
1407 229 6.5104166666666666e-05
1408 229 1.0850694444444445e-05
1450 229 6.5104166666666666e-05
1452 229 1.0850694444444445e-05
1453 229 6.5104166666666666e-05
1454 229 6.5104166666666666e-05
1455 229 6.5104166666666666e-05
1457 229 1.0850694444444445e-05
1532 229 1.0850694444444445e-05
230 230 0.00078124999999999993
231 230 4.3402777777777779e-05
245 230 4.3402777777777779e-05
246 230 4.3402777777777779e-05
1406 230 1.0850694444444445e-05
1407 230 1.0850694444444445e-05
1408 230 6.5104166666666666e-05
1410 230 6.5104166666666666e-05
1411 230 1.0850694444444445e-05
1453 230 6.5104166666666666e-05
1455 230 1.0850694444444445e-05
1456 230 6.5104166666666666e-05
1457 230 6.5104166666666666e-05
1458 230 6.5104166666666666e-05
1460 230 1.0850694444444445e-05
1535 230 1.0850694444444445e-05
231 231 0.00078124999999999993
232 231 4.3402777777777779e-05
246 231 4.3402777777777779e-05
247 231 4.3402777777777779e-05
1409 231 1.0850694444444445e-05
1410 231 1.0850694444444445e-05
1411 231 6.5104166666666666e-05
1413 231 6.5104166666666666e-05
1414 231 1.0850694444444445e-05
1456 231 6.5104166666666666e-05
1458 231 1.0850694444444445e-05
1459 231 6.5104166666666666e-05
1460 231 6.5104166666666666e-05
1461 231 6.5104166666666666e-05
1463 231 1.0850694444444445e-05
1538 231 1.0850694444444445e-05
232 232 0.00078124999999999993
233 232 4.3402777777777779e-05
247 232 4.3402777777777779e-05
248 232 4.3402777777777779e-05
1412 232 1.0850694444444445e-05
1413 232 1.0850694444444445e-05
1414 232 6.5104166666666666e-05
1416 232 6.5104166666666666e-05
1417 232 1.0850694444444445e-05
1459 232 6.5104166666666666e-05
1461 232 1.0850694444444445e-05
1462 232 6.5104166666666666e-05
1463 232 6.5104166666666666e-05
1464 232 6.5104166666666666e-05
1466 232 1.0850694444444445e-05
1541 232 1.0850694444444445e-05
233 233 0.00078124999999999993
234 233 4.3402777777777779e-05
248 233 4.3402777777777779e-05
249 233 4.3402777777777779e-05
1415 233 1.0850694444444445e-05
1416 233 1.0850694444444445e-05
1417 233 6.5104166666666666e-05
1419 233 6.5104166666666666e-05
1420 233 1.0850694444444445e-05
1462 233 6.5104166666666666e-05
1464 233 1.0850694444444445e-05
1465 233 6.5104166666666666e-05
1466 233 6.5104166666666666e-05
1467 233 6.5104166666666666e-05
1469 233 1.0850694444444445e-05
1544 233 1.0850694444444445e-05
234 234 0.00078124999999999993
235 234 4.3402777777777779e-05
249 234 4.3402777777777779e-05
250 234 4.3402777777777779e-05
1418 234 1.0850694444444445e-05
1419 234 1.0850694444444445e-05
1420 234 6.5104166666666666e-05
1422 234 6.5104166666666666e-05
1423 234 1.0850694444444445e-05
1465 234 6.5104166666666666e-05
1467 234 1.0850694444444445e-05
1468 234 6.5104166666666666e-05
1469 234 6.5104166666666666e-05
1470 234 6.5104166666666666e-05
1472 234 1.0850694444444445e-05
1547 234 1.0850694444444445e-05
235 235 0.00078124999999999993
236 235 4.3402777777777779e-05
250 235 4.3402777777777779e-05
251 235 4.3402777777777779e-05
1421 235 1.0850694444444445e-05
1422 235 1.0850694444444445e-05
1423 235 6.5104166666666666e-05
1425 235 6.5104166666666666e-05
1426 235 1.0850694444444445e-05
1468 235 6.5104166666666666e-05
1470 235 1.0850694444444445e-05
1471 235 6.5104166666666666e-05
1472 235 6.5104166666666666e-05
1473 235 6.5104166666666666e-05
1475 235 1.0850694444444445e-05
1550 235 1.0850694444444445e-05
236 236 0.00078124999999999993
237 236 4.3402777777777779e-05
251 236 4.3402777777777779e-05
252 236 4.3402777777777779e-05
1424 236 1.0850694444444445e-05
1425 236 1.0850694444444445e-05
1426 236 6.5104166666666666e-05
1428 236 6.5104166666666666e-05
1429 236 1.0850694444444445e-05
1471 236 6.5104166666666666e-05
1473 236 1.0850694444444445e-05
1474 236 6.5104166666666666e-05
1475 236 6.5104166666666666e-05
1476 236 6.5104166666666666e-05
1478 236 1.0850694444444445e-05
1553 236 1.0850694444444445e-05
237 237 0.00078124999999999993
238 237 4.3402777777777779e-05
252 237 4.3402777777777779e-05
253 237 4.3402777777777779e-05
1427 237 1.0850694444444445e-05
1428 237 1.0850694444444445e-05
1429 237 6.5104166666666666e-05
1431 237 6.5104166666666666e-05
1432 237 1.0850694444444445e-05
1474 237 6.5104166666666666e-05
1476 237 1.0850694444444445e-05
1477 237 6.5104166666666666e-05
1478 237 6.5104166666666666e-05
1479 237 6.5104166666666666e-05
1481 237 1.0850694444444445e-05
1556 237 1.0850694444444445e-05
238 238 0.00078124999999999993
239 238 4.3402777777777779e-05
253 238 4.3402777777777779e-05
254 238 4.3402777777777779e-05
1430 238 1.0850694444444445e-05
1431 238 1.0850694444444445e-05
1432 238 6.5104166666666666e-05
1434 238 6.5104166666666666e-05
1435 238 1.0850694444444445e-05
1477 238 6.5104166666666666e-05
1479 238 1.0850694444444445e-05
1480 238 6.5104166666666666e-05
1481 238 6.5104166666666666e-05
1482 238 6.5104166666666666e-05
1484 238 1.0850694444444445e-05
1559 238 1.0850694444444445e-05
239 239 0.00078124999999999993
240 239 4.3402777777777779e-05
254 239 4.3402777777777779e-05
255 239 4.3402777777777779e-05
1433 239 1.0850694444444445e-05
1434 239 1.0850694444444445e-05
1435 239 6.5104166666666666e-05
1437 239 6.5104166666666666e-05
1438 239 1.0850694444444445e-05
1480 239 6.5104166666666666e-05
1482 239 1.0850694444444445e-05
1483 239 6.5104166666666666e-05
1484 239 6.5104166666666666e-05
1485 239 6.5104166666666666e-05
1487 239 1.0850694444444445e-05
1562 239 1.0850694444444445e-05
240 240 0.00078124999999999993
255 240 4.3402777777777779e-05
256 240 4.3402777777777779e-05
1436 240 1.0850694444444445e-05
1437 240 1.0850694444444445e-05
1438 240 6.5104166666666666e-05
1440 240 6.5104166666666666e-05
1441 240 1.0850694444444445e-05
1483 240 6.5104166666666666e-05
1485 240 1.0850694444444445e-05
1486 240 6.5104166666666666e-05
1487 240 6.5104166666666666e-05
1488 240 6.5104166666666666e-05
1489 240 1.0850694444444445e-05
1565 240 1.0850694444444445e-05
241 241 0.00078124999999999993
242 241 4.3402777777777779e-05
272 241 4.3402777777777779e-05
273 241 4.3402777777777779e-05
1442 241 1.0850694444444445e-05
1443 241 6.5104166666666666e-05
1445 241 6.5104166666666666e-05
1446 241 1.0850694444444445e-05
1521 241 6.5104166666666666e-05
1522 241 1.0850694444444445e-05
1523 241 6.5104166666666666e-05
1524 241 6.5104166666666666e-05
1525 241 6.5104166666666666e-05
1527 241 1.0850694444444445e-05
1618 241 1.0850694444444445e-05
242 242 0.00078124999999999993
243 242 4.3402777777777779e-05
273 242 4.3402777777777779e-05
274 242 4.3402777777777779e-05
1444 242 1.0850694444444445e-05
1445 242 1.0850694444444445e-05
1446 242 6.5104166666666666e-05
1448 242 6.5104166666666666e-05
1449 242 1.0850694444444445e-05
1523 242 6.5104166666666666e-05
1525 242 1.0850694444444445e-05
1526 242 6.5104166666666666e-05
1527 242 6.5104166666666666e-05
1528 242 6.5104166666666666e-05
1530 242 1.0850694444444445e-05
1621 242 1.0850694444444445e-05
243 243 0.00078124999999999993
244 243 4.3402777777777779e-05
274 243 4.3402777777777779e-05
275 243 4.3402777777777779e-05
1447 243 1.0850694444444445e-05
1448 243 1.0850694444444445e-05
1449 243 6.5104166666666666e-05
1451 243 6.5104166666666666e-05
1452 243 1.0850694444444445e-05
1526 243 6.5104166666666666e-05
1528 243 1.0850694444444445e-05
1529 243 6.5104166666666666e-05
1530 243 6.5104166666666666e-05
1531 243 6.5104166666666666e-05
1533 243 1.0850694444444445e-05
1624 243 1.0850694444444445e-05
244 244 0.00078124999999999993
245 244 4.3402777777777779e-05
275 244 4.3402777777777779e-05
276 244 4.3402777777777779e-05
1450 244 1.0850694444444445e-05
1451 244 1.0850694444444445e-05
1452 244 6.5104166666666666e-05
1454 244 6.5104166666666666e-05
1455 244 1.0850694444444445e-05
1529 244 6.5104166666666666e-05
1531 244 1.0850694444444445e-05
1532 244 6.5104166666666666e-05
1533 244 6.5104166666666666e-05
1534 244 6.5104166666666666e-05
1536 244 1.0850694444444445e-05
1627 244 1.0850694444444445e-05
245 245 0.00078124999999999993
246 245 4.3402777777777779e-05
276 245 4.3402777777777779e-05
277 245 4.3402777777777779e-05
1453 245 1.0850694444444445e-05
1454 245 1.0850694444444445e-05
1455 245 6.5104166666666666e-05
1457 245 6.5104166666666666e-05
1458 245 1.0850694444444445e-05
1532 245 6.5104166666666666e-05
1534 245 1.0850694444444445e-05
1535 245 6.5104166666666666e-05
1536 245 6.5104166666666666e-05
1537 245 6.5104166666666666e-05
1539 245 1.0850694444444445e-05
1630 245 1.0850694444444445e-05
246 246 0.00078124999999999993
247 246 4.3402777777777779e-05
277 246 4.3402777777777779e-05
278 246 4.3402777777777779e-05
1456 246 1.0850694444444445e-05
1457 246 1.0850694444444445e-05
1458 246 6.5104166666666666e-05
1460 246 6.5104166666666666e-05
1461 246 1.0850694444444445e-05
1535 246 6.5104166666666666e-05
1537 246 1.0850694444444445e-05
1538 246 6.5104166666666666e-05
1539 246 6.5104166666666666e-05
1540 246 6.5104166666666666e-05
1542 246 1.0850694444444445e-05
1633 246 1.0850694444444445e-05
247 247 0.00078124999999999993
248 247 4.3402777777777779e-05
278 247 4.3402777777777779e-05
279 247 4.3402777777777779e-05
1459 247 1.0850694444444445e-05
1460 247 1.0850694444444445e-05
1461 247 6.5104166666666666e-05
1463 247 6.5104166666666666e-05
1464 247 1.0850694444444445e-05
1538 247 6.5104166666666666e-05
1540 247 1.0850694444444445e-05
1541 247 6.5104166666666666e-05
1542 247 6.5104166666666666e-05
1543 247 6.5104166666666666e-05
1545 247 1.0850694444444445e-05
1636 247 1.0850694444444445e-05
248 248 0.00078124999999999993
249 248 4.3402777777777779e-05
279 248 4.3402777777777779e-05
280 248 4.3402777777777779e-05
1462 248 1.0850694444444445e-05
1463 248 1.0850694444444445e-05
1464 248 6.5104166666666666e-05
1466 248 6.5104166666666666e-05
1467 248 1.0850694444444445e-05
1541 248 6.5104166666666666e-05
1543 248 1.0850694444444445e-05
1544 248 6.5104166666666666e-05
1545 248 6.5104166666666666e-05
1546 248 6.5104166666666666e-05
1548 248 1.0850694444444445e-05
1639 248 1.0850694444444445e-05
249 249 0.00078124999999999993
250 249 4.3402777777777779e-05
280 249 4.3402777777777779e-05
281 249 4.3402777777777779e-05
1465 249 1.0850694444444445e-05
1466 249 1.0850694444444445e-05
1467 249 6.5104166666666666e-05
1469 249 6.5104166666666666e-05
1470 249 1.0850694444444445e-05
1544 249 6.5104166666666666e-05
1546 249 1.0850694444444445e-05
1547 249 6.5104166666666666e-05
1548 249 6.5104166666666666e-05
1549 249 6.5104166666666666e-05
1551 249 1.0850694444444445e-05
1642 249 1.0850694444444445e-05
250 250 0.00078124999999999993
251 250 4.3402777777777779e-05
281 250 4.3402777777777779e-05
282 250 4.3402777777777779e-05
1468 250 1.0850694444444445e-05
1469 250 1.0850694444444445e-05
1470 250 6.5104166666666666e-05
1472 250 6.5104166666666666e-05
1473 250 1.0850694444444445e-05
1547 250 6.5104166666666666e-05
1549 250 1.0850694444444445e-05
1550 250 6.5104166666666666e-05
1551 250 6.5104166666666666e-05
1552 250 6.5104166666666666e-05
1554 250 1.0850694444444445e-05
1645 250 1.0850694444444445e-05
251 251 0.00078124999999999993
252 251 4.3402777777777779e-05
282 251 4.3402777777777779e-05
283 251 4.3402777777777779e-05
1471 251 1.0850694444444445e-05
1472 251 1.0850694444444445e-05
1473 251 6.5104166666666666e-05
1475 251 6.5104166666666666e-05
1476 251 1.0850694444444445e-05
1550 251 6.5104166666666666e-05
1552 251 1.0850694444444445e-05
1553 251 6.5104166666666666e-05
1554 251 6.5104166666666666e-05
1555 251 6.5104166666666666e-05
1557 251 1.0850694444444445e-05
1648 251 1.0850694444444445e-05
252 252 0.00078124999999999993
253 252 4.3402777777777779e-05
283 252 4.3402777777777779e-05
284 252 4.3402777777777779e-05
1474 252 1.0850694444444445e-05
1475 252 1.0850694444444445e-05
1476 252 6.5104166666666666e-05
1478 252 6.5104166666666666e-05
1479 252 1.0850694444444445e-05
1553 252 6.5104166666666666e-05
1555 252 1.0850694444444445e-05
1556 252 6.5104166666666666e-05
1557 252 6.5104166666666666e-05
1558 252 6.5104166666666666e-05
1560 252 1.0850694444444445e-05
1651 252 1.0850694444444445e-05
253 253 0.00078124999999999993
254 253 4.3402777777777779e-05
284 253 4.3402777777777779e-05
285 253 4.3402777777777779e-05
1477 253 1.0850694444444445e-05
1478 253 1.0850694444444445e-05
1479 253 6.5104166666666666e-05
1481 253 6.5104166666666666e-05
1482 253 1.0850694444444445e-05
1556 253 6.5104166666666666e-05
1558 253 1.0850694444444445e-05
1559 253 6.5104166666666666e-05
1560 253 6.5104166666666666e-05
1561 253 6.5104166666666666e-05
1563 253 1.0850694444444445e-05
1654 253 1.0850694444444445e-05
254 254 0.00078124999999999993
255 254 4.3402777777777779e-05
285 254 4.3402777777777779e-05
286 254 4.3402777777777779e-05
1480 254 1.0850694444444445e-05
1481 254 1.0850694444444445e-05
1482 254 6.5104166666666666e-05
1484 254 6.5104166666666666e-05
1485 254 1.0850694444444445e-05
1559 254 6.5104166666666666e-05
1561 254 1.0850694444444445e-05
1562 254 6.5104166666666666e-05
1563 254 6.5104166666666666e-05
1564 254 6.5104166666666666e-05
1566 254 1.0850694444444445e-05
1657 254 1.0850694444444445e-05
255 255 0.00078124999999999993
256 255 4.3402777777777779e-05
286 255 4.3402777777777779e-05
287 255 4.3402777777777779e-05
1483 255 1.0850694444444445e-05
1484 255 1.0850694444444445e-05
1485 255 6.5104166666666666e-05
1487 255 6.5104166666666666e-05
1488 255 1.0850694444444445e-05
1562 255 6.5104166666666666e-05
1564 255 1.0850694444444445e-05
1565 255 6.5104166666666666e-05
1566 255 6.5104166666666666e-05
1567 255 6.5104166666666666e-05
1569 255 1.0850694444444445e-05
1660 255 1.0850694444444445e-05
256 256 0.00078124999999999993
257 256 4.3402777777777779e-05
287 256 4.3402777777777779e-05
288 256 4.3402777777777779e-05
1486 256 1.0850694444444445e-05
1487 256 1.0850694444444445e-05
1488 256 6.5104166666666666e-05
1489 256 6.5104166666666666e-05
1490 256 1.0850694444444445e-05
1565 256 6.5104166666666666e-05
1567 256 1.0850694444444445e-05
1568 256 6.5104166666666666e-05
1569 256 6.5104166666666666e-05
1570 256 6.5104166666666666e-05
1572 256 1.0850694444444445e-05
1663 256 1.0850694444444445e-05
257 257 0.00078124999999999993
258 257 4.3402777777777779e-05
288 257 4.3402777777777779e-05
289 257 4.3402777777777779e-05
1489 257 1.0850694444444445e-05
1490 257 6.5104166666666666e-05
1491 257 6.5104166666666666e-05
1492 257 1.0850694444444445e-05
1568 257 6.5104166666666666e-05
1570 257 1.0850694444444445e-05
1571 257 6.5104166666666666e-05
1572 257 6.5104166666666666e-05
1573 257 6.5104166666666666e-05
1575 257 1.0850694444444445e-05
1666 257 1.0850694444444445e-05
258 258 0.00078124999999999993
259 258 4.3402777777777779e-05
289 258 4.3402777777777779e-05
290 258 4.3402777777777779e-05
1491 258 1.0850694444444445e-05
1492 258 6.5104166666666666e-05
1493 258 6.5104166666666666e-05
1494 258 1.0850694444444445e-05
1571 258 6.5104166666666666e-05
1573 258 1.0850694444444445e-05
1574 258 6.5104166666666666e-05
1575 258 6.5104166666666666e-05
1576 258 6.5104166666666666e-05
1578 258 1.0850694444444445e-05
1669 258 1.0850694444444445e-05
259 259 0.00078124999999999993
260 259 4.3402777777777779e-05
290 259 4.3402777777777779e-05
291 259 4.3402777777777779e-05
1493 259 1.0850694444444445e-05
1494 259 6.5104166666666666e-05
1495 259 6.5104166666666666e-05
1496 259 1.0850694444444445e-05
1574 259 6.5104166666666666e-05
1576 259 1.0850694444444445e-05
1577 259 6.5104166666666666e-05
1578 259 6.5104166666666666e-05
1579 259 6.5104166666666666e-05
1581 259 1.0850694444444445e-05
1672 259 1.0850694444444445e-05
260 260 0.00078124999999999993
261 260 4.3402777777777779e-05
291 260 4.3402777777777779e-05
292 260 4.3402777777777779e-05
1495 260 1.0850694444444445e-05
1496 260 6.5104166666666666e-05
1497 260 6.5104166666666666e-05
1498 260 1.0850694444444445e-05
1577 260 6.5104166666666666e-05
1579 260 1.0850694444444445e-05
1580 260 6.5104166666666666e-05
1581 260 6.5104166666666666e-05
1582 260 6.5104166666666666e-05
1584 260 1.0850694444444445e-05
1675 260 1.0850694444444445e-05
261 261 0.00078124999999999993
262 261 4.3402777777777779e-05
292 261 4.3402777777777779e-05
293 261 4.3402777777777779e-05
1497 261 1.0850694444444445e-05
1498 261 6.5104166666666666e-05
1499 261 6.5104166666666666e-05
1500 261 1.0850694444444445e-05
1580 261 6.5104166666666666e-05
1582 261 1.0850694444444445e-05
1583 261 6.5104166666666666e-05
1584 261 6.5104166666666666e-05
1585 261 6.5104166666666666e-05
1587 261 1.0850694444444445e-05
1678 261 1.0850694444444445e-05
262 262 0.00078124999999999993
263 262 4.3402777777777779e-05
293 262 4.3402777777777779e-05
294 262 4.3402777777777779e-05
1499 262 1.0850694444444445e-05
1500 262 6.5104166666666666e-05
1501 262 6.5104166666666666e-05
1502 262 1.0850694444444445e-05
1583 262 6.5104166666666666e-05
1585 262 1.0850694444444445e-05
1586 262 6.5104166666666666e-05
1587 262 6.5104166666666666e-05
1588 262 6.5104166666666666e-05
1590 262 1.0850694444444445e-05
1681 262 1.0850694444444445e-05
263 263 0.00078124999999999993
264 263 4.3402777777777779e-05
294 263 4.3402777777777779e-05
295 263 4.3402777777777779e-05
1501 263 1.0850694444444445e-05
1502 263 6.5104166666666666e-05
1503 263 6.5104166666666666e-05
1504 263 1.0850694444444445e-05
1586 263 6.5104166666666666e-05
1588 263 1.0850694444444445e-05
1589 263 6.5104166666666666e-05
1590 263 6.5104166666666666e-05
1591 263 6.5104166666666666e-05
1593 263 1.0850694444444445e-05
1684 263 1.0850694444444445e-05
264 264 0.00078124999999999993
265 264 4.3402777777777779e-05
295 264 4.3402777777777779e-05
296 264 4.3402777777777779e-05
1503 264 1.0850694444444445e-05
1504 264 6.5104166666666666e-05
1505 264 6.5104166666666666e-05
1506 264 1.0850694444444445e-05
1589 264 6.5104166666666666e-05
1591 264 1.0850694444444445e-05
1592 264 6.5104166666666666e-05
1593 264 6.5104166666666666e-05
1594 264 6.5104166666666666e-05
1596 264 1.0850694444444445e-05
1687 264 1.0850694444444445e-05
265 265 0.00078124999999999993
266 265 4.3402777777777779e-05
296 265 4.3402777777777779e-05
297 265 4.3402777777777779e-05
1505 265 1.0850694444444445e-05
1506 265 6.5104166666666666e-05
1507 265 6.5104166666666666e-05
1508 265 1.0850694444444445e-05
1592 265 6.5104166666666666e-05
1594 265 1.0850694444444445e-05
1595 265 6.5104166666666666e-05
1596 265 6.5104166666666666e-05
1597 265 6.5104166666666666e-05
1599 265 1.0850694444444445e-05
1690 265 1.0850694444444445e-05
266 266 0.00078124999999999993
267 266 4.3402777777777779e-05
297 266 4.3402777777777779e-05
298 266 4.3402777777777779e-05
1507 266 1.0850694444444445e-05
1508 266 6.5104166666666666e-05
1509 266 6.5104166666666666e-05
1510 266 1.0850694444444445e-05
1595 266 6.5104166666666666e-05
1597 266 1.0850694444444445e-05
1598 266 6.5104166666666666e-05
1599 266 6.5104166666666666e-05
1600 266 6.5104166666666666e-05
1602 266 1.0850694444444445e-05
1693 266 1.0850694444444445e-05
267 267 0.00078124999999999993
268 267 4.3402777777777779e-05
298 267 4.3402777777777779e-05
299 267 4.3402777777777779e-05
1509 267 1.0850694444444445e-05
1510 267 6.5104166666666666e-05
1511 267 6.5104166666666666e-05
1512 267 1.0850694444444445e-05
1598 267 6.5104166666666666e-05
1600 267 1.0850694444444445e-05
1601 267 6.5104166666666666e-05
1602 267 6.5104166666666666e-05
1603 267 6.5104166666666666e-05
1605 267 1.0850694444444445e-05
1696 267 1.0850694444444445e-05
268 268 0.00078124999999999993
269 268 4.3402777777777779e-05
299 268 4.3402777777777779e-05
300 268 4.3402777777777779e-05
1511 268 1.0850694444444445e-05
1512 268 6.5104166666666666e-05
1513 268 6.5104166666666666e-05
1514 268 1.0850694444444445e-05
1601 268 6.5104166666666666e-05
1603 268 1.0850694444444445e-05
1604 268 6.5104166666666666e-05
1605 268 6.5104166666666666e-05
1606 268 6.5104166666666666e-05
1608 268 1.0850694444444445e-05
1699 268 1.0850694444444445e-05
269 269 0.00078124999999999993
270 269 4.3402777777777779e-05
300 269 4.3402777777777779e-05
301 269 4.3402777777777779e-05
1513 269 1.0850694444444445e-05
1514 269 6.5104166666666666e-05
1515 269 6.5104166666666666e-05
1516 269 1.0850694444444445e-05
1604 269 6.5104166666666666e-05
1606 269 1.0850694444444445e-05
1607 269 6.5104166666666666e-05
1608 269 6.5104166666666666e-05
1609 269 6.5104166666666666e-05
1611 269 1.0850694444444445e-05
1702 269 1.0850694444444445e-05
270 270 0.00078124999999999993
271 270 4.3402777777777779e-05
301 270 4.3402777777777779e-05
302 270 4.3402777777777779e-05
1515 270 1.0850694444444445e-05
1516 270 6.5104166666666666e-05
1517 270 6.5104166666666666e-05
1518 270 1.0850694444444445e-05
1607 270 6.5104166666666666e-05
1609 270 1.0850694444444445e-05
1610 270 6.5104166666666666e-05
1611 270 6.5104166666666666e-05
1612 270 6.5104166666666666e-05
1614 270 1.0850694444444445e-05
1705 270 1.0850694444444445e-05
271 271 0.00078124999999999993
302 271 4.3402777777777779e-05
1517 271 1.0850694444444445e-05
1518 271 6.5104166666666666e-05
1519 271 6.5104166666666666e-05
1520 271 1.0850694444444445e-05
1610 271 6.5104166666666666e-05
1612 271 1.0850694444444445e-05
1613 271 6.5104166666666666e-05
1614 271 6.5104166666666666e-05
1615 271 6.5104166666666666e-05
1708 271 1.0850694444444445e-05
272 272 0.00078124999999999993
273 272 4.3402777777777779e-05
303 272 4.3402777777777779e-05
304 272 4.3402777777777779e-05
1521 272 1.0850694444444445e-05
1522 272 6.5104166666666666e-05
1524 272 6.5104166666666666e-05
1525 272 1.0850694444444445e-05
1616 272 6.5104166666666666e-05
1617 272 1.0850694444444445e-05
1618 272 6.5104166666666666e-05
1619 272 6.5104166666666666e-05
1620 272 6.5104166666666666e-05
1622 272 1.0850694444444445e-05
1713 272 1.0850694444444445e-05
273 273 0.00078124999999999993
274 273 4.3402777777777779e-05
304 273 4.3402777777777779e-05
305 273 4.3402777777777779e-05
1523 273 1.0850694444444445e-05
1524 273 1.0850694444444445e-05
1525 273 6.5104166666666666e-05
1527 273 6.5104166666666666e-05
1528 273 1.0850694444444445e-05
1618 273 6.5104166666666666e-05
1620 273 1.0850694444444445e-05
1621 273 6.5104166666666666e-05
1622 273 6.5104166666666666e-05
1623 273 6.5104166666666666e-05
1625 273 1.0850694444444445e-05
1716 273 1.0850694444444445e-05
274 274 0.00078124999999999993
275 274 4.3402777777777779e-05
305 274 4.3402777777777779e-05
306 274 4.3402777777777779e-05
1526 274 1.0850694444444445e-05
1527 274 1.0850694444444445e-05
1528 274 6.5104166666666666e-05
1530 274 6.5104166666666666e-05
1531 274 1.0850694444444445e-05
1621 274 6.5104166666666666e-05
1623 274 1.0850694444444445e-05
1624 274 6.5104166666666666e-05
1625 274 6.5104166666666666e-05
1626 274 6.5104166666666666e-05
1628 274 1.0850694444444445e-05
1719 274 1.0850694444444445e-05
275 275 0.00078124999999999993
276 275 4.3402777777777779e-05
306 275 4.3402777777777779e-05
307 275 4.3402777777777779e-05
1529 275 1.0850694444444445e-05
1530 275 1.0850694444444445e-05
1531 275 6.5104166666666666e-05
1533 275 6.5104166666666666e-05
1534 275 1.0850694444444445e-05
1624 275 6.5104166666666666e-05
1626 275 1.0850694444444445e-05
1627 275 6.5104166666666666e-05
1628 275 6.5104166666666666e-05
1629 275 6.5104166666666666e-05
1631 275 1.0850694444444445e-05
1722 275 1.0850694444444445e-05
276 276 0.00078124999999999993
277 276 4.3402777777777779e-05
307 276 4.3402777777777779e-05
308 276 4.3402777777777779e-05
1532 276 1.0850694444444445e-05
1533 276 1.0850694444444445e-05
1534 276 6.5104166666666666e-05
1536 276 6.5104166666666666e-05
1537 276 1.0850694444444445e-05
1627 276 6.5104166666666666e-05
1629 276 1.0850694444444445e-05
1630 276 6.5104166666666666e-05
1631 276 6.5104166666666666e-05
1632 276 6.5104166666666666e-05
1634 276 1.0850694444444445e-05
1725 276 1.0850694444444445e-05
277 277 0.00078124999999999993
278 277 4.3402777777777779e-05
308 277 4.3402777777777779e-05
309 277 4.3402777777777779e-05
1535 277 1.0850694444444445e-05
1536 277 1.0850694444444445e-05
1537 277 6.5104166666666666e-05
1539 277 6.5104166666666666e-05
1540 277 1.0850694444444445e-05
1630 277 6.5104166666666666e-05
1632 277 1.0850694444444445e-05
1633 277 6.5104166666666666e-05
1634 277 6.5104166666666666e-05
1635 277 6.5104166666666666e-05
1637 277 1.0850694444444445e-05
1728 277 1.0850694444444445e-05
278 278 0.00078124999999999993
279 278 4.3402777777777779e-05
309 278 4.3402777777777779e-05
310 278 4.3402777777777779e-05
1538 278 1.0850694444444445e-05
1539 278 1.0850694444444445e-05
1540 278 6.5104166666666666e-05
1542 278 6.5104166666666666e-05
1543 278 1.0850694444444445e-05
1633 278 6.5104166666666666e-05
1635 278 1.0850694444444445e-05
1636 278 6.5104166666666666e-05
1637 278 6.5104166666666666e-05
1638 278 6.5104166666666666e-05
1640 278 1.0850694444444445e-05
1731 278 1.0850694444444445e-05
279 279 0.00078124999999999993
280 279 4.3402777777777779e-05
310 279 4.3402777777777779e-05
311 279 4.3402777777777779e-05
1541 279 1.0850694444444445e-05
1542 279 1.0850694444444445e-05
1543 279 6.5104166666666666e-05
1545 279 6.5104166666666666e-05
1546 279 1.0850694444444445e-05
1636 279 6.5104166666666666e-05
1638 279 1.0850694444444445e-05
1639 279 6.5104166666666666e-05
1640 279 6.5104166666666666e-05
1641 279 6.5104166666666666e-05
1643 279 1.0850694444444445e-05
1734 279 1.0850694444444445e-05
280 280 0.00078124999999999993
281 280 4.3402777777777779e-05
311 280 4.3402777777777779e-05
312 280 4.3402777777777779e-05
1544 280 1.0850694444444445e-05
1545 280 1.0850694444444445e-05
1546 280 6.5104166666666666e-05
1548 280 6.5104166666666666e-05
1549 280 1.0850694444444445e-05
1639 280 6.5104166666666666e-05
1641 280 1.0850694444444445e-05
1642 280 6.5104166666666666e-05
1643 280 6.5104166666666666e-05
1644 280 6.5104166666666666e-05
1646 280 1.0850694444444445e-05
1737 280 1.0850694444444445e-05
281 281 0.00078124999999999993
282 281 4.3402777777777779e-05
312 281 4.3402777777777779e-05
313 281 4.3402777777777779e-05
1547 281 1.0850694444444445e-05
1548 281 1.0850694444444445e-05
1549 281 6.5104166666666666e-05
1551 281 6.5104166666666666e-05
1552 281 1.0850694444444445e-05
1642 281 6.5104166666666666e-05
1644 281 1.0850694444444445e-05
1645 281 6.5104166666666666e-05
1646 281 6.5104166666666666e-05
1647 281 6.5104166666666666e-05
1649 281 1.0850694444444445e-05
1740 281 1.0850694444444445e-05
282 282 0.00078124999999999993
283 282 4.3402777777777779e-05
313 282 4.3402777777777779e-05
314 282 4.3402777777777779e-05
1550 282 1.0850694444444445e-05
1551 282 1.0850694444444445e-05
1552 282 6.5104166666666666e-05
1554 282 6.5104166666666666e-05
1555 282 1.0850694444444445e-05
1645 282 6.5104166666666666e-05
1647 282 1.0850694444444445e-05
1648 282 6.5104166666666666e-05
1649 282 6.5104166666666666e-05
1650 282 6.5104166666666666e-05
1652 282 1.0850694444444445e-05
1743 282 1.0850694444444445e-05
283 283 0.00078124999999999993
284 283 4.3402777777777779e-05
314 283 4.3402777777777779e-05
315 283 4.3402777777777779e-05
1553 283 1.0850694444444445e-05
1554 283 1.0850694444444445e-05
1555 283 6.5104166666666666e-05
1557 283 6.5104166666666666e-05
1558 283 1.0850694444444445e-05
1648 283 6.5104166666666666e-05
1650 283 1.0850694444444445e-05
1651 283 6.5104166666666666e-05
1652 283 6.5104166666666666e-05
1653 283 6.5104166666666666e-05
1655 283 1.0850694444444445e-05
1746 283 1.0850694444444445e-05
284 284 0.00078124999999999993
285 284 4.3402777777777779e-05
315 284 4.3402777777777779e-05
316 284 4.3402777777777779e-05
1556 284 1.0850694444444445e-05
1557 284 1.0850694444444445e-05
1558 284 6.5104166666666666e-05
1560 284 6.5104166666666666e-05
1561 284 1.0850694444444445e-05
1651 284 6.5104166666666666e-05
1653 284 1.0850694444444445e-05
1654 284 6.5104166666666666e-05
1655 284 6.5104166666666666e-05
1656 284 6.5104166666666666e-05
1658 284 1.0850694444444445e-05
1749 284 1.0850694444444445e-05
285 285 0.00078124999999999993
286 285 4.3402777777777779e-05
316 285 4.3402777777777779e-05
317 285 4.3402777777777779e-05
1559 285 1.0850694444444445e-05
1560 285 1.0850694444444445e-05
1561 285 6.5104166666666666e-05
1563 285 6.5104166666666666e-05
1564 285 1.0850694444444445e-05
1654 285 6.5104166666666666e-05
1656 285 1.0850694444444445e-05
1657 285 6.5104166666666666e-05
1658 285 6.5104166666666666e-05
1659 285 6.5104166666666666e-05
1661 285 1.0850694444444445e-05
1752 285 1.0850694444444445e-05
286 286 0.00078124999999999993
287 286 4.3402777777777779e-05
317 286 4.3402777777777779e-05
318 286 4.3402777777777779e-05
1562 286 1.0850694444444445e-05
1563 286 1.0850694444444445e-05
1564 286 6.5104166666666666e-05
1566 286 6.5104166666666666e-05
1567 286 1.0850694444444445e-05
1657 286 6.5104166666666666e-05
1659 286 1.0850694444444445e-05
1660 286 6.5104166666666666e-05
1661 286 6.5104166666666666e-05
1662 286 6.5104166666666666e-05
1664 286 1.0850694444444445e-05
1755 286 1.0850694444444445e-05
287 287 0.00078124999999999993
288 287 4.3402777777777779e-05
318 287 4.3402777777777779e-05
319 287 4.3402777777777779e-05
1565 287 1.0850694444444445e-05
1566 287 1.0850694444444445e-05
1567 287 6.5104166666666666e-05
1569 287 6.5104166666666666e-05
1570 287 1.0850694444444445e-05
1660 287 6.5104166666666666e-05
1662 287 1.0850694444444445e-05
1663 287 6.5104166666666666e-05
1664 287 6.5104166666666666e-05
1665 287 6.5104166666666666e-05
1667 287 1.0850694444444445e-05
1758 287 1.0850694444444445e-05
288 288 0.00078124999999999993
289 288 4.3402777777777779e-05
319 288 4.3402777777777779e-05
320 288 4.3402777777777779e-05
1568 288 1.0850694444444445e-05
1569 288 1.0850694444444445e-05
1570 288 6.5104166666666666e-05
1572 288 6.5104166666666666e-05
1573 288 1.0850694444444445e-05
1663 288 6.5104166666666666e-05
1665 288 1.0850694444444445e-05
1666 288 6.5104166666666666e-05
1667 288 6.5104166666666666e-05
1668 288 6.5104166666666666e-05
1670 288 1.0850694444444445e-05
1761 288 1.0850694444444445e-05
289 289 0.00078124999999999993
290 289 4.3402777777777779e-05
320 289 4.3402777777777779e-05
321 289 4.3402777777777779e-05
1571 289 1.0850694444444445e-05
1572 289 1.0850694444444445e-05
1573 289 6.5104166666666666e-05
1575 289 6.5104166666666666e-05
1576 289 1.0850694444444445e-05
1666 289 6.5104166666666666e-05
1668 289 1.0850694444444445e-05
1669 289 6.5104166666666666e-05
1670 289 6.5104166666666666e-05
1671 289 6.5104166666666666e-05
1673 289 1.0850694444444445e-05
1764 289 1.0850694444444445e-05
290 290 0.00078124999999999993
291 290 4.3402777777777779e-05
321 290 4.3402777777777779e-05
322 290 4.3402777777777779e-05
1574 290 1.0850694444444445e-05
1575 290 1.0850694444444445e-05
1576 290 6.5104166666666666e-05
1578 290 6.5104166666666666e-05
1579 290 1.0850694444444445e-05
1669 290 6.5104166666666666e-05
1671 290 1.0850694444444445e-05
1672 290 6.5104166666666666e-05
1673 290 6.5104166666666666e-05
1674 290 6.5104166666666666e-05
1676 290 1.0850694444444445e-05
1767 290 1.0850694444444445e-05
291 291 0.00078124999999999993
292 291 4.3402777777777779e-05
322 291 4.3402777777777779e-05
323 291 4.3402777777777779e-05
1577 291 1.0850694444444445e-05
1578 291 1.0850694444444445e-05
1579 291 6.5104166666666666e-05
1581 291 6.5104166666666666e-05
1582 291 1.0850694444444445e-05
1672 291 6.5104166666666666e-05
1674 291 1.0850694444444445e-05
1675 291 6.5104166666666666e-05
1676 291 6.5104166666666666e-05
1677 291 6.5104166666666666e-05
1679 291 1.0850694444444445e-05
1770 291 1.0850694444444445e-05
292 292 0.00078124999999999993
293 292 4.3402777777777779e-05
323 292 4.3402777777777779e-05
324 292 4.3402777777777779e-05
1580 292 1.0850694444444445e-05
1581 292 1.0850694444444445e-05
1582 292 6.5104166666666666e-05
1584 292 6.5104166666666666e-05
1585 292 1.0850694444444445e-05
1675 292 6.5104166666666666e-05
1677 292 1.0850694444444445e-05
1678 292 6.5104166666666666e-05
1679 292 6.5104166666666666e-05
1680 292 6.5104166666666666e-05
1682 292 1.0850694444444445e-05
1773 292 1.0850694444444445e-05
293 293 0.00078124999999999993
294 293 4.3402777777777779e-05
324 293 4.3402777777777779e-05
325 293 4.3402777777777779e-05
1583 293 1.0850694444444445e-05
1584 293 1.0850694444444445e-05
1585 293 6.5104166666666666e-05
1587 293 6.5104166666666666e-05
1588 293 1.0850694444444445e-05
1678 293 6.5104166666666666e-05
1680 293 1.0850694444444445e-05
1681 293 6.5104166666666666e-05
1682 293 6.5104166666666666e-05
1683 293 6.5104166666666666e-05
1685 293 1.0850694444444445e-05
1776 293 1.0850694444444445e-05
294 294 0.00078124999999999993
295 294 4.3402777777777779e-05
325 294 4.3402777777777779e-05
326 294 4.3402777777777779e-05
1586 294 1.0850694444444445e-05
1587 294 1.0850694444444445e-05
1588 294 6.5104166666666666e-05
1590 294 6.5104166666666666e-05
1591 294 1.0850694444444445e-05
1681 294 6.5104166666666666e-05
1683 294 1.0850694444444445e-05
1684 294 6.5104166666666666e-05
1685 294 6.5104166666666666e-05
1686 294 6.5104166666666666e-05
1688 294 1.0850694444444445e-05
1779 294 1.0850694444444445e-05
295 295 0.00078124999999999993
296 295 4.3402777777777779e-05
326 295 4.3402777777777779e-05
327 295 4.3402777777777779e-05
1589 295 1.0850694444444445e-05
1590 295 1.0850694444444445e-05
1591 295 6.5104166666666666e-05
1593 295 6.5104166666666666e-05
1594 295 1.0850694444444445e-05
1684 295 6.5104166666666666e-05
1686 295 1.0850694444444445e-05
1687 295 6.5104166666666666e-05
1688 295 6.5104166666666666e-05
1689 295 6.5104166666666666e-05
1691 295 1.0850694444444445e-05
1782 295 1.0850694444444445e-05
296 296 0.00078124999999999993
297 296 4.3402777777777779e-05
327 296 4.3402777777777779e-05
328 296 4.3402777777777779e-05
1592 296 1.0850694444444445e-05
1593 296 1.0850694444444445e-05
1594 296 6.5104166666666666e-05
1596 296 6.5104166666666666e-05
1597 296 1.0850694444444445e-05
1687 296 6.5104166666666666e-05
1689 296 1.0850694444444445e-05
1690 296 6.5104166666666666e-05
1691 296 6.5104166666666666e-05
1692 296 6.5104166666666666e-05
1694 296 1.0850694444444445e-05
1785 296 1.0850694444444445e-05
297 297 0.00078124999999999993
298 297 4.3402777777777779e-05
328 297 4.3402777777777779e-05
329 297 4.3402777777777779e-05
1595 297 1.0850694444444445e-05
1596 297 1.0850694444444445e-05
1597 297 6.5104166666666666e-05
1599 297 6.5104166666666666e-05
1600 297 1.0850694444444445e-05
1690 297 6.5104166666666666e-05
1692 297 1.0850694444444445e-05
1693 297 6.5104166666666666e-05
1694 297 6.5104166666666666e-05
1695 297 6.5104166666666666e-05
1697 297 1.0850694444444445e-05
1788 297 1.0850694444444445e-05
298 298 0.00078124999999999993
299 298 4.3402777777777779e-05
329 298 4.3402777777777779e-05
330 298 4.3402777777777779e-05
1598 298 1.0850694444444445e-05
1599 298 1.0850694444444445e-05
1600 298 6.5104166666666666e-05
1602 298 6.5104166666666666e-05
1603 298 1.0850694444444445e-05
1693 298 6.5104166666666666e-05
1695 298 1.0850694444444445e-05
1696 298 6.5104166666666666e-05
1697 298 6.5104166666666666e-05
1698 298 6.5104166666666666e-05
1700 298 1.0850694444444445e-05
1791 298 1.0850694444444445e-05
299 299 0.00078124999999999993
300 299 4.3402777777777779e-05
330 299 4.3402777777777779e-05
331 299 4.3402777777777779e-05
1601 299 1.0850694444444445e-05
1602 299 1.0850694444444445e-05
1603 299 6.5104166666666666e-05
1605 299 6.5104166666666666e-05
1606 299 1.0850694444444445e-05
1696 299 6.5104166666666666e-05
1698 299 1.0850694444444445e-05
1699 299 6.5104166666666666e-05
1700 299 6.5104166666666666e-05
1701 299 6.5104166666666666e-05
1703 299 1.0850694444444445e-05
1794 299 1.0850694444444445e-05
300 300 0.00078124999999999993
301 300 4.3402777777777779e-05
331 300 4.3402777777777779e-05
332 300 4.3402777777777779e-05
1604 300 1.0850694444444445e-05
1605 300 1.0850694444444445e-05
1606 300 6.5104166666666666e-05
1608 300 6.5104166666666666e-05
1609 300 1.0850694444444445e-05
1699 300 6.5104166666666666e-05
1701 300 1.0850694444444445e-05
1702 300 6.5104166666666666e-05
1703 300 6.5104166666666666e-05
1704 300 6.5104166666666666e-05
1706 300 1.0850694444444445e-05
1797 300 1.0850694444444445e-05
301 301 0.00078124999999999993
302 301 4.3402777777777779e-05
332 301 4.3402777777777779e-05
333 301 4.3402777777777779e-05
1607 301 1.0850694444444445e-05
1608 301 1.0850694444444445e-05
1609 301 6.5104166666666666e-05
1611 301 6.5104166666666666e-05
1612 301 1.0850694444444445e-05
1702 301 6.5104166666666666e-05
1704 301 1.0850694444444445e-05
1705 301 6.5104166666666666e-05
1706 301 6.5104166666666666e-05
1707 301 6.5104166666666666e-05
1709 301 1.0850694444444445e-05
1800 301 1.0850694444444445e-05
302 302 0.00078124999999999993
333 302 4.3402777777777779e-05
1610 302 1.0850694444444445e-05
1611 302 1.0850694444444445e-05
1612 302 6.5104166666666666e-05
1614 302 6.5104166666666666e-05
1615 302 1.0850694444444445e-05
1705 302 6.5104166666666666e-05
1707 302 1.0850694444444445e-05
1708 302 6.5104166666666666e-05
1709 302 6.5104166666666666e-05
1710 302 6.5104166666666666e-05
1803 302 1.0850694444444445e-05
303 303 0.00078124999999999993
304 303 4.3402777777777779e-05
334 303 4.3402777777777779e-05
335 303 4.3402777777777779e-05
1616 303 1.0850694444444445e-05
1617 303 6.5104166666666666e-05
1619 303 6.5104166666666666e-05
1620 303 1.0850694444444445e-05
1711 303 6.5104166666666666e-05
1712 303 1.0850694444444445e-05
1713 303 6.5104166666666666e-05
1714 303 6.5104166666666666e-05
1715 303 6.5104166666666666e-05
1717 303 1.0850694444444445e-05
1808 303 1.0850694444444445e-05
304 304 0.00078124999999999993
305 304 4.3402777777777779e-05
335 304 4.3402777777777779e-05
336 304 4.3402777777777779e-05
1618 304 1.0850694444444445e-05
1619 304 1.0850694444444445e-05
1620 304 6.5104166666666666e-05
1622 304 6.5104166666666666e-05
1623 304 1.0850694444444445e-05
1713 304 6.5104166666666666e-05
1715 304 1.0850694444444445e-05
1716 304 6.5104166666666666e-05
1717 304 6.5104166666666666e-05
1718 304 6.5104166666666666e-05
1720 304 1.0850694444444445e-05
1811 304 1.0850694444444445e-05
305 305 0.00078124999999999993
306 305 4.3402777777777779e-05
336 305 4.3402777777777779e-05
337 305 4.3402777777777779e-05
1621 305 1.0850694444444445e-05
1622 305 1.0850694444444445e-05
1623 305 6.5104166666666666e-05
1625 305 6.5104166666666666e-05
1626 305 1.0850694444444445e-05
1716 305 6.5104166666666666e-05
1718 305 1.0850694444444445e-05
1719 305 6.5104166666666666e-05
1720 305 6.5104166666666666e-05
1721 305 6.5104166666666666e-05
1723 305 1.0850694444444445e-05
1814 305 1.0850694444444445e-05
306 306 0.00078124999999999993
307 306 4.3402777777777779e-05
337 306 4.3402777777777779e-05
338 306 4.3402777777777779e-05
1624 306 1.0850694444444445e-05
1625 306 1.0850694444444445e-05
1626 306 6.5104166666666666e-05
1628 306 6.5104166666666666e-05
1629 306 1.0850694444444445e-05
1719 306 6.5104166666666666e-05
1721 306 1.0850694444444445e-05
1722 306 6.5104166666666666e-05
1723 306 6.5104166666666666e-05
1724 306 6.5104166666666666e-05
1726 306 1.0850694444444445e-05
1817 306 1.0850694444444445e-05
307 307 0.00078124999999999993
308 307 4.3402777777777779e-05
338 307 4.3402777777777779e-05
339 307 4.3402777777777779e-05
1627 307 1.0850694444444445e-05
1628 307 1.0850694444444445e-05
1629 307 6.5104166666666666e-05
1631 307 6.5104166666666666e-05
1632 307 1.0850694444444445e-05
1722 307 6.5104166666666666e-05
1724 307 1.0850694444444445e-05
1725 307 6.5104166666666666e-05
1726 307 6.5104166666666666e-05
1727 307 6.5104166666666666e-05
1729 307 1.0850694444444445e-05
1820 307 1.0850694444444445e-05
308 308 0.00078124999999999993
309 308 4.3402777777777779e-05
339 308 4.3402777777777779e-05
340 308 4.3402777777777779e-05
1630 308 1.0850694444444445e-05
1631 308 1.0850694444444445e-05
1632 308 6.5104166666666666e-05
1634 308 6.5104166666666666e-05
1635 308 1.0850694444444445e-05
1725 308 6.5104166666666666e-05
1727 308 1.0850694444444445e-05
1728 308 6.5104166666666666e-05
1729 308 6.5104166666666666e-05
1730 308 6.5104166666666666e-05
1732 308 1.0850694444444445e-05
1823 308 1.0850694444444445e-05
309 309 0.00078124999999999993
310 309 4.3402777777777779e-05
340 309 4.3402777777777779e-05
341 309 4.3402777777777779e-05
1633 309 1.0850694444444445e-05
1634 309 1.0850694444444445e-05
1635 309 6.5104166666666666e-05
1637 309 6.5104166666666666e-05
1638 309 1.0850694444444445e-05
1728 309 6.5104166666666666e-05
1730 309 1.0850694444444445e-05
1731 309 6.5104166666666666e-05
1732 309 6.5104166666666666e-05
1733 309 6.5104166666666666e-05
1735 309 1.0850694444444445e-05
1826 309 1.0850694444444445e-05
310 310 0.00078124999999999993
311 310 4.3402777777777779e-05
341 310 4.3402777777777779e-05
342 310 4.3402777777777779e-05
1636 310 1.0850694444444445e-05
1637 310 1.0850694444444445e-05
1638 310 6.5104166666666666e-05
1640 310 6.5104166666666666e-05
1641 310 1.0850694444444445e-05
1731 310 6.5104166666666666e-05
1733 310 1.0850694444444445e-05
1734 310 6.5104166666666666e-05
1735 310 6.5104166666666666e-05
1736 310 6.5104166666666666e-05
1738 310 1.0850694444444445e-05
1829 310 1.0850694444444445e-05
311 311 0.00078124999999999993
312 311 4.3402777777777779e-05
342 311 4.3402777777777779e-05
343 311 4.3402777777777779e-05
1639 311 1.0850694444444445e-05
1640 311 1.0850694444444445e-05
1641 311 6.5104166666666666e-05
1643 311 6.5104166666666666e-05
1644 311 1.0850694444444445e-05
1734 311 6.5104166666666666e-05
1736 311 1.0850694444444445e-05
1737 311 6.5104166666666666e-05
1738 311 6.5104166666666666e-05
1739 311 6.5104166666666666e-05
1741 311 1.0850694444444445e-05
1832 311 1.0850694444444445e-05
312 312 0.00078124999999999993
313 312 4.3402777777777779e-05
343 312 4.3402777777777779e-05
344 312 4.3402777777777779e-05
1642 312 1.0850694444444445e-05
1643 312 1.0850694444444445e-05
1644 312 6.5104166666666666e-05
1646 312 6.5104166666666666e-05
1647 312 1.0850694444444445e-05
1737 312 6.5104166666666666e-05
1739 312 1.0850694444444445e-05
1740 312 6.5104166666666666e-05
1741 312 6.5104166666666666e-05
1742 312 6.5104166666666666e-05
1744 312 1.0850694444444445e-05
1835 312 1.0850694444444445e-05
313 313 0.00078124999999999993
314 313 4.3402777777777779e-05
344 313 4.3402777777777779e-05
345 313 4.3402777777777779e-05
1645 313 1.0850694444444445e-05
1646 313 1.0850694444444445e-05
1647 313 6.5104166666666666e-05
1649 313 6.5104166666666666e-05
1650 313 1.0850694444444445e-05
1740 313 6.5104166666666666e-05
1742 313 1.0850694444444445e-05
1743 313 6.5104166666666666e-05
1744 313 6.5104166666666666e-05
1745 313 6.5104166666666666e-05
1747 313 1.0850694444444445e-05
1838 313 1.0850694444444445e-05
314 314 0.00078124999999999993
315 314 4.3402777777777779e-05
345 314 4.3402777777777779e-05
346 314 4.3402777777777779e-05
1648 314 1.0850694444444445e-05
1649 314 1.0850694444444445e-05
1650 314 6.5104166666666666e-05
1652 314 6.5104166666666666e-05
1653 314 1.0850694444444445e-05
1743 314 6.5104166666666666e-05
1745 314 1.0850694444444445e-05
1746 314 6.5104166666666666e-05
1747 314 6.5104166666666666e-05
1748 314 6.5104166666666666e-05
1750 314 1.0850694444444445e-05
1841 314 1.0850694444444445e-05
315 315 0.00078124999999999993
316 315 4.3402777777777779e-05
346 315 4.3402777777777779e-05
347 315 4.3402777777777779e-05
1651 315 1.0850694444444445e-05
1652 315 1.0850694444444445e-05
1653 315 6.5104166666666666e-05
1655 315 6.5104166666666666e-05
1656 315 1.0850694444444445e-05
1746 315 6.5104166666666666e-05
1748 315 1.0850694444444445e-05
1749 315 6.5104166666666666e-05
1750 315 6.5104166666666666e-05
1751 315 6.5104166666666666e-05
1753 315 1.0850694444444445e-05
1844 315 1.0850694444444445e-05
316 316 0.00078124999999999993
317 316 4.3402777777777779e-05
347 316 4.3402777777777779e-05
348 316 4.3402777777777779e-05
1654 316 1.0850694444444445e-05
1655 316 1.0850694444444445e-05
1656 316 6.5104166666666666e-05
1658 316 6.5104166666666666e-05
1659 316 1.0850694444444445e-05
1749 316 6.5104166666666666e-05
1751 316 1.0850694444444445e-05
1752 316 6.5104166666666666e-05
1753 316 6.5104166666666666e-05
1754 316 6.5104166666666666e-05
1756 316 1.0850694444444445e-05
1847 316 1.0850694444444445e-05
317 317 0.00078124999999999993
318 317 4.3402777777777779e-05
348 317 4.3402777777777779e-05
349 317 4.3402777777777779e-05
1657 317 1.0850694444444445e-05
1658 317 1.0850694444444445e-05
1659 317 6.5104166666666666e-05
1661 317 6.5104166666666666e-05
1662 317 1.0850694444444445e-05
1752 317 6.5104166666666666e-05
1754 317 1.0850694444444445e-05
1755 317 6.5104166666666666e-05
1756 317 6.5104166666666666e-05
1757 317 6.5104166666666666e-05
1759 317 1.0850694444444445e-05
1850 317 1.0850694444444445e-05
318 318 0.00078124999999999993
319 318 4.3402777777777779e-05
349 318 4.3402777777777779e-05
350 318 4.3402777777777779e-05
1660 318 1.0850694444444445e-05
1661 318 1.0850694444444445e-05
1662 318 6.5104166666666666e-05
1664 318 6.5104166666666666e-05
1665 318 1.0850694444444445e-05
1755 318 6.5104166666666666e-05
1757 318 1.0850694444444445e-05
1758 318 6.5104166666666666e-05
1759 318 6.5104166666666666e-05
1760 318 6.5104166666666666e-05
1762 318 1.0850694444444445e-05
1853 318 1.0850694444444445e-05
319 319 0.00078124999999999993
320 319 4.3402777777777779e-05
350 319 4.3402777777777779e-05
351 319 4.3402777777777779e-05
1663 319 1.0850694444444445e-05
1664 319 1.0850694444444445e-05
1665 319 6.5104166666666666e-05
1667 319 6.5104166666666666e-05
1668 319 1.0850694444444445e-05
1758 319 6.5104166666666666e-05
1760 319 1.0850694444444445e-05
1761 319 6.5104166666666666e-05
1762 319 6.5104166666666666e-05
1763 319 6.5104166666666666e-05
1765 319 1.0850694444444445e-05
1856 319 1.0850694444444445e-05
320 320 0.00078124999999999993
321 320 4.3402777777777779e-05
351 320 4.3402777777777779e-05
352 320 4.3402777777777779e-05
1666 320 1.0850694444444445e-05
1667 320 1.0850694444444445e-05
1668 320 6.5104166666666666e-05
1670 320 6.5104166666666666e-05
1671 320 1.0850694444444445e-05
1761 320 6.5104166666666666e-05
1763 320 1.0850694444444445e-05
1764 320 6.5104166666666666e-05
1765 320 6.5104166666666666e-05
1766 320 6.5104166666666666e-05
1768 320 1.0850694444444445e-05
1859 320 1.0850694444444445e-05
321 321 0.00078124999999999993
322 321 4.3402777777777779e-05
352 321 4.3402777777777779e-05
353 321 4.3402777777777779e-05
1669 321 1.0850694444444445e-05
1670 321 1.0850694444444445e-05
1671 321 6.5104166666666666e-05
1673 321 6.5104166666666666e-05
1674 321 1.0850694444444445e-05
1764 321 6.5104166666666666e-05
1766 321 1.0850694444444445e-05
1767 321 6.5104166666666666e-05
1768 321 6.5104166666666666e-05
1769 321 6.5104166666666666e-05
1771 321 1.0850694444444445e-05
1862 321 1.0850694444444445e-05
322 322 0.00078124999999999993
323 322 4.3402777777777779e-05
353 322 4.3402777777777779e-05
354 322 4.3402777777777779e-05
1672 322 1.0850694444444445e-05
1673 322 1.0850694444444445e-05
1674 322 6.5104166666666666e-05
1676 322 6.5104166666666666e-05
1677 322 1.0850694444444445e-05
1767 322 6.5104166666666666e-05
1769 322 1.0850694444444445e-05
1770 322 6.5104166666666666e-05
1771 322 6.5104166666666666e-05
1772 322 6.5104166666666666e-05
1774 322 1.0850694444444445e-05
1865 322 1.0850694444444445e-05
323 323 0.00078124999999999993
324 323 4.3402777777777779e-05
354 323 4.3402777777777779e-05
355 323 4.3402777777777779e-05
1675 323 1.0850694444444445e-05
1676 323 1.0850694444444445e-05
1677 323 6.5104166666666666e-05
1679 323 6.5104166666666666e-05
1680 323 1.0850694444444445e-05
1770 323 6.5104166666666666e-05
1772 323 1.0850694444444445e-05
1773 323 6.5104166666666666e-05
1774 323 6.5104166666666666e-05
1775 323 6.5104166666666666e-05
1777 323 1.0850694444444445e-05
1868 323 1.0850694444444445e-05
324 324 0.00078124999999999993
325 324 4.3402777777777779e-05
355 324 4.3402777777777779e-05
356 324 4.3402777777777779e-05
1678 324 1.0850694444444445e-05
1679 324 1.0850694444444445e-05
1680 324 6.5104166666666666e-05
1682 324 6.5104166666666666e-05
1683 324 1.0850694444444445e-05
1773 324 6.5104166666666666e-05
1775 324 1.0850694444444445e-05
1776 324 6.5104166666666666e-05
1777 324 6.5104166666666666e-05
1778 324 6.5104166666666666e-05
1780 324 1.0850694444444445e-05
1871 324 1.0850694444444445e-05
325 325 0.00078124999999999993
326 325 4.3402777777777779e-05
356 325 4.3402777777777779e-05
357 325 4.3402777777777779e-05
1681 325 1.0850694444444445e-05
1682 325 1.0850694444444445e-05
1683 325 6.5104166666666666e-05
1685 325 6.5104166666666666e-05
1686 325 1.0850694444444445e-05
1776 325 6.5104166666666666e-05
1778 325 1.0850694444444445e-05
1779 325 6.5104166666666666e-05
1780 325 6.5104166666666666e-05
1781 325 6.5104166666666666e-05
1783 325 1.0850694444444445e-05
1874 325 1.0850694444444445e-05
326 326 0.00078124999999999993
327 326 4.3402777777777779e-05
357 326 4.3402777777777779e-05
358 326 4.3402777777777779e-05
1684 326 1.0850694444444445e-05
1685 326 1.0850694444444445e-05
1686 326 6.5104166666666666e-05
1688 326 6.5104166666666666e-05
1689 326 1.0850694444444445e-05
1779 326 6.5104166666666666e-05
1781 326 1.0850694444444445e-05
1782 326 6.5104166666666666e-05
1783 326 6.5104166666666666e-05
1784 326 6.5104166666666666e-05
1786 326 1.0850694444444445e-05
1877 326 1.0850694444444445e-05
327 327 0.00078124999999999993
328 327 4.3402777777777779e-05
358 327 4.3402777777777779e-05
359 327 4.3402777777777779e-05
1687 327 1.0850694444444445e-05
1688 327 1.0850694444444445e-05
1689 327 6.5104166666666666e-05
1691 327 6.5104166666666666e-05
1692 327 1.0850694444444445e-05
1782 327 6.5104166666666666e-05
1784 327 1.0850694444444445e-05
1785 327 6.5104166666666666e-05
1786 327 6.5104166666666666e-05
1787 327 6.5104166666666666e-05
1789 327 1.0850694444444445e-05
1880 327 1.0850694444444445e-05
328 328 0.00078124999999999993
329 328 4.3402777777777779e-05
359 328 4.3402777777777779e-05
360 328 4.3402777777777779e-05
1690 328 1.0850694444444445e-05
1691 328 1.0850694444444445e-05
1692 328 6.5104166666666666e-05
1694 328 6.5104166666666666e-05
1695 328 1.0850694444444445e-05
1785 328 6.5104166666666666e-05
1787 328 1.0850694444444445e-05
1788 328 6.5104166666666666e-05
1789 328 6.5104166666666666e-05
1790 328 6.5104166666666666e-05
1792 328 1.0850694444444445e-05
1883 328 1.0850694444444445e-05
329 329 0.00078124999999999993
330 329 4.3402777777777779e-05
360 329 4.3402777777777779e-05
361 329 4.3402777777777779e-05
1693 329 1.0850694444444445e-05
1694 329 1.0850694444444445e-05
1695 329 6.5104166666666666e-05
1697 329 6.5104166666666666e-05
1698 329 1.0850694444444445e-05
1788 329 6.5104166666666666e-05
1790 329 1.0850694444444445e-05
1791 329 6.5104166666666666e-05
1792 329 6.5104166666666666e-05
1793 329 6.5104166666666666e-05
1795 329 1.0850694444444445e-05
1886 329 1.0850694444444445e-05
330 330 0.00078124999999999993
331 330 4.3402777777777779e-05
361 330 4.3402777777777779e-05
362 330 4.3402777777777779e-05
1696 330 1.0850694444444445e-05
1697 330 1.0850694444444445e-05
1698 330 6.5104166666666666e-05
1700 330 6.5104166666666666e-05
1701 330 1.0850694444444445e-05
1791 330 6.5104166666666666e-05
1793 330 1.0850694444444445e-05
1794 330 6.5104166666666666e-05
1795 330 6.5104166666666666e-05
1796 330 6.5104166666666666e-05
1798 330 1.0850694444444445e-05
1889 330 1.0850694444444445e-05
331 331 0.00078124999999999993
332 331 4.3402777777777779e-05
362 331 4.3402777777777779e-05
363 331 4.3402777777777779e-05
1699 331 1.0850694444444445e-05
1700 331 1.0850694444444445e-05
1701 331 6.5104166666666666e-05
1703 331 6.5104166666666666e-05
1704 331 1.0850694444444445e-05
1794 331 6.5104166666666666e-05
1796 331 1.0850694444444445e-05
1797 331 6.5104166666666666e-05
1798 331 6.5104166666666666e-05
1799 331 6.5104166666666666e-05
1801 331 1.0850694444444445e-05
1892 331 1.0850694444444445e-05
332 332 0.00078124999999999993
333 332 4.3402777777777779e-05
363 332 4.3402777777777779e-05
364 332 4.3402777777777779e-05
1702 332 1.0850694444444445e-05
1703 332 1.0850694444444445e-05
1704 332 6.5104166666666666e-05
1706 332 6.5104166666666666e-05
1707 332 1.0850694444444445e-05
1797 332 6.5104166666666666e-05
1799 332 1.0850694444444445e-05
1800 332 6.5104166666666666e-05
1801 332 6.5104166666666666e-05
1802 332 6.5104166666666666e-05
1804 332 1.0850694444444445e-05
1895 332 1.0850694444444445e-05
333 333 0.00078124999999999993
364 333 4.3402777777777779e-05
1705 333 1.0850694444444445e-05
1706 333 1.0850694444444445e-05
1707 333 6.5104166666666666e-05
1709 333 6.5104166666666666e-05
1710 333 1.0850694444444445e-05
1800 333 6.5104166666666666e-05
1802 333 1.0850694444444445e-05
1803 333 6.5104166666666666e-05
1804 333 6.5104166666666666e-05
1805 333 6.5104166666666666e-05
1898 333 1.0850694444444445e-05
334 334 0.00078124999999999993
335 334 4.3402777777777779e-05
365 334 4.3402777777777779e-05
366 334 4.3402777777777779e-05
1711 334 1.0850694444444445e-05
1712 334 6.5104166666666666e-05
1714 334 6.5104166666666666e-05
1715 334 1.0850694444444445e-05
1806 334 6.5104166666666666e-05
1807 334 1.0850694444444445e-05
1808 334 6.5104166666666666e-05
1809 334 6.5104166666666666e-05
1810 334 6.5104166666666666e-05
1812 334 1.0850694444444445e-05
1903 334 1.0850694444444445e-05
335 335 0.00078124999999999993
336 335 4.3402777777777779e-05
366 335 4.3402777777777779e-05
367 335 4.3402777777777779e-05
1713 335 1.0850694444444445e-05
1714 335 1.0850694444444445e-05
1715 335 6.5104166666666666e-05
1717 335 6.5104166666666666e-05
1718 335 1.0850694444444445e-05
1808 335 6.5104166666666666e-05
1810 335 1.0850694444444445e-05
1811 335 6.5104166666666666e-05
1812 335 6.5104166666666666e-05
1813 335 6.5104166666666666e-05
1815 335 1.0850694444444445e-05
1906 335 1.0850694444444445e-05
336 336 0.00078124999999999993
337 336 4.3402777777777779e-05
367 336 4.3402777777777779e-05
368 336 4.3402777777777779e-05
1716 336 1.0850694444444445e-05
1717 336 1.0850694444444445e-05
1718 336 6.5104166666666666e-05
1720 336 6.5104166666666666e-05
1721 336 1.0850694444444445e-05
1811 336 6.5104166666666666e-05
1813 336 1.0850694444444445e-05
1814 336 6.5104166666666666e-05
1815 336 6.5104166666666666e-05
1816 336 6.5104166666666666e-05
1818 336 1.0850694444444445e-05
1909 336 1.0850694444444445e-05
337 337 0.00078124999999999993
338 337 4.3402777777777779e-05
368 337 4.3402777777777779e-05
369 337 4.3402777777777779e-05
1719 337 1.0850694444444445e-05
1720 337 1.0850694444444445e-05
1721 337 6.5104166666666666e-05
1723 337 6.5104166666666666e-05
1724 337 1.0850694444444445e-05
1814 337 6.5104166666666666e-05
1816 337 1.0850694444444445e-05
1817 337 6.5104166666666666e-05
1818 337 6.5104166666666666e-05
1819 337 6.5104166666666666e-05
1821 337 1.0850694444444445e-05
1912 337 1.0850694444444445e-05
338 338 0.00078124999999999993
339 338 4.3402777777777779e-05
369 338 4.3402777777777779e-05
370 338 4.3402777777777779e-05
1722 338 1.0850694444444445e-05
1723 338 1.0850694444444445e-05
1724 338 6.5104166666666666e-05
1726 338 6.5104166666666666e-05
1727 338 1.0850694444444445e-05
1817 338 6.5104166666666666e-05
1819 338 1.0850694444444445e-05
1820 338 6.5104166666666666e-05
1821 338 6.5104166666666666e-05
1822 338 6.5104166666666666e-05
1824 338 1.0850694444444445e-05
1915 338 1.0850694444444445e-05
339 339 0.00078124999999999993
340 339 4.3402777777777779e-05
370 339 4.3402777777777779e-05
371 339 4.3402777777777779e-05
1725 339 1.0850694444444445e-05
1726 339 1.0850694444444445e-05
1727 339 6.5104166666666666e-05
1729 339 6.5104166666666666e-05
1730 339 1.0850694444444445e-05
1820 339 6.5104166666666666e-05
1822 339 1.0850694444444445e-05
1823 339 6.5104166666666666e-05
1824 339 6.5104166666666666e-05
1825 339 6.5104166666666666e-05
1827 339 1.0850694444444445e-05
1918 339 1.0850694444444445e-05
340 340 0.00078124999999999993
341 340 4.3402777777777779e-05
371 340 4.3402777777777779e-05
372 340 4.3402777777777779e-05
1728 340 1.0850694444444445e-05
1729 340 1.0850694444444445e-05
1730 340 6.5104166666666666e-05
1732 340 6.5104166666666666e-05
1733 340 1.0850694444444445e-05
1823 340 6.5104166666666666e-05
1825 340 1.0850694444444445e-05
1826 340 6.5104166666666666e-05
1827 340 6.5104166666666666e-05
1828 340 6.5104166666666666e-05
1830 340 1.0850694444444445e-05
1921 340 1.0850694444444445e-05
341 341 0.00078124999999999993
342 341 4.3402777777777779e-05
372 341 4.3402777777777779e-05
373 341 4.3402777777777779e-05
1731 341 1.0850694444444445e-05
1732 341 1.0850694444444445e-05
1733 341 6.5104166666666666e-05
1735 341 6.5104166666666666e-05
1736 341 1.0850694444444445e-05
1826 341 6.5104166666666666e-05
1828 341 1.0850694444444445e-05
1829 341 6.5104166666666666e-05
1830 341 6.5104166666666666e-05
1831 341 6.5104166666666666e-05
1833 341 1.0850694444444445e-05
1924 341 1.0850694444444445e-05
342 342 0.00078124999999999993
343 342 4.3402777777777779e-05
373 342 4.3402777777777779e-05
374 342 4.3402777777777779e-05
1734 342 1.0850694444444445e-05
1735 342 1.0850694444444445e-05
1736 342 6.5104166666666666e-05
1738 342 6.5104166666666666e-05
1739 342 1.0850694444444445e-05
1829 342 6.5104166666666666e-05
1831 342 1.0850694444444445e-05
1832 342 6.5104166666666666e-05
1833 342 6.5104166666666666e-05
1834 342 6.5104166666666666e-05
1836 342 1.0850694444444445e-05
1927 342 1.0850694444444445e-05
343 343 0.00078124999999999993
344 343 4.3402777777777779e-05
374 343 4.3402777777777779e-05
375 343 4.3402777777777779e-05
1737 343 1.0850694444444445e-05
1738 343 1.0850694444444445e-05
1739 343 6.5104166666666666e-05
1741 343 6.5104166666666666e-05
1742 343 1.0850694444444445e-05
1832 343 6.5104166666666666e-05
1834 343 1.0850694444444445e-05
1835 343 6.5104166666666666e-05
1836 343 6.5104166666666666e-05
1837 343 6.5104166666666666e-05
1839 343 1.0850694444444445e-05
1930 343 1.0850694444444445e-05
344 344 0.00078124999999999993
345 344 4.3402777777777779e-05
375 344 4.3402777777777779e-05
376 344 4.3402777777777779e-05
1740 344 1.0850694444444445e-05
1741 344 1.0850694444444445e-05
1742 344 6.5104166666666666e-05
1744 344 6.5104166666666666e-05
1745 344 1.0850694444444445e-05
1835 344 6.5104166666666666e-05
1837 344 1.0850694444444445e-05
1838 344 6.5104166666666666e-05
1839 344 6.5104166666666666e-05
1840 344 6.5104166666666666e-05
1842 344 1.0850694444444445e-05
1933 344 1.0850694444444445e-05
345 345 0.00078124999999999993
346 345 4.3402777777777779e-05
376 345 4.3402777777777779e-05
377 345 4.3402777777777779e-05
1743 345 1.0850694444444445e-05
1744 345 1.0850694444444445e-05
1745 345 6.5104166666666666e-05
1747 345 6.5104166666666666e-05
1748 345 1.0850694444444445e-05
1838 345 6.5104166666666666e-05
1840 345 1.0850694444444445e-05
1841 345 6.5104166666666666e-05
1842 345 6.5104166666666666e-05
1843 345 6.5104166666666666e-05
1845 345 1.0850694444444445e-05
1936 345 1.0850694444444445e-05
346 346 0.00078124999999999993
347 346 4.3402777777777779e-05
377 346 4.3402777777777779e-05
378 346 4.3402777777777779e-05
1746 346 1.0850694444444445e-05
1747 346 1.0850694444444445e-05
1748 346 6.5104166666666666e-05
1750 346 6.5104166666666666e-05
1751 346 1.0850694444444445e-05
1841 346 6.5104166666666666e-05
1843 346 1.0850694444444445e-05
1844 346 6.5104166666666666e-05
1845 346 6.5104166666666666e-05
1846 346 6.5104166666666666e-05
1848 346 1.0850694444444445e-05
1939 346 1.0850694444444445e-05
347 347 0.00078124999999999993
348 347 4.3402777777777779e-05
378 347 4.3402777777777779e-05
379 347 4.3402777777777779e-05
1749 347 1.0850694444444445e-05
1750 347 1.0850694444444445e-05
1751 347 6.5104166666666666e-05
1753 347 6.5104166666666666e-05
1754 347 1.0850694444444445e-05
1844 347 6.5104166666666666e-05
1846 347 1.0850694444444445e-05
1847 347 6.5104166666666666e-05
1848 347 6.5104166666666666e-05
1849 347 6.5104166666666666e-05
1851 347 1.0850694444444445e-05
1942 347 1.0850694444444445e-05
348 348 0.00078124999999999993
349 348 4.3402777777777779e-05
379 348 4.3402777777777779e-05
380 348 4.3402777777777779e-05
1752 348 1.0850694444444445e-05
1753 348 1.0850694444444445e-05
1754 348 6.5104166666666666e-05
1756 348 6.5104166666666666e-05
1757 348 1.0850694444444445e-05
1847 348 6.5104166666666666e-05
1849 348 1.0850694444444445e-05
1850 348 6.5104166666666666e-05
1851 348 6.5104166666666666e-05
1852 348 6.5104166666666666e-05
1854 348 1.0850694444444445e-05
1945 348 1.0850694444444445e-05
349 349 0.00078124999999999993
350 349 4.3402777777777779e-05
380 349 4.3402777777777779e-05
381 349 4.3402777777777779e-05
1755 349 1.0850694444444445e-05
1756 349 1.0850694444444445e-05
1757 349 6.5104166666666666e-05
1759 349 6.5104166666666666e-05
1760 349 1.0850694444444445e-05
1850 349 6.5104166666666666e-05
1852 349 1.0850694444444445e-05
1853 349 6.5104166666666666e-05
1854 349 6.5104166666666666e-05
1855 349 6.5104166666666666e-05
1857 349 1.0850694444444445e-05
1948 349 1.0850694444444445e-05
350 350 0.00078124999999999993
351 350 4.3402777777777779e-05
381 350 4.3402777777777779e-05
382 350 4.3402777777777779e-05
1758 350 1.0850694444444445e-05
1759 350 1.0850694444444445e-05
1760 350 6.5104166666666666e-05
1762 350 6.5104166666666666e-05
1763 350 1.0850694444444445e-05
1853 350 6.5104166666666666e-05
1855 350 1.0850694444444445e-05
1856 350 6.5104166666666666e-05
1857 350 6.5104166666666666e-05
1858 350 6.5104166666666666e-05
1860 350 1.0850694444444445e-05
1951 350 1.0850694444444445e-05
351 351 0.00078124999999999993
352 351 4.3402777777777779e-05
382 351 4.3402777777777779e-05
383 351 4.3402777777777779e-05
1761 351 1.0850694444444445e-05
1762 351 1.0850694444444445e-05
1763 351 6.5104166666666666e-05
1765 351 6.5104166666666666e-05
1766 351 1.0850694444444445e-05
1856 351 6.5104166666666666e-05
1858 351 1.0850694444444445e-05
1859 351 6.5104166666666666e-05
1860 351 6.5104166666666666e-05
1861 351 6.5104166666666666e-05
1863 351 1.0850694444444445e-05
1954 351 1.0850694444444445e-05
352 352 0.00078124999999999993
353 352 4.3402777777777779e-05
383 352 4.3402777777777779e-05
384 352 4.3402777777777779e-05
1764 352 1.0850694444444445e-05
1765 352 1.0850694444444445e-05
1766 352 6.5104166666666666e-05
1768 352 6.5104166666666666e-05
1769 352 1.0850694444444445e-05
1859 352 6.5104166666666666e-05
1861 352 1.0850694444444445e-05
1862 352 6.5104166666666666e-05
1863 352 6.5104166666666666e-05
1864 352 6.5104166666666666e-05
1866 352 1.0850694444444445e-05
1957 352 1.0850694444444445e-05
353 353 0.00078124999999999993
354 353 4.3402777777777779e-05
384 353 4.3402777777777779e-05
385 353 4.3402777777777779e-05
1767 353 1.0850694444444445e-05
1768 353 1.0850694444444445e-05
1769 353 6.5104166666666666e-05
1771 353 6.5104166666666666e-05
1772 353 1.0850694444444445e-05
1862 353 6.5104166666666666e-05
1864 353 1.0850694444444445e-05
1865 353 6.5104166666666666e-05
1866 353 6.5104166666666666e-05
1867 353 6.5104166666666666e-05
1869 353 1.0850694444444445e-05
1960 353 1.0850694444444445e-05
354 354 0.00078124999999999993
355 354 4.3402777777777779e-05
385 354 4.3402777777777779e-05
386 354 4.3402777777777779e-05
1770 354 1.0850694444444445e-05
1771 354 1.0850694444444445e-05
1772 354 6.5104166666666666e-05
1774 354 6.5104166666666666e-05
1775 354 1.0850694444444445e-05
1865 354 6.5104166666666666e-05
1867 354 1.0850694444444445e-05
1868 354 6.5104166666666666e-05
1869 354 6.5104166666666666e-05
1870 354 6.5104166666666666e-05
1872 354 1.0850694444444445e-05
1963 354 1.0850694444444445e-05
355 355 0.00078124999999999993
356 355 4.3402777777777779e-05
386 355 4.3402777777777779e-05
387 355 4.3402777777777779e-05
1773 355 1.0850694444444445e-05
1774 355 1.0850694444444445e-05
1775 355 6.5104166666666666e-05
1777 355 6.5104166666666666e-05
1778 355 1.0850694444444445e-05
1868 355 6.5104166666666666e-05
1870 355 1.0850694444444445e-05
1871 355 6.5104166666666666e-05
1872 355 6.5104166666666666e-05
1873 355 6.5104166666666666e-05
1875 355 1.0850694444444445e-05
1966 355 1.0850694444444445e-05
356 356 0.00078124999999999993
357 356 4.3402777777777779e-05
387 356 4.3402777777777779e-05
388 356 4.3402777777777779e-05
1776 356 1.0850694444444445e-05
1777 356 1.0850694444444445e-05
1778 356 6.5104166666666666e-05
1780 356 6.5104166666666666e-05
1781 356 1.0850694444444445e-05
1871 356 6.5104166666666666e-05
1873 356 1.0850694444444445e-05
1874 356 6.5104166666666666e-05
1875 356 6.5104166666666666e-05
1876 356 6.5104166666666666e-05
1878 356 1.0850694444444445e-05
1969 356 1.0850694444444445e-05
357 357 0.00078124999999999993
358 357 4.3402777777777779e-05
388 357 4.3402777777777779e-05
389 357 4.3402777777777779e-05
1779 357 1.0850694444444445e-05
1780 357 1.0850694444444445e-05
1781 357 6.5104166666666666e-05
1783 357 6.5104166666666666e-05
1784 357 1.0850694444444445e-05
1874 357 6.5104166666666666e-05
1876 357 1.0850694444444445e-05
1877 357 6.5104166666666666e-05
1878 357 6.5104166666666666e-05
1879 357 6.5104166666666666e-05
1881 357 1.0850694444444445e-05
1972 357 1.0850694444444445e-05
358 358 0.00078124999999999993
359 358 4.3402777777777779e-05
389 358 4.3402777777777779e-05
390 358 4.3402777777777779e-05
1782 358 1.0850694444444445e-05
1783 358 1.0850694444444445e-05
1784 358 6.5104166666666666e-05
1786 358 6.5104166666666666e-05
1787 358 1.0850694444444445e-05
1877 358 6.5104166666666666e-05
1879 358 1.0850694444444445e-05
1880 358 6.5104166666666666e-05
1881 358 6.5104166666666666e-05
1882 358 6.5104166666666666e-05
1884 358 1.0850694444444445e-05
1975 358 1.0850694444444445e-05
359 359 0.00078124999999999993
360 359 4.3402777777777779e-05
390 359 4.3402777777777779e-05
391 359 4.3402777777777779e-05
1785 359 1.0850694444444445e-05
1786 359 1.0850694444444445e-05
1787 359 6.5104166666666666e-05
1789 359 6.5104166666666666e-05
1790 359 1.0850694444444445e-05
1880 359 6.5104166666666666e-05
1882 359 1.0850694444444445e-05
1883 359 6.5104166666666666e-05
1884 359 6.5104166666666666e-05
1885 359 6.5104166666666666e-05
1887 359 1.0850694444444445e-05
1978 359 1.0850694444444445e-05
360 360 0.00078124999999999993
361 360 4.3402777777777779e-05
391 360 4.3402777777777779e-05
392 360 4.3402777777777779e-05
1788 360 1.0850694444444445e-05
1789 360 1.0850694444444445e-05
1790 360 6.5104166666666666e-05
1792 360 6.5104166666666666e-05
1793 360 1.0850694444444445e-05
1883 360 6.5104166666666666e-05
1885 360 1.0850694444444445e-05
1886 360 6.5104166666666666e-05
1887 360 6.5104166666666666e-05
1888 360 6.5104166666666666e-05
1890 360 1.0850694444444445e-05
1981 360 1.0850694444444445e-05
361 361 0.00078124999999999993
362 361 4.3402777777777779e-05
392 361 4.3402777777777779e-05
393 361 4.3402777777777779e-05
1791 361 1.0850694444444445e-05
1792 361 1.0850694444444445e-05
1793 361 6.5104166666666666e-05
1795 361 6.5104166666666666e-05
1796 361 1.0850694444444445e-05
1886 361 6.5104166666666666e-05
1888 361 1.0850694444444445e-05
1889 361 6.5104166666666666e-05
1890 361 6.5104166666666666e-05
1891 361 6.5104166666666666e-05
1893 361 1.0850694444444445e-05
1984 361 1.0850694444444445e-05
362 362 0.00078124999999999993
363 362 4.3402777777777779e-05
393 362 4.3402777777777779e-05
394 362 4.3402777777777779e-05
1794 362 1.0850694444444445e-05
1795 362 1.0850694444444445e-05
1796 362 6.5104166666666666e-05
1798 362 6.5104166666666666e-05
1799 362 1.0850694444444445e-05
1889 362 6.5104166666666666e-05
1891 362 1.0850694444444445e-05
1892 362 6.5104166666666666e-05
1893 362 6.5104166666666666e-05
1894 362 6.5104166666666666e-05
1896 362 1.0850694444444445e-05
1987 362 1.0850694444444445e-05
363 363 0.00078124999999999993
364 363 4.3402777777777779e-05
394 363 4.3402777777777779e-05
395 363 4.3402777777777779e-05
1797 363 1.0850694444444445e-05
1798 363 1.0850694444444445e-05
1799 363 6.5104166666666666e-05
1801 363 6.5104166666666666e-05
1802 363 1.0850694444444445e-05
1892 363 6.5104166666666666e-05
1894 363 1.0850694444444445e-05
1895 363 6.5104166666666666e-05
1896 363 6.5104166666666666e-05
1897 363 6.5104166666666666e-05
1899 363 1.0850694444444445e-05
1990 363 1.0850694444444445e-05
364 364 0.00078124999999999993
395 364 4.3402777777777779e-05
1800 364 1.0850694444444445e-05
1801 364 1.0850694444444445e-05
1802 364 6.5104166666666666e-05
1804 364 6.5104166666666666e-05
1805 364 1.0850694444444445e-05
1895 364 6.5104166666666666e-05
1897 364 1.0850694444444445e-05
1898 364 6.5104166666666666e-05
1899 364 6.5104166666666666e-05
1900 364 6.5104166666666666e-05
1993 364 1.0850694444444445e-05
365 365 0.00078124999999999993
366 365 4.3402777777777779e-05
396 365 4.3402777777777779e-05
397 365 4.3402777777777779e-05
1806 365 1.0850694444444445e-05
1807 365 6.5104166666666666e-05
1809 365 6.5104166666666666e-05
1810 365 1.0850694444444445e-05
1901 365 6.5104166666666666e-05
1902 365 1.0850694444444445e-05
1903 365 6.5104166666666666e-05
1904 365 6.5104166666666666e-05
1905 365 6.5104166666666666e-05
1907 365 1.0850694444444445e-05
1998 365 1.0850694444444445e-05
366 366 0.00078124999999999993
367 366 4.3402777777777779e-05
397 366 4.3402777777777779e-05
398 366 4.3402777777777779e-05
1808 366 1.0850694444444445e-05
1809 366 1.0850694444444445e-05
1810 366 6.5104166666666666e-05
1812 366 6.5104166666666666e-05
1813 366 1.0850694444444445e-05
1903 366 6.5104166666666666e-05
1905 366 1.0850694444444445e-05
1906 366 6.5104166666666666e-05
1907 366 6.5104166666666666e-05
1908 366 6.5104166666666666e-05
1910 366 1.0850694444444445e-05
2001 366 1.0850694444444445e-05
367 367 0.00078124999999999993
368 367 4.3402777777777779e-05
398 367 4.3402777777777779e-05
399 367 4.3402777777777779e-05
1811 367 1.0850694444444445e-05
1812 367 1.0850694444444445e-05
1813 367 6.5104166666666666e-05
1815 367 6.5104166666666666e-05
1816 367 1.0850694444444445e-05
1906 367 6.5104166666666666e-05
1908 367 1.0850694444444445e-05
1909 367 6.5104166666666666e-05
1910 367 6.5104166666666666e-05
1911 367 6.5104166666666666e-05
1913 367 1.0850694444444445e-05
2004 367 1.0850694444444445e-05
368 368 0.00078124999999999993
369 368 4.3402777777777779e-05
399 368 4.3402777777777779e-05
400 368 4.3402777777777779e-05
1814 368 1.0850694444444445e-05
1815 368 1.0850694444444445e-05
1816 368 6.5104166666666666e-05
1818 368 6.5104166666666666e-05
1819 368 1.0850694444444445e-05
1909 368 6.5104166666666666e-05
1911 368 1.0850694444444445e-05
1912 368 6.5104166666666666e-05
1913 368 6.5104166666666666e-05
1914 368 6.5104166666666666e-05
1916 368 1.0850694444444445e-05
2007 368 1.0850694444444445e-05
369 369 0.00078124999999999993
370 369 4.3402777777777779e-05
400 369 4.3402777777777779e-05
401 369 4.3402777777777779e-05
1817 369 1.0850694444444445e-05
1818 369 1.0850694444444445e-05
1819 369 6.5104166666666666e-05
1821 369 6.5104166666666666e-05
1822 369 1.0850694444444445e-05
1912 369 6.5104166666666666e-05
1914 369 1.0850694444444445e-05
1915 369 6.5104166666666666e-05
1916 369 6.5104166666666666e-05
1917 369 6.5104166666666666e-05
1919 369 1.0850694444444445e-05
2010 369 1.0850694444444445e-05
370 370 0.00078124999999999993
371 370 4.3402777777777779e-05
401 370 4.3402777777777779e-05
402 370 4.3402777777777779e-05
1820 370 1.0850694444444445e-05
1821 370 1.0850694444444445e-05
1822 370 6.5104166666666666e-05
1824 370 6.5104166666666666e-05
1825 370 1.0850694444444445e-05
1915 370 6.5104166666666666e-05
1917 370 1.0850694444444445e-05
1918 370 6.5104166666666666e-05
1919 370 6.5104166666666666e-05
1920 370 6.5104166666666666e-05
1922 370 1.0850694444444445e-05
2013 370 1.0850694444444445e-05
371 371 0.00078124999999999993
372 371 4.3402777777777779e-05
402 371 4.3402777777777779e-05
403 371 4.3402777777777779e-05
1823 371 1.0850694444444445e-05
1824 371 1.0850694444444445e-05
1825 371 6.5104166666666666e-05
1827 371 6.5104166666666666e-05
1828 371 1.0850694444444445e-05
1918 371 6.5104166666666666e-05
1920 371 1.0850694444444445e-05
1921 371 6.5104166666666666e-05
1922 371 6.5104166666666666e-05
1923 371 6.5104166666666666e-05
1925 371 1.0850694444444445e-05
2016 371 1.0850694444444445e-05
372 372 0.00078124999999999993
373 372 4.3402777777777779e-05
403 372 4.3402777777777779e-05
404 372 4.3402777777777779e-05
1826 372 1.0850694444444445e-05
1827 372 1.0850694444444445e-05
1828 372 6.5104166666666666e-05
1830 372 6.5104166666666666e-05
1831 372 1.0850694444444445e-05
1921 372 6.5104166666666666e-05
1923 372 1.0850694444444445e-05
1924 372 6.5104166666666666e-05
1925 372 6.5104166666666666e-05
1926 372 6.5104166666666666e-05
1928 372 1.0850694444444445e-05
2019 372 1.0850694444444445e-05
373 373 0.00078124999999999993
374 373 4.3402777777777779e-05
404 373 4.3402777777777779e-05
405 373 4.3402777777777779e-05
1829 373 1.0850694444444445e-05
1830 373 1.0850694444444445e-05
1831 373 6.5104166666666666e-05
1833 373 6.5104166666666666e-05
1834 373 1.0850694444444445e-05
1924 373 6.5104166666666666e-05
1926 373 1.0850694444444445e-05
1927 373 6.5104166666666666e-05
1928 373 6.5104166666666666e-05
1929 373 6.5104166666666666e-05
1931 373 1.0850694444444445e-05
2022 373 1.0850694444444445e-05
374 374 0.00078124999999999993
375 374 4.3402777777777779e-05
405 374 4.3402777777777779e-05
406 374 4.3402777777777779e-05
1832 374 1.0850694444444445e-05
1833 374 1.0850694444444445e-05
1834 374 6.5104166666666666e-05
1836 374 6.5104166666666666e-05
1837 374 1.0850694444444445e-05
1927 374 6.5104166666666666e-05
1929 374 1.0850694444444445e-05
1930 374 6.5104166666666666e-05
1931 374 6.5104166666666666e-05
1932 374 6.5104166666666666e-05
1934 374 1.0850694444444445e-05
2025 374 1.0850694444444445e-05
375 375 0.00078124999999999993
376 375 4.3402777777777779e-05
406 375 4.3402777777777779e-05
407 375 4.3402777777777779e-05
1835 375 1.0850694444444445e-05
1836 375 1.0850694444444445e-05
1837 375 6.5104166666666666e-05
1839 375 6.5104166666666666e-05
1840 375 1.0850694444444445e-05
1930 375 6.5104166666666666e-05
1932 375 1.0850694444444445e-05
1933 375 6.5104166666666666e-05
1934 375 6.5104166666666666e-05
1935 375 6.5104166666666666e-05
1937 375 1.0850694444444445e-05
2028 375 1.0850694444444445e-05
376 376 0.00078124999999999993
377 376 4.3402777777777779e-05
407 376 4.3402777777777779e-05
408 376 4.3402777777777779e-05
1838 376 1.0850694444444445e-05
1839 376 1.0850694444444445e-05
1840 376 6.5104166666666666e-05
1842 376 6.5104166666666666e-05
1843 376 1.0850694444444445e-05
1933 376 6.5104166666666666e-05
1935 376 1.0850694444444445e-05
1936 376 6.5104166666666666e-05
1937 376 6.5104166666666666e-05
1938 376 6.5104166666666666e-05
1940 376 1.0850694444444445e-05
2031 376 1.0850694444444445e-05
377 377 0.00078124999999999993
378 377 4.3402777777777779e-05
408 377 4.3402777777777779e-05
409 377 4.3402777777777779e-05
1841 377 1.0850694444444445e-05
1842 377 1.0850694444444445e-05
1843 377 6.5104166666666666e-05
1845 377 6.5104166666666666e-05
1846 377 1.0850694444444445e-05
1936 377 6.5104166666666666e-05
1938 377 1.0850694444444445e-05
1939 377 6.5104166666666666e-05
1940 377 6.5104166666666666e-05
1941 377 6.5104166666666666e-05
1943 377 1.0850694444444445e-05
2034 377 1.0850694444444445e-05
378 378 0.00078124999999999993
379 378 4.3402777777777779e-05
409 378 4.3402777777777779e-05
410 378 4.3402777777777779e-05
1844 378 1.0850694444444445e-05
1845 378 1.0850694444444445e-05
1846 378 6.5104166666666666e-05
1848 378 6.5104166666666666e-05
1849 378 1.0850694444444445e-05
1939 378 6.5104166666666666e-05
1941 378 1.0850694444444445e-05
1942 378 6.5104166666666666e-05
1943 378 6.5104166666666666e-05
1944 378 6.5104166666666666e-05
1946 378 1.0850694444444445e-05
2037 378 1.0850694444444445e-05
379 379 0.00078124999999999993
380 379 4.3402777777777779e-05
410 379 4.3402777777777779e-05
411 379 4.3402777777777779e-05
1847 379 1.0850694444444445e-05
1848 379 1.0850694444444445e-05
1849 379 6.5104166666666666e-05
1851 379 6.5104166666666666e-05
1852 379 1.0850694444444445e-05
1942 379 6.5104166666666666e-05
1944 379 1.0850694444444445e-05
1945 379 6.5104166666666666e-05
1946 379 6.5104166666666666e-05
1947 379 6.5104166666666666e-05
1949 379 1.0850694444444445e-05
2040 379 1.0850694444444445e-05
380 380 0.00078124999999999993
381 380 4.3402777777777779e-05
411 380 4.3402777777777779e-05
412 380 4.3402777777777779e-05
1850 380 1.0850694444444445e-05
1851 380 1.0850694444444445e-05
1852 380 6.5104166666666666e-05
1854 380 6.5104166666666666e-05
1855 380 1.0850694444444445e-05
1945 380 6.5104166666666666e-05
1947 380 1.0850694444444445e-05
1948 380 6.5104166666666666e-05
1949 380 6.5104166666666666e-05
1950 380 6.5104166666666666e-05
1952 380 1.0850694444444445e-05
2043 380 1.0850694444444445e-05
381 381 0.00078124999999999993
382 381 4.3402777777777779e-05
412 381 4.3402777777777779e-05
413 381 4.3402777777777779e-05
1853 381 1.0850694444444445e-05
1854 381 1.0850694444444445e-05
1855 381 6.5104166666666666e-05
1857 381 6.5104166666666666e-05
1858 381 1.0850694444444445e-05
1948 381 6.5104166666666666e-05
1950 381 1.0850694444444445e-05
1951 381 6.5104166666666666e-05
1952 381 6.5104166666666666e-05
1953 381 6.5104166666666666e-05
1955 381 1.0850694444444445e-05
2046 381 1.0850694444444445e-05
382 382 0.00078124999999999993
383 382 4.3402777777777779e-05
413 382 4.3402777777777779e-05
414 382 4.3402777777777779e-05
1856 382 1.0850694444444445e-05
1857 382 1.0850694444444445e-05
1858 382 6.5104166666666666e-05
1860 382 6.5104166666666666e-05
1861 382 1.0850694444444445e-05
1951 382 6.5104166666666666e-05
1953 382 1.0850694444444445e-05
1954 382 6.5104166666666666e-05
1955 382 6.5104166666666666e-05
1956 382 6.5104166666666666e-05
1958 382 1.0850694444444445e-05
2049 382 1.0850694444444445e-05
383 383 0.00078124999999999993
384 383 4.3402777777777779e-05
414 383 4.3402777777777779e-05
415 383 4.3402777777777779e-05
1859 383 1.0850694444444445e-05
1860 383 1.0850694444444445e-05
1861 383 6.5104166666666666e-05
1863 383 6.5104166666666666e-05
1864 383 1.0850694444444445e-05
1954 383 6.5104166666666666e-05
1956 383 1.0850694444444445e-05
1957 383 6.5104166666666666e-05
1958 383 6.5104166666666666e-05
1959 383 6.5104166666666666e-05
1961 383 1.0850694444444445e-05
2052 383 1.0850694444444445e-05
384 384 0.00078124999999999993
385 384 4.3402777777777779e-05
415 384 4.3402777777777779e-05
416 384 4.3402777777777779e-05
1862 384 1.0850694444444445e-05
1863 384 1.0850694444444445e-05
1864 384 6.5104166666666666e-05
1866 384 6.5104166666666666e-05
1867 384 1.0850694444444445e-05
1957 384 6.5104166666666666e-05
1959 384 1.0850694444444445e-05
1960 384 6.5104166666666666e-05
1961 384 6.5104166666666666e-05
1962 384 6.5104166666666666e-05
1964 384 1.0850694444444445e-05
2055 384 1.0850694444444445e-05
385 385 0.00078124999999999993
386 385 4.3402777777777779e-05
416 385 4.3402777777777779e-05
417 385 4.3402777777777779e-05
1865 385 1.0850694444444445e-05
1866 385 1.0850694444444445e-05
1867 385 6.5104166666666666e-05
1869 385 6.5104166666666666e-05
1870 385 1.0850694444444445e-05
1960 385 6.5104166666666666e-05
1962 385 1.0850694444444445e-05
1963 385 6.5104166666666666e-05
1964 385 6.5104166666666666e-05
1965 385 6.5104166666666666e-05
1967 385 1.0850694444444445e-05
2058 385 1.0850694444444445e-05
386 386 0.00078124999999999993
387 386 4.3402777777777779e-05
417 386 4.3402777777777779e-05
418 386 4.3402777777777779e-05
1868 386 1.0850694444444445e-05
1869 386 1.0850694444444445e-05
1870 386 6.5104166666666666e-05
1872 386 6.5104166666666666e-05
1873 386 1.0850694444444445e-05
1963 386 6.5104166666666666e-05
1965 386 1.0850694444444445e-05
1966 386 6.5104166666666666e-05
1967 386 6.5104166666666666e-05
1968 386 6.5104166666666666e-05
1970 386 1.0850694444444445e-05
2061 386 1.0850694444444445e-05
387 387 0.00078124999999999993
388 387 4.3402777777777779e-05
418 387 4.3402777777777779e-05
419 387 4.3402777777777779e-05
1871 387 1.0850694444444445e-05
1872 387 1.0850694444444445e-05
1873 387 6.5104166666666666e-05
1875 387 6.5104166666666666e-05
1876 387 1.0850694444444445e-05
1966 387 6.5104166666666666e-05
1968 387 1.0850694444444445e-05
1969 387 6.5104166666666666e-05
1970 387 6.5104166666666666e-05
1971 387 6.5104166666666666e-05
1973 387 1.0850694444444445e-05
2064 387 1.0850694444444445e-05
388 388 0.00078124999999999993
389 388 4.3402777777777779e-05
419 388 4.3402777777777779e-05
420 388 4.3402777777777779e-05
1874 388 1.0850694444444445e-05
1875 388 1.0850694444444445e-05
1876 388 6.5104166666666666e-05
1878 388 6.5104166666666666e-05
1879 388 1.0850694444444445e-05
1969 388 6.5104166666666666e-05
1971 388 1.0850694444444445e-05
1972 388 6.5104166666666666e-05
1973 388 6.5104166666666666e-05
1974 388 6.5104166666666666e-05
1976 388 1.0850694444444445e-05
2067 388 1.0850694444444445e-05
389 389 0.00078124999999999993
390 389 4.3402777777777779e-05
420 389 4.3402777777777779e-05
421 389 4.3402777777777779e-05
1877 389 1.0850694444444445e-05
1878 389 1.0850694444444445e-05
1879 389 6.5104166666666666e-05
1881 389 6.5104166666666666e-05
1882 389 1.0850694444444445e-05
1972 389 6.5104166666666666e-05
1974 389 1.0850694444444445e-05
1975 389 6.5104166666666666e-05
1976 389 6.5104166666666666e-05
1977 389 6.5104166666666666e-05
1979 389 1.0850694444444445e-05
2070 389 1.0850694444444445e-05
390 390 0.00078124999999999993
391 390 4.3402777777777779e-05
421 390 4.3402777777777779e-05
422 390 4.3402777777777779e-05
1880 390 1.0850694444444445e-05
1881 390 1.0850694444444445e-05
1882 390 6.5104166666666666e-05
1884 390 6.5104166666666666e-05
1885 390 1.0850694444444445e-05
1975 390 6.5104166666666666e-05
1977 390 1.0850694444444445e-05
1978 390 6.5104166666666666e-05
1979 390 6.5104166666666666e-05
1980 390 6.5104166666666666e-05
1982 390 1.0850694444444445e-05
2073 390 1.0850694444444445e-05
391 391 0.00078124999999999993
392 391 4.3402777777777779e-05
422 391 4.3402777777777779e-05
423 391 4.3402777777777779e-05
1883 391 1.0850694444444445e-05
1884 391 1.0850694444444445e-05
1885 391 6.5104166666666666e-05
1887 391 6.5104166666666666e-05
1888 391 1.0850694444444445e-05
1978 391 6.5104166666666666e-05
1980 391 1.0850694444444445e-05
1981 391 6.5104166666666666e-05
1982 391 6.5104166666666666e-05
1983 391 6.5104166666666666e-05
1985 391 1.0850694444444445e-05
2076 391 1.0850694444444445e-05
392 392 0.00078124999999999993
393 392 4.3402777777777779e-05
423 392 4.3402777777777779e-05
424 392 4.3402777777777779e-05
1886 392 1.0850694444444445e-05
1887 392 1.0850694444444445e-05
1888 392 6.5104166666666666e-05
1890 392 6.5104166666666666e-05
1891 392 1.0850694444444445e-05
1981 392 6.5104166666666666e-05
1983 392 1.0850694444444445e-05
1984 392 6.5104166666666666e-05
1985 392 6.5104166666666666e-05
1986 392 6.5104166666666666e-05
1988 392 1.0850694444444445e-05
2079 392 1.0850694444444445e-05
393 393 0.00078124999999999993
394 393 4.3402777777777779e-05
424 393 4.3402777777777779e-05
425 393 4.3402777777777779e-05
1889 393 1.0850694444444445e-05
1890 393 1.0850694444444445e-05
1891 393 6.5104166666666666e-05
1893 393 6.5104166666666666e-05
1894 393 1.0850694444444445e-05
1984 393 6.5104166666666666e-05
1986 393 1.0850694444444445e-05
1987 393 6.5104166666666666e-05
1988 393 6.5104166666666666e-05
1989 393 6.5104166666666666e-05
1991 393 1.0850694444444445e-05
2082 393 1.0850694444444445e-05
394 394 0.00078124999999999993
395 394 4.3402777777777779e-05
425 394 4.3402777777777779e-05
426 394 4.3402777777777779e-05
1892 394 1.0850694444444445e-05
1893 394 1.0850694444444445e-05
1894 394 6.5104166666666666e-05
1896 394 6.5104166666666666e-05
1897 394 1.0850694444444445e-05
1987 394 6.5104166666666666e-05
1989 394 1.0850694444444445e-05
1990 394 6.5104166666666666e-05
1991 394 6.5104166666666666e-05
1992 394 6.5104166666666666e-05
1994 394 1.0850694444444445e-05
2085 394 1.0850694444444445e-05
395 395 0.00078124999999999993
426 395 4.3402777777777779e-05
1895 395 1.0850694444444445e-05
1896 395 1.0850694444444445e-05
1897 395 6.5104166666666666e-05
1899 395 6.5104166666666666e-05
1900 395 1.0850694444444445e-05
1990 395 6.5104166666666666e-05
1992 395 1.0850694444444445e-05
1993 395 6.5104166666666666e-05
1994 395 6.5104166666666666e-05
1995 395 6.5104166666666666e-05
2088 395 1.0850694444444445e-05
396 396 0.00078124999999999993
397 396 4.3402777777777779e-05
427 396 4.3402777777777779e-05
428 396 4.3402777777777779e-05
1901 396 1.0850694444444445e-05
1902 396 6.5104166666666666e-05
1904 396 6.5104166666666666e-05
1905 396 1.0850694444444445e-05
1996 396 6.5104166666666666e-05
1997 396 1.0850694444444445e-05
1998 396 6.5104166666666666e-05
1999 396 6.5104166666666666e-05
2000 396 6.5104166666666666e-05
2002 396 1.0850694444444445e-05
2093 396 1.0850694444444445e-05
397 397 0.00078124999999999993
398 397 4.3402777777777779e-05
428 397 4.3402777777777779e-05
429 397 4.3402777777777779e-05
1903 397 1.0850694444444445e-05
1904 397 1.0850694444444445e-05
1905 397 6.5104166666666666e-05
1907 397 6.5104166666666666e-05
1908 397 1.0850694444444445e-05
1998 397 6.5104166666666666e-05
2000 397 1.0850694444444445e-05
2001 397 6.5104166666666666e-05
2002 397 6.5104166666666666e-05
2003 397 6.5104166666666666e-05
2005 397 1.0850694444444445e-05
2096 397 1.0850694444444445e-05
398 398 0.00078124999999999993
399 398 4.3402777777777779e-05
429 398 4.3402777777777779e-05
430 398 4.3402777777777779e-05
1906 398 1.0850694444444445e-05
1907 398 1.0850694444444445e-05
1908 398 6.5104166666666666e-05
1910 398 6.5104166666666666e-05
1911 398 1.0850694444444445e-05
2001 398 6.5104166666666666e-05
2003 398 1.0850694444444445e-05
2004 398 6.5104166666666666e-05
2005 398 6.5104166666666666e-05
2006 398 6.5104166666666666e-05
2008 398 1.0850694444444445e-05
2099 398 1.0850694444444445e-05
399 399 0.00078124999999999993
400 399 4.3402777777777779e-05
430 399 4.3402777777777779e-05
431 399 4.3402777777777779e-05
1909 399 1.0850694444444445e-05
1910 399 1.0850694444444445e-05
1911 399 6.5104166666666666e-05
1913 399 6.5104166666666666e-05
1914 399 1.0850694444444445e-05
2004 399 6.5104166666666666e-05
2006 399 1.0850694444444445e-05
2007 399 6.5104166666666666e-05
2008 399 6.5104166666666666e-05
2009 399 6.5104166666666666e-05
2011 399 1.0850694444444445e-05
2102 399 1.0850694444444445e-05
400 400 0.00078124999999999993
401 400 4.3402777777777779e-05
431 400 4.3402777777777779e-05
432 400 4.3402777777777779e-05
1912 400 1.0850694444444445e-05
1913 400 1.0850694444444445e-05
1914 400 6.5104166666666666e-05
1916 400 6.5104166666666666e-05
1917 400 1.0850694444444445e-05
2007 400 6.5104166666666666e-05
2009 400 1.0850694444444445e-05
2010 400 6.5104166666666666e-05
2011 400 6.5104166666666666e-05
2012 400 6.5104166666666666e-05
2014 400 1.0850694444444445e-05
2105 400 1.0850694444444445e-05
401 401 0.00078124999999999993
402 401 4.3402777777777779e-05
432 401 4.3402777777777779e-05
433 401 4.3402777777777779e-05
1915 401 1.0850694444444445e-05
1916 401 1.0850694444444445e-05
1917 401 6.5104166666666666e-05
1919 401 6.5104166666666666e-05
1920 401 1.0850694444444445e-05
2010 401 6.5104166666666666e-05
2012 401 1.0850694444444445e-05
2013 401 6.5104166666666666e-05
2014 401 6.5104166666666666e-05
2015 401 6.5104166666666666e-05
2017 401 1.0850694444444445e-05
2108 401 1.0850694444444445e-05
402 402 0.00078124999999999993
403 402 4.3402777777777779e-05
433 402 4.3402777777777779e-05
434 402 4.3402777777777779e-05
1918 402 1.0850694444444445e-05
1919 402 1.0850694444444445e-05
1920 402 6.5104166666666666e-05
1922 402 6.5104166666666666e-05
1923 402 1.0850694444444445e-05
2013 402 6.5104166666666666e-05
2015 402 1.0850694444444445e-05
2016 402 6.5104166666666666e-05
2017 402 6.5104166666666666e-05
2018 402 6.5104166666666666e-05
2020 402 1.0850694444444445e-05
2111 402 1.0850694444444445e-05
403 403 0.00078124999999999993
404 403 4.3402777777777779e-05
434 403 4.3402777777777779e-05
435 403 4.3402777777777779e-05
1921 403 1.0850694444444445e-05
1922 403 1.0850694444444445e-05
1923 403 6.5104166666666666e-05
1925 403 6.5104166666666666e-05
1926 403 1.0850694444444445e-05
2016 403 6.5104166666666666e-05
2018 403 1.0850694444444445e-05
2019 403 6.5104166666666666e-05
2020 403 6.5104166666666666e-05
2021 403 6.5104166666666666e-05
2023 403 1.0850694444444445e-05
2114 403 1.0850694444444445e-05
404 404 0.00078124999999999993
405 404 4.3402777777777779e-05
435 404 4.3402777777777779e-05
436 404 4.3402777777777779e-05
1924 404 1.0850694444444445e-05
1925 404 1.0850694444444445e-05
1926 404 6.5104166666666666e-05
1928 404 6.5104166666666666e-05
1929 404 1.0850694444444445e-05
2019 404 6.5104166666666666e-05
2021 404 1.0850694444444445e-05
2022 404 6.5104166666666666e-05
2023 404 6.5104166666666666e-05
2024 404 6.5104166666666666e-05
2026 404 1.0850694444444445e-05
2117 404 1.0850694444444445e-05
405 405 0.00078124999999999993
406 405 4.3402777777777779e-05
436 405 4.3402777777777779e-05
437 405 4.3402777777777779e-05
1927 405 1.0850694444444445e-05
1928 405 1.0850694444444445e-05
1929 405 6.5104166666666666e-05
1931 405 6.5104166666666666e-05
1932 405 1.0850694444444445e-05
2022 405 6.5104166666666666e-05
2024 405 1.0850694444444445e-05
2025 405 6.5104166666666666e-05
2026 405 6.5104166666666666e-05
2027 405 6.5104166666666666e-05
2029 405 1.0850694444444445e-05
2120 405 1.0850694444444445e-05
406 406 0.00078124999999999993
407 406 4.3402777777777779e-05
437 406 4.3402777777777779e-05
438 406 4.3402777777777779e-05
1930 406 1.0850694444444445e-05
1931 406 1.0850694444444445e-05
1932 406 6.5104166666666666e-05
1934 406 6.5104166666666666e-05
1935 406 1.0850694444444445e-05
2025 406 6.5104166666666666e-05
2027 406 1.0850694444444445e-05
2028 406 6.5104166666666666e-05
2029 406 6.5104166666666666e-05
2030 406 6.5104166666666666e-05
2032 406 1.0850694444444445e-05
2123 406 1.0850694444444445e-05
407 407 0.00078124999999999993
408 407 4.3402777777777779e-05
438 407 4.3402777777777779e-05
439 407 4.3402777777777779e-05
1933 407 1.0850694444444445e-05
1934 407 1.0850694444444445e-05
1935 407 6.5104166666666666e-05
1937 407 6.5104166666666666e-05
1938 407 1.0850694444444445e-05
2028 407 6.5104166666666666e-05
2030 407 1.0850694444444445e-05
2031 407 6.5104166666666666e-05
2032 407 6.5104166666666666e-05
2033 407 6.5104166666666666e-05
2035 407 1.0850694444444445e-05
2126 407 1.0850694444444445e-05
408 408 0.00078124999999999993
409 408 4.3402777777777779e-05
439 408 4.3402777777777779e-05
440 408 4.3402777777777779e-05
1936 408 1.0850694444444445e-05
1937 408 1.0850694444444445e-05
1938 408 6.5104166666666666e-05
1940 408 6.5104166666666666e-05
1941 408 1.0850694444444445e-05
2031 408 6.5104166666666666e-05
2033 408 1.0850694444444445e-05
2034 408 6.5104166666666666e-05
2035 408 6.5104166666666666e-05
2036 408 6.5104166666666666e-05
2038 408 1.0850694444444445e-05
2129 408 1.0850694444444445e-05
409 409 0.00078124999999999993
410 409 4.3402777777777779e-05
440 409 4.3402777777777779e-05
441 409 4.3402777777777779e-05
1939 409 1.0850694444444445e-05
1940 409 1.0850694444444445e-05
1941 409 6.5104166666666666e-05
1943 409 6.5104166666666666e-05
1944 409 1.0850694444444445e-05
2034 409 6.5104166666666666e-05
2036 409 1.0850694444444445e-05
2037 409 6.5104166666666666e-05
2038 409 6.5104166666666666e-05
2039 409 6.5104166666666666e-05
2041 409 1.0850694444444445e-05
2132 409 1.0850694444444445e-05
410 410 0.00078124999999999993
411 410 4.3402777777777779e-05
441 410 4.3402777777777779e-05
442 410 4.3402777777777779e-05
1942 410 1.0850694444444445e-05
1943 410 1.0850694444444445e-05
1944 410 6.5104166666666666e-05
1946 410 6.5104166666666666e-05
1947 410 1.0850694444444445e-05
2037 410 6.5104166666666666e-05
2039 410 1.0850694444444445e-05
2040 410 6.5104166666666666e-05
2041 410 6.5104166666666666e-05
2042 410 6.5104166666666666e-05
2044 410 1.0850694444444445e-05
2135 410 1.0850694444444445e-05
411 411 0.00078124999999999993
412 411 4.3402777777777779e-05
442 411 4.3402777777777779e-05
443 411 4.3402777777777779e-05
1945 411 1.0850694444444445e-05
1946 411 1.0850694444444445e-05
1947 411 6.5104166666666666e-05
1949 411 6.5104166666666666e-05
1950 411 1.0850694444444445e-05
2040 411 6.5104166666666666e-05
2042 411 1.0850694444444445e-05
2043 411 6.5104166666666666e-05
2044 411 6.5104166666666666e-05
2045 411 6.5104166666666666e-05
2047 411 1.0850694444444445e-05
2138 411 1.0850694444444445e-05
412 412 0.00078124999999999993
413 412 4.3402777777777779e-05
443 412 4.3402777777777779e-05
444 412 4.3402777777777779e-05
1948 412 1.0850694444444445e-05
1949 412 1.0850694444444445e-05
1950 412 6.5104166666666666e-05
1952 412 6.5104166666666666e-05
1953 412 1.0850694444444445e-05
2043 412 6.5104166666666666e-05
2045 412 1.0850694444444445e-05
2046 412 6.5104166666666666e-05
2047 412 6.5104166666666666e-05
2048 412 6.5104166666666666e-05
2050 412 1.0850694444444445e-05
2141 412 1.0850694444444445e-05
413 413 0.00078124999999999993
414 413 4.3402777777777779e-05
444 413 4.3402777777777779e-05
445 413 4.3402777777777779e-05
1951 413 1.0850694444444445e-05
1952 413 1.0850694444444445e-05
1953 413 6.5104166666666666e-05
1955 413 6.5104166666666666e-05
1956 413 1.0850694444444445e-05
2046 413 6.5104166666666666e-05
2048 413 1.0850694444444445e-05
2049 413 6.5104166666666666e-05
2050 413 6.5104166666666666e-05
2051 413 6.5104166666666666e-05
2053 413 1.0850694444444445e-05
2144 413 1.0850694444444445e-05
414 414 0.00078124999999999993
415 414 4.3402777777777779e-05
445 414 4.3402777777777779e-05
446 414 4.3402777777777779e-05
1954 414 1.0850694444444445e-05
1955 414 1.0850694444444445e-05
1956 414 6.5104166666666666e-05
1958 414 6.5104166666666666e-05
1959 414 1.0850694444444445e-05
2049 414 6.5104166666666666e-05
2051 414 1.0850694444444445e-05
2052 414 6.5104166666666666e-05
2053 414 6.5104166666666666e-05
2054 414 6.5104166666666666e-05
2056 414 1.0850694444444445e-05
2147 414 1.0850694444444445e-05
415 415 0.00078124999999999993
416 415 4.3402777777777779e-05
446 415 4.3402777777777779e-05
447 415 4.3402777777777779e-05
1957 415 1.0850694444444445e-05
1958 415 1.0850694444444445e-05
1959 415 6.5104166666666666e-05
1961 415 6.5104166666666666e-05
1962 415 1.0850694444444445e-05
2052 415 6.5104166666666666e-05
2054 415 1.0850694444444445e-05
2055 415 6.5104166666666666e-05
2056 415 6.5104166666666666e-05
2057 415 6.5104166666666666e-05
2059 415 1.0850694444444445e-05
2150 415 1.0850694444444445e-05
416 416 0.00078124999999999993
417 416 4.3402777777777779e-05
447 416 4.3402777777777779e-05
448 416 4.3402777777777779e-05
1960 416 1.0850694444444445e-05
1961 416 1.0850694444444445e-05
1962 416 6.5104166666666666e-05
1964 416 6.5104166666666666e-05
1965 416 1.0850694444444445e-05
2055 416 6.5104166666666666e-05
2057 416 1.0850694444444445e-05
2058 416 6.5104166666666666e-05
2059 416 6.5104166666666666e-05
2060 416 6.5104166666666666e-05
2062 416 1.0850694444444445e-05
2153 416 1.0850694444444445e-05
417 417 0.00078124999999999993
418 417 4.3402777777777779e-05
448 417 4.3402777777777779e-05
449 417 4.3402777777777779e-05
1963 417 1.0850694444444445e-05
1964 417 1.0850694444444445e-05
1965 417 6.5104166666666666e-05
1967 417 6.5104166666666666e-05
1968 417 1.0850694444444445e-05
2058 417 6.5104166666666666e-05
2060 417 1.0850694444444445e-05
2061 417 6.5104166666666666e-05
2062 417 6.5104166666666666e-05
2063 417 6.5104166666666666e-05
2065 417 1.0850694444444445e-05
2156 417 1.0850694444444445e-05
418 418 0.00078124999999999993
419 418 4.3402777777777779e-05
449 418 4.3402777777777779e-05
450 418 4.3402777777777779e-05
1966 418 1.0850694444444445e-05
1967 418 1.0850694444444445e-05
1968 418 6.5104166666666666e-05
1970 418 6.5104166666666666e-05
1971 418 1.0850694444444445e-05
2061 418 6.5104166666666666e-05
2063 418 1.0850694444444445e-05
2064 418 6.5104166666666666e-05
2065 418 6.5104166666666666e-05
2066 418 6.5104166666666666e-05
2068 418 1.0850694444444445e-05
2159 418 1.0850694444444445e-05
419 419 0.00078124999999999993
420 419 4.3402777777777779e-05
450 419 4.3402777777777779e-05
451 419 4.3402777777777779e-05
1969 419 1.0850694444444445e-05
1970 419 1.0850694444444445e-05
1971 419 6.5104166666666666e-05
1973 419 6.5104166666666666e-05
1974 419 1.0850694444444445e-05
2064 419 6.5104166666666666e-05
2066 419 1.0850694444444445e-05
2067 419 6.5104166666666666e-05
2068 419 6.5104166666666666e-05
2069 419 6.5104166666666666e-05
2071 419 1.0850694444444445e-05
2162 419 1.0850694444444445e-05
420 420 0.00078124999999999993
421 420 4.3402777777777779e-05
451 420 4.3402777777777779e-05
452 420 4.3402777777777779e-05
1972 420 1.0850694444444445e-05
1973 420 1.0850694444444445e-05
1974 420 6.5104166666666666e-05
1976 420 6.5104166666666666e-05
1977 420 1.0850694444444445e-05
2067 420 6.5104166666666666e-05
2069 420 1.0850694444444445e-05
2070 420 6.5104166666666666e-05
2071 420 6.5104166666666666e-05
2072 420 6.5104166666666666e-05
2074 420 1.0850694444444445e-05
2165 420 1.0850694444444445e-05
421 421 0.00078124999999999993
422 421 4.3402777777777779e-05
452 421 4.3402777777777779e-05
453 421 4.3402777777777779e-05
1975 421 1.0850694444444445e-05
1976 421 1.0850694444444445e-05
1977 421 6.5104166666666666e-05
1979 421 6.5104166666666666e-05
1980 421 1.0850694444444445e-05
2070 421 6.5104166666666666e-05
2072 421 1.0850694444444445e-05
2073 421 6.5104166666666666e-05
2074 421 6.5104166666666666e-05
2075 421 6.5104166666666666e-05
2077 421 1.0850694444444445e-05
2168 421 1.0850694444444445e-05
422 422 0.00078124999999999993
423 422 4.3402777777777779e-05
453 422 4.3402777777777779e-05
454 422 4.3402777777777779e-05
1978 422 1.0850694444444445e-05
1979 422 1.0850694444444445e-05
1980 422 6.5104166666666666e-05
1982 422 6.5104166666666666e-05
1983 422 1.0850694444444445e-05
2073 422 6.5104166666666666e-05
2075 422 1.0850694444444445e-05
2076 422 6.5104166666666666e-05
2077 422 6.5104166666666666e-05
2078 422 6.5104166666666666e-05
2080 422 1.0850694444444445e-05
2171 422 1.0850694444444445e-05
423 423 0.00078124999999999993
424 423 4.3402777777777779e-05
454 423 4.3402777777777779e-05
455 423 4.3402777777777779e-05
1981 423 1.0850694444444445e-05
1982 423 1.0850694444444445e-05
1983 423 6.5104166666666666e-05
1985 423 6.5104166666666666e-05
1986 423 1.0850694444444445e-05
2076 423 6.5104166666666666e-05
2078 423 1.0850694444444445e-05
2079 423 6.5104166666666666e-05
2080 423 6.5104166666666666e-05
2081 423 6.5104166666666666e-05
2083 423 1.0850694444444445e-05
2174 423 1.0850694444444445e-05
424 424 0.00078124999999999993
425 424 4.3402777777777779e-05
455 424 4.3402777777777779e-05
456 424 4.3402777777777779e-05
1984 424 1.0850694444444445e-05
1985 424 1.0850694444444445e-05
1986 424 6.5104166666666666e-05
1988 424 6.5104166666666666e-05
1989 424 1.0850694444444445e-05
2079 424 6.5104166666666666e-05
2081 424 1.0850694444444445e-05
2082 424 6.5104166666666666e-05
2083 424 6.5104166666666666e-05
2084 424 6.5104166666666666e-05
2086 424 1.0850694444444445e-05
2177 424 1.0850694444444445e-05
425 425 0.00078124999999999993
426 425 4.3402777777777779e-05
456 425 4.3402777777777779e-05
457 425 4.3402777777777779e-05
1987 425 1.0850694444444445e-05
1988 425 1.0850694444444445e-05
1989 425 6.5104166666666666e-05
1991 425 6.5104166666666666e-05
1992 425 1.0850694444444445e-05
2082 425 6.5104166666666666e-05
2084 425 1.0850694444444445e-05
2085 425 6.5104166666666666e-05
2086 425 6.5104166666666666e-05
2087 425 6.5104166666666666e-05
2089 425 1.0850694444444445e-05
2180 425 1.0850694444444445e-05
426 426 0.00078124999999999993
457 426 4.3402777777777779e-05
1990 426 1.0850694444444445e-05
1991 426 1.0850694444444445e-05
1992 426 6.5104166666666666e-05
1994 426 6.5104166666666666e-05
1995 426 1.0850694444444445e-05
2085 426 6.5104166666666666e-05
2087 426 1.0850694444444445e-05
2088 426 6.5104166666666666e-05
2089 426 6.5104166666666666e-05
2090 426 6.5104166666666666e-05
2183 426 1.0850694444444445e-05
427 427 0.00078124999999999993
428 427 4.3402777777777779e-05
458 427 4.3402777777777779e-05
459 427 4.3402777777777779e-05
1996 427 1.0850694444444445e-05
1997 427 6.5104166666666666e-05
1999 427 6.5104166666666666e-05
2000 427 1.0850694444444445e-05
2091 427 6.5104166666666666e-05
2092 427 1.0850694444444445e-05
2093 427 6.5104166666666666e-05
2094 427 6.5104166666666666e-05
2095 427 6.5104166666666666e-05
2097 427 1.0850694444444445e-05
2188 427 1.0850694444444445e-05
428 428 0.00078124999999999993
429 428 4.3402777777777779e-05
459 428 4.3402777777777779e-05
460 428 4.3402777777777779e-05
1998 428 1.0850694444444445e-05
1999 428 1.0850694444444445e-05
2000 428 6.5104166666666666e-05
2002 428 6.5104166666666666e-05
2003 428 1.0850694444444445e-05
2093 428 6.5104166666666666e-05
2095 428 1.0850694444444445e-05
2096 428 6.5104166666666666e-05
2097 428 6.5104166666666666e-05
2098 428 6.5104166666666666e-05
2100 428 1.0850694444444445e-05
2191 428 1.0850694444444445e-05
429 429 0.00078124999999999993
430 429 4.3402777777777779e-05
460 429 4.3402777777777779e-05
461 429 4.3402777777777779e-05
2001 429 1.0850694444444445e-05
2002 429 1.0850694444444445e-05
2003 429 6.5104166666666666e-05
2005 429 6.5104166666666666e-05
2006 429 1.0850694444444445e-05
2096 429 6.5104166666666666e-05
2098 429 1.0850694444444445e-05
2099 429 6.5104166666666666e-05
2100 429 6.5104166666666666e-05
2101 429 6.5104166666666666e-05
2103 429 1.0850694444444445e-05
2194 429 1.0850694444444445e-05
430 430 0.00078124999999999993
431 430 4.3402777777777779e-05
461 430 4.3402777777777779e-05
462 430 4.3402777777777779e-05
2004 430 1.0850694444444445e-05
2005 430 1.0850694444444445e-05
2006 430 6.5104166666666666e-05
2008 430 6.5104166666666666e-05
2009 430 1.0850694444444445e-05
2099 430 6.5104166666666666e-05
2101 430 1.0850694444444445e-05
2102 430 6.5104166666666666e-05
2103 430 6.5104166666666666e-05
2104 430 6.5104166666666666e-05
2106 430 1.0850694444444445e-05
2197 430 1.0850694444444445e-05
431 431 0.00078124999999999993
432 431 4.3402777777777779e-05
462 431 4.3402777777777779e-05
463 431 4.3402777777777779e-05
2007 431 1.0850694444444445e-05
2008 431 1.0850694444444445e-05
2009 431 6.5104166666666666e-05
2011 431 6.5104166666666666e-05
2012 431 1.0850694444444445e-05
2102 431 6.5104166666666666e-05
2104 431 1.0850694444444445e-05
2105 431 6.5104166666666666e-05
2106 431 6.5104166666666666e-05
2107 431 6.5104166666666666e-05
2109 431 1.0850694444444445e-05
2200 431 1.0850694444444445e-05
432 432 0.00078124999999999993
433 432 4.3402777777777779e-05
463 432 4.3402777777777779e-05
464 432 4.3402777777777779e-05
2010 432 1.0850694444444445e-05
2011 432 1.0850694444444445e-05
2012 432 6.5104166666666666e-05
2014 432 6.5104166666666666e-05
2015 432 1.0850694444444445e-05
2105 432 6.5104166666666666e-05
2107 432 1.0850694444444445e-05
2108 432 6.5104166666666666e-05
2109 432 6.5104166666666666e-05
2110 432 6.5104166666666666e-05
2112 432 1.0850694444444445e-05
2203 432 1.0850694444444445e-05
433 433 0.00078124999999999993
434 433 4.3402777777777779e-05
464 433 4.3402777777777779e-05
465 433 4.3402777777777779e-05
2013 433 1.0850694444444445e-05
2014 433 1.0850694444444445e-05
2015 433 6.5104166666666666e-05
2017 433 6.5104166666666666e-05
2018 433 1.0850694444444445e-05
2108 433 6.5104166666666666e-05
2110 433 1.0850694444444445e-05
2111 433 6.5104166666666666e-05
2112 433 6.5104166666666666e-05
2113 433 6.5104166666666666e-05
2115 433 1.0850694444444445e-05
2206 433 1.0850694444444445e-05
434 434 0.00078124999999999993
435 434 4.3402777777777779e-05
465 434 4.3402777777777779e-05
466 434 4.3402777777777779e-05
2016 434 1.0850694444444445e-05
2017 434 1.0850694444444445e-05
2018 434 6.5104166666666666e-05
2020 434 6.5104166666666666e-05
2021 434 1.0850694444444445e-05
2111 434 6.5104166666666666e-05
2113 434 1.0850694444444445e-05
2114 434 6.5104166666666666e-05
2115 434 6.5104166666666666e-05
2116 434 6.5104166666666666e-05
2118 434 1.0850694444444445e-05
2209 434 1.0850694444444445e-05
435 435 0.00078124999999999993
436 435 4.3402777777777779e-05
466 435 4.3402777777777779e-05
467 435 4.3402777777777779e-05
2019 435 1.0850694444444445e-05
2020 435 1.0850694444444445e-05
2021 435 6.5104166666666666e-05
2023 435 6.5104166666666666e-05
2024 435 1.0850694444444445e-05
2114 435 6.5104166666666666e-05
2116 435 1.0850694444444445e-05
2117 435 6.5104166666666666e-05
2118 435 6.5104166666666666e-05
2119 435 6.5104166666666666e-05
2121 435 1.0850694444444445e-05
2212 435 1.0850694444444445e-05
436 436 0.00078124999999999993
437 436 4.3402777777777779e-05
467 436 4.3402777777777779e-05
468 436 4.3402777777777779e-05
2022 436 1.0850694444444445e-05
2023 436 1.0850694444444445e-05
2024 436 6.5104166666666666e-05
2026 436 6.5104166666666666e-05
2027 436 1.0850694444444445e-05
2117 436 6.5104166666666666e-05
2119 436 1.0850694444444445e-05
2120 436 6.5104166666666666e-05
2121 436 6.5104166666666666e-05
2122 436 6.5104166666666666e-05
2124 436 1.0850694444444445e-05
2215 436 1.0850694444444445e-05
437 437 0.00078124999999999993
438 437 4.3402777777777779e-05
468 437 4.3402777777777779e-05
469 437 4.3402777777777779e-05
2025 437 1.0850694444444445e-05
2026 437 1.0850694444444445e-05
2027 437 6.5104166666666666e-05
2029 437 6.5104166666666666e-05
2030 437 1.0850694444444445e-05
2120 437 6.5104166666666666e-05
2122 437 1.0850694444444445e-05
2123 437 6.5104166666666666e-05
2124 437 6.5104166666666666e-05
2125 437 6.5104166666666666e-05
2127 437 1.0850694444444445e-05
2218 437 1.0850694444444445e-05
438 438 0.00078124999999999993
439 438 4.3402777777777779e-05
469 438 4.3402777777777779e-05
470 438 4.3402777777777779e-05
2028 438 1.0850694444444445e-05
2029 438 1.0850694444444445e-05
2030 438 6.5104166666666666e-05
2032 438 6.5104166666666666e-05
2033 438 1.0850694444444445e-05
2123 438 6.5104166666666666e-05
2125 438 1.0850694444444445e-05
2126 438 6.5104166666666666e-05
2127 438 6.5104166666666666e-05
2128 438 6.5104166666666666e-05
2130 438 1.0850694444444445e-05
2221 438 1.0850694444444445e-05
439 439 0.00078124999999999993
440 439 4.3402777777777779e-05
470 439 4.3402777777777779e-05
471 439 4.3402777777777779e-05
2031 439 1.0850694444444445e-05
2032 439 1.0850694444444445e-05
2033 439 6.5104166666666666e-05
2035 439 6.5104166666666666e-05
2036 439 1.0850694444444445e-05
2126 439 6.5104166666666666e-05
2128 439 1.0850694444444445e-05
2129 439 6.5104166666666666e-05
2130 439 6.5104166666666666e-05
2131 439 6.5104166666666666e-05
2133 439 1.0850694444444445e-05
2224 439 1.0850694444444445e-05
440 440 0.00078124999999999993
441 440 4.3402777777777779e-05
471 440 4.3402777777777779e-05
472 440 4.3402777777777779e-05
2034 440 1.0850694444444445e-05
2035 440 1.0850694444444445e-05
2036 440 6.5104166666666666e-05
2038 440 6.5104166666666666e-05
2039 440 1.0850694444444445e-05
2129 440 6.5104166666666666e-05
2131 440 1.0850694444444445e-05
2132 440 6.5104166666666666e-05
2133 440 6.5104166666666666e-05
2134 440 6.5104166666666666e-05
2136 440 1.0850694444444445e-05
2227 440 1.0850694444444445e-05
441 441 0.00078124999999999993
442 441 4.3402777777777779e-05
472 441 4.3402777777777779e-05
473 441 4.3402777777777779e-05
2037 441 1.0850694444444445e-05
2038 441 1.0850694444444445e-05
2039 441 6.5104166666666666e-05
2041 441 6.5104166666666666e-05
2042 441 1.0850694444444445e-05
2132 441 6.5104166666666666e-05
2134 441 1.0850694444444445e-05
2135 441 6.5104166666666666e-05
2136 441 6.5104166666666666e-05
2137 441 6.5104166666666666e-05
2139 441 1.0850694444444445e-05
2230 441 1.0850694444444445e-05
442 442 0.00078124999999999993
443 442 4.3402777777777779e-05
473 442 4.3402777777777779e-05
474 442 4.3402777777777779e-05
2040 442 1.0850694444444445e-05
2041 442 1.0850694444444445e-05
2042 442 6.5104166666666666e-05
2044 442 6.5104166666666666e-05
2045 442 1.0850694444444445e-05
2135 442 6.5104166666666666e-05
2137 442 1.0850694444444445e-05
2138 442 6.5104166666666666e-05
2139 442 6.5104166666666666e-05
2140 442 6.5104166666666666e-05
2142 442 1.0850694444444445e-05
2233 442 1.0850694444444445e-05
443 443 0.00078124999999999993
444 443 4.3402777777777779e-05
474 443 4.3402777777777779e-05
475 443 4.3402777777777779e-05
2043 443 1.0850694444444445e-05
2044 443 1.0850694444444445e-05
2045 443 6.5104166666666666e-05
2047 443 6.5104166666666666e-05
2048 443 1.0850694444444445e-05
2138 443 6.5104166666666666e-05
2140 443 1.0850694444444445e-05
2141 443 6.5104166666666666e-05
2142 443 6.5104166666666666e-05
2143 443 6.5104166666666666e-05
2145 443 1.0850694444444445e-05
2236 443 1.0850694444444445e-05
444 444 0.00078124999999999993
445 444 4.3402777777777779e-05
475 444 4.3402777777777779e-05
476 444 4.3402777777777779e-05
2046 444 1.0850694444444445e-05
2047 444 1.0850694444444445e-05
2048 444 6.5104166666666666e-05
2050 444 6.5104166666666666e-05
2051 444 1.0850694444444445e-05
2141 444 6.5104166666666666e-05
2143 444 1.0850694444444445e-05
2144 444 6.5104166666666666e-05
2145 444 6.5104166666666666e-05
2146 444 6.5104166666666666e-05
2148 444 1.0850694444444445e-05
2239 444 1.0850694444444445e-05
445 445 0.00078124999999999993
446 445 4.3402777777777779e-05
476 445 4.3402777777777779e-05
477 445 4.3402777777777779e-05
2049 445 1.0850694444444445e-05
2050 445 1.0850694444444445e-05
2051 445 6.5104166666666666e-05
2053 445 6.5104166666666666e-05
2054 445 1.0850694444444445e-05
2144 445 6.5104166666666666e-05
2146 445 1.0850694444444445e-05
2147 445 6.5104166666666666e-05
2148 445 6.5104166666666666e-05
2149 445 6.5104166666666666e-05
2151 445 1.0850694444444445e-05
2242 445 1.0850694444444445e-05
446 446 0.00078124999999999993
447 446 4.3402777777777779e-05
477 446 4.3402777777777779e-05
478 446 4.3402777777777779e-05
2052 446 1.0850694444444445e-05
2053 446 1.0850694444444445e-05
2054 446 6.5104166666666666e-05
2056 446 6.5104166666666666e-05
2057 446 1.0850694444444445e-05
2147 446 6.5104166666666666e-05
2149 446 1.0850694444444445e-05
2150 446 6.5104166666666666e-05
2151 446 6.5104166666666666e-05
2152 446 6.5104166666666666e-05
2154 446 1.0850694444444445e-05
2245 446 1.0850694444444445e-05
447 447 0.00078124999999999993
448 447 4.3402777777777779e-05
478 447 4.3402777777777779e-05
479 447 4.3402777777777779e-05
2055 447 1.0850694444444445e-05
2056 447 1.0850694444444445e-05
2057 447 6.5104166666666666e-05
2059 447 6.5104166666666666e-05
2060 447 1.0850694444444445e-05
2150 447 6.5104166666666666e-05
2152 447 1.0850694444444445e-05
2153 447 6.5104166666666666e-05
2154 447 6.5104166666666666e-05
2155 447 6.5104166666666666e-05
2157 447 1.0850694444444445e-05
2248 447 1.0850694444444445e-05
448 448 0.00078124999999999993
449 448 4.3402777777777779e-05
479 448 4.3402777777777779e-05
480 448 4.3402777777777779e-05
2058 448 1.0850694444444445e-05
2059 448 1.0850694444444445e-05
2060 448 6.5104166666666666e-05
2062 448 6.5104166666666666e-05
2063 448 1.0850694444444445e-05
2153 448 6.5104166666666666e-05
2155 448 1.0850694444444445e-05
2156 448 6.5104166666666666e-05
2157 448 6.5104166666666666e-05
2158 448 6.5104166666666666e-05
2160 448 1.0850694444444445e-05
2251 448 1.0850694444444445e-05
449 449 0.00078124999999999993
450 449 4.3402777777777779e-05
480 449 4.3402777777777779e-05
481 449 4.3402777777777779e-05
2061 449 1.0850694444444445e-05
2062 449 1.0850694444444445e-05
2063 449 6.5104166666666666e-05
2065 449 6.5104166666666666e-05
2066 449 1.0850694444444445e-05
2156 449 6.5104166666666666e-05
2158 449 1.0850694444444445e-05
2159 449 6.5104166666666666e-05
2160 449 6.5104166666666666e-05
2161 449 6.5104166666666666e-05
2163 449 1.0850694444444445e-05
2254 449 1.0850694444444445e-05
450 450 0.00078124999999999993
451 450 4.3402777777777779e-05
481 450 4.3402777777777779e-05
482 450 4.3402777777777779e-05
2064 450 1.0850694444444445e-05
2065 450 1.0850694444444445e-05
2066 450 6.5104166666666666e-05
2068 450 6.5104166666666666e-05
2069 450 1.0850694444444445e-05
2159 450 6.5104166666666666e-05
2161 450 1.0850694444444445e-05
2162 450 6.5104166666666666e-05
2163 450 6.5104166666666666e-05
2164 450 6.5104166666666666e-05
2166 450 1.0850694444444445e-05
2257 450 1.0850694444444445e-05
451 451 0.00078124999999999993
452 451 4.3402777777777779e-05
482 451 4.3402777777777779e-05
483 451 4.3402777777777779e-05
2067 451 1.0850694444444445e-05
2068 451 1.0850694444444445e-05
2069 451 6.5104166666666666e-05
2071 451 6.5104166666666666e-05
2072 451 1.0850694444444445e-05
2162 451 6.5104166666666666e-05
2164 451 1.0850694444444445e-05
2165 451 6.5104166666666666e-05
2166 451 6.5104166666666666e-05
2167 451 6.5104166666666666e-05
2169 451 1.0850694444444445e-05
2260 451 1.0850694444444445e-05
452 452 0.00078124999999999993
453 452 4.3402777777777779e-05
483 452 4.3402777777777779e-05
484 452 4.3402777777777779e-05
2070 452 1.0850694444444445e-05
2071 452 1.0850694444444445e-05
2072 452 6.5104166666666666e-05
2074 452 6.5104166666666666e-05
2075 452 1.0850694444444445e-05
2165 452 6.5104166666666666e-05
2167 452 1.0850694444444445e-05
2168 452 6.5104166666666666e-05
2169 452 6.5104166666666666e-05
2170 452 6.5104166666666666e-05
2172 452 1.0850694444444445e-05
2263 452 1.0850694444444445e-05
453 453 0.00078124999999999993
454 453 4.3402777777777779e-05
484 453 4.3402777777777779e-05
485 453 4.3402777777777779e-05
2073 453 1.0850694444444445e-05
2074 453 1.0850694444444445e-05
2075 453 6.5104166666666666e-05
2077 453 6.5104166666666666e-05
2078 453 1.0850694444444445e-05
2168 453 6.5104166666666666e-05
2170 453 1.0850694444444445e-05
2171 453 6.5104166666666666e-05
2172 453 6.5104166666666666e-05
2173 453 6.5104166666666666e-05
2175 453 1.0850694444444445e-05
2266 453 1.0850694444444445e-05
454 454 0.00078124999999999993
455 454 4.3402777777777779e-05
485 454 4.3402777777777779e-05
486 454 4.3402777777777779e-05
2076 454 1.0850694444444445e-05
2077 454 1.0850694444444445e-05
2078 454 6.5104166666666666e-05
2080 454 6.5104166666666666e-05
2081 454 1.0850694444444445e-05
2171 454 6.5104166666666666e-05
2173 454 1.0850694444444445e-05
2174 454 6.5104166666666666e-05
2175 454 6.5104166666666666e-05
2176 454 6.5104166666666666e-05
2178 454 1.0850694444444445e-05
2269 454 1.0850694444444445e-05
455 455 0.00078124999999999993
456 455 4.3402777777777779e-05
486 455 4.3402777777777779e-05
487 455 4.3402777777777779e-05
2079 455 1.0850694444444445e-05
2080 455 1.0850694444444445e-05
2081 455 6.5104166666666666e-05
2083 455 6.5104166666666666e-05
2084 455 1.0850694444444445e-05
2174 455 6.5104166666666666e-05
2176 455 1.0850694444444445e-05
2177 455 6.5104166666666666e-05
2178 455 6.5104166666666666e-05
2179 455 6.5104166666666666e-05
2181 455 1.0850694444444445e-05
2272 455 1.0850694444444445e-05
456 456 0.00078124999999999993
457 456 4.3402777777777779e-05
487 456 4.3402777777777779e-05
488 456 4.3402777777777779e-05
2082 456 1.0850694444444445e-05
2083 456 1.0850694444444445e-05
2084 456 6.5104166666666666e-05
2086 456 6.5104166666666666e-05
2087 456 1.0850694444444445e-05
2177 456 6.5104166666666666e-05
2179 456 1.0850694444444445e-05
2180 456 6.5104166666666666e-05
2181 456 6.5104166666666666e-05
2182 456 6.5104166666666666e-05
2184 456 1.0850694444444445e-05
2275 456 1.0850694444444445e-05
457 457 0.00078124999999999993
488 457 4.3402777777777779e-05
2085 457 1.0850694444444445e-05
2086 457 1.0850694444444445e-05
2087 457 6.5104166666666666e-05
2089 457 6.5104166666666666e-05
2090 457 1.0850694444444445e-05
2180 457 6.5104166666666666e-05
2182 457 1.0850694444444445e-05
2183 457 6.5104166666666666e-05
2184 457 6.5104166666666666e-05
2185 457 6.5104166666666666e-05
2278 457 1.0850694444444445e-05
458 458 0.00078124999999999993
459 458 4.3402777777777779e-05
489 458 4.3402777777777779e-05
490 458 4.3402777777777779e-05
2091 458 1.0850694444444445e-05
2092 458 6.5104166666666666e-05
2094 458 6.5104166666666666e-05
2095 458 1.0850694444444445e-05
2186 458 6.5104166666666666e-05
2187 458 1.0850694444444445e-05
2188 458 6.5104166666666666e-05
2189 458 6.5104166666666666e-05
2190 458 6.5104166666666666e-05
2192 458 1.0850694444444445e-05
2283 458 1.0850694444444445e-05
459 459 0.00078124999999999993
460 459 4.3402777777777779e-05
490 459 4.3402777777777779e-05
491 459 4.3402777777777779e-05
2093 459 1.0850694444444445e-05
2094 459 1.0850694444444445e-05
2095 459 6.5104166666666666e-05
2097 459 6.5104166666666666e-05
2098 459 1.0850694444444445e-05
2188 459 6.5104166666666666e-05
2190 459 1.0850694444444445e-05
2191 459 6.5104166666666666e-05
2192 459 6.5104166666666666e-05
2193 459 6.5104166666666666e-05
2195 459 1.0850694444444445e-05
2286 459 1.0850694444444445e-05
460 460 0.00078124999999999993
461 460 4.3402777777777779e-05
491 460 4.3402777777777779e-05
492 460 4.3402777777777779e-05
2096 460 1.0850694444444445e-05
2097 460 1.0850694444444445e-05
2098 460 6.5104166666666666e-05
2100 460 6.5104166666666666e-05
2101 460 1.0850694444444445e-05
2191 460 6.5104166666666666e-05
2193 460 1.0850694444444445e-05
2194 460 6.5104166666666666e-05
2195 460 6.5104166666666666e-05
2196 460 6.5104166666666666e-05
2198 460 1.0850694444444445e-05
2289 460 1.0850694444444445e-05
461 461 0.00078124999999999993
462 461 4.3402777777777779e-05
492 461 4.3402777777777779e-05
493 461 4.3402777777777779e-05
2099 461 1.0850694444444445e-05
2100 461 1.0850694444444445e-05
2101 461 6.5104166666666666e-05
2103 461 6.5104166666666666e-05
2104 461 1.0850694444444445e-05
2194 461 6.5104166666666666e-05
2196 461 1.0850694444444445e-05
2197 461 6.5104166666666666e-05
2198 461 6.5104166666666666e-05
2199 461 6.5104166666666666e-05
2201 461 1.0850694444444445e-05
2292 461 1.0850694444444445e-05
462 462 0.00078124999999999993
463 462 4.3402777777777779e-05
493 462 4.3402777777777779e-05
494 462 4.3402777777777779e-05
2102 462 1.0850694444444445e-05
2103 462 1.0850694444444445e-05
2104 462 6.5104166666666666e-05
2106 462 6.5104166666666666e-05
2107 462 1.0850694444444445e-05
2197 462 6.5104166666666666e-05
2199 462 1.0850694444444445e-05
2200 462 6.5104166666666666e-05
2201 462 6.5104166666666666e-05
2202 462 6.5104166666666666e-05
2204 462 1.0850694444444445e-05
2295 462 1.0850694444444445e-05
463 463 0.00078124999999999993
464 463 4.3402777777777779e-05
494 463 4.3402777777777779e-05
495 463 4.3402777777777779e-05
2105 463 1.0850694444444445e-05
2106 463 1.0850694444444445e-05
2107 463 6.5104166666666666e-05
2109 463 6.5104166666666666e-05
2110 463 1.0850694444444445e-05
2200 463 6.5104166666666666e-05
2202 463 1.0850694444444445e-05
2203 463 6.5104166666666666e-05
2204 463 6.5104166666666666e-05
2205 463 6.5104166666666666e-05
2207 463 1.0850694444444445e-05
2298 463 1.0850694444444445e-05
464 464 0.00078124999999999993
465 464 4.3402777777777779e-05
495 464 4.3402777777777779e-05
496 464 4.3402777777777779e-05
2108 464 1.0850694444444445e-05
2109 464 1.0850694444444445e-05
2110 464 6.5104166666666666e-05
2112 464 6.5104166666666666e-05
2113 464 1.0850694444444445e-05
2203 464 6.5104166666666666e-05
2205 464 1.0850694444444445e-05
2206 464 6.5104166666666666e-05
2207 464 6.5104166666666666e-05
2208 464 6.5104166666666666e-05
2210 464 1.0850694444444445e-05
2301 464 1.0850694444444445e-05
465 465 0.00078124999999999993
466 465 4.3402777777777779e-05
496 465 4.3402777777777779e-05
497 465 4.3402777777777779e-05
2111 465 1.0850694444444445e-05
2112 465 1.0850694444444445e-05
2113 465 6.5104166666666666e-05
2115 465 6.5104166666666666e-05
2116 465 1.0850694444444445e-05
2206 465 6.5104166666666666e-05
2208 465 1.0850694444444445e-05
2209 465 6.5104166666666666e-05
2210 465 6.5104166666666666e-05
2211 465 6.5104166666666666e-05
2213 465 1.0850694444444445e-05
2304 465 1.0850694444444445e-05
466 466 0.00078124999999999993
467 466 4.3402777777777779e-05
497 466 4.3402777777777779e-05
498 466 4.3402777777777779e-05
2114 466 1.0850694444444445e-05
2115 466 1.0850694444444445e-05
2116 466 6.5104166666666666e-05
2118 466 6.5104166666666666e-05
2119 466 1.0850694444444445e-05
2209 466 6.5104166666666666e-05
2211 466 1.0850694444444445e-05
2212 466 6.5104166666666666e-05
2213 466 6.5104166666666666e-05
2214 466 6.5104166666666666e-05
2216 466 1.0850694444444445e-05
2307 466 1.0850694444444445e-05
467 467 0.00078124999999999993
468 467 4.3402777777777779e-05
498 467 4.3402777777777779e-05
499 467 4.3402777777777779e-05
2117 467 1.0850694444444445e-05
2118 467 1.0850694444444445e-05
2119 467 6.5104166666666666e-05
2121 467 6.5104166666666666e-05
2122 467 1.0850694444444445e-05
2212 467 6.5104166666666666e-05
2214 467 1.0850694444444445e-05
2215 467 6.5104166666666666e-05
2216 467 6.5104166666666666e-05
2217 467 6.5104166666666666e-05
2219 467 1.0850694444444445e-05
2310 467 1.0850694444444445e-05
468 468 0.00078124999999999993
469 468 4.3402777777777779e-05
499 468 4.3402777777777779e-05
500 468 4.3402777777777779e-05
2120 468 1.0850694444444445e-05
2121 468 1.0850694444444445e-05
2122 468 6.5104166666666666e-05
2124 468 6.5104166666666666e-05
2125 468 1.0850694444444445e-05
2215 468 6.5104166666666666e-05
2217 468 1.0850694444444445e-05
2218 468 6.5104166666666666e-05
2219 468 6.5104166666666666e-05
2220 468 6.5104166666666666e-05
2222 468 1.0850694444444445e-05
2313 468 1.0850694444444445e-05
469 469 0.00078124999999999993
470 469 4.3402777777777779e-05
500 469 4.3402777777777779e-05
501 469 4.3402777777777779e-05
2123 469 1.0850694444444445e-05
2124 469 1.0850694444444445e-05
2125 469 6.5104166666666666e-05
2127 469 6.5104166666666666e-05
2128 469 1.0850694444444445e-05
2218 469 6.5104166666666666e-05
2220 469 1.0850694444444445e-05
2221 469 6.5104166666666666e-05
2222 469 6.5104166666666666e-05
2223 469 6.5104166666666666e-05
2225 469 1.0850694444444445e-05
2316 469 1.0850694444444445e-05
470 470 0.00078124999999999993
471 470 4.3402777777777779e-05
501 470 4.3402777777777779e-05
502 470 4.3402777777777779e-05
2126 470 1.0850694444444445e-05
2127 470 1.0850694444444445e-05
2128 470 6.5104166666666666e-05
2130 470 6.5104166666666666e-05
2131 470 1.0850694444444445e-05
2221 470 6.5104166666666666e-05
2223 470 1.0850694444444445e-05
2224 470 6.5104166666666666e-05
2225 470 6.5104166666666666e-05
2226 470 6.5104166666666666e-05
2228 470 1.0850694444444445e-05
2319 470 1.0850694444444445e-05
471 471 0.00078124999999999993
472 471 4.3402777777777779e-05
502 471 4.3402777777777779e-05
503 471 4.3402777777777779e-05
2129 471 1.0850694444444445e-05
2130 471 1.0850694444444445e-05
2131 471 6.5104166666666666e-05
2133 471 6.5104166666666666e-05
2134 471 1.0850694444444445e-05
2224 471 6.5104166666666666e-05
2226 471 1.0850694444444445e-05
2227 471 6.5104166666666666e-05
2228 471 6.5104166666666666e-05
2229 471 6.5104166666666666e-05
2231 471 1.0850694444444445e-05
2322 471 1.0850694444444445e-05
472 472 0.00078124999999999993
473 472 4.3402777777777779e-05
503 472 4.3402777777777779e-05
504 472 4.3402777777777779e-05
2132 472 1.0850694444444445e-05
2133 472 1.0850694444444445e-05
2134 472 6.5104166666666666e-05
2136 472 6.5104166666666666e-05
2137 472 1.0850694444444445e-05
2227 472 6.5104166666666666e-05
2229 472 1.0850694444444445e-05
2230 472 6.5104166666666666e-05
2231 472 6.5104166666666666e-05
2232 472 6.5104166666666666e-05
2234 472 1.0850694444444445e-05
2325 472 1.0850694444444445e-05
473 473 0.00078124999999999993
474 473 4.3402777777777779e-05
504 473 4.3402777777777779e-05
505 473 4.3402777777777779e-05
2135 473 1.0850694444444445e-05
2136 473 1.0850694444444445e-05
2137 473 6.5104166666666666e-05
2139 473 6.5104166666666666e-05
2140 473 1.0850694444444445e-05
2230 473 6.5104166666666666e-05
2232 473 1.0850694444444445e-05
2233 473 6.5104166666666666e-05
2234 473 6.5104166666666666e-05
2235 473 6.5104166666666666e-05
2237 473 1.0850694444444445e-05
2328 473 1.0850694444444445e-05
474 474 0.00078124999999999993
475 474 4.3402777777777779e-05
505 474 4.3402777777777779e-05
506 474 4.3402777777777779e-05
2138 474 1.0850694444444445e-05
2139 474 1.0850694444444445e-05
2140 474 6.5104166666666666e-05
2142 474 6.5104166666666666e-05
2143 474 1.0850694444444445e-05
2233 474 6.5104166666666666e-05
2235 474 1.0850694444444445e-05
2236 474 6.5104166666666666e-05
2237 474 6.5104166666666666e-05
2238 474 6.5104166666666666e-05
2240 474 1.0850694444444445e-05
2331 474 1.0850694444444445e-05
475 475 0.00078124999999999993
476 475 4.3402777777777779e-05
506 475 4.3402777777777779e-05
507 475 4.3402777777777779e-05
2141 475 1.0850694444444445e-05
2142 475 1.0850694444444445e-05
2143 475 6.5104166666666666e-05
2145 475 6.5104166666666666e-05
2146 475 1.0850694444444445e-05
2236 475 6.5104166666666666e-05
2238 475 1.0850694444444445e-05
2239 475 6.5104166666666666e-05
2240 475 6.5104166666666666e-05
2241 475 6.5104166666666666e-05
2243 475 1.0850694444444445e-05
2334 475 1.0850694444444445e-05
476 476 0.00078124999999999993
477 476 4.3402777777777779e-05
507 476 4.3402777777777779e-05
508 476 4.3402777777777779e-05
2144 476 1.0850694444444445e-05
2145 476 1.0850694444444445e-05
2146 476 6.5104166666666666e-05
2148 476 6.5104166666666666e-05
2149 476 1.0850694444444445e-05
2239 476 6.5104166666666666e-05
2241 476 1.0850694444444445e-05
2242 476 6.5104166666666666e-05
2243 476 6.5104166666666666e-05
2244 476 6.5104166666666666e-05
2246 476 1.0850694444444445e-05
2337 476 1.0850694444444445e-05
477 477 0.00078124999999999993
478 477 4.3402777777777779e-05
508 477 4.3402777777777779e-05
509 477 4.3402777777777779e-05
2147 477 1.0850694444444445e-05
2148 477 1.0850694444444445e-05
2149 477 6.5104166666666666e-05
2151 477 6.5104166666666666e-05
2152 477 1.0850694444444445e-05
2242 477 6.5104166666666666e-05
2244 477 1.0850694444444445e-05
2245 477 6.5104166666666666e-05
2246 477 6.5104166666666666e-05
2247 477 6.5104166666666666e-05
2249 477 1.0850694444444445e-05
2340 477 1.0850694444444445e-05
478 478 0.00078124999999999993
479 478 4.3402777777777779e-05
509 478 4.3402777777777779e-05
510 478 4.3402777777777779e-05
2150 478 1.0850694444444445e-05
2151 478 1.0850694444444445e-05
2152 478 6.5104166666666666e-05
2154 478 6.5104166666666666e-05
2155 478 1.0850694444444445e-05
2245 478 6.5104166666666666e-05
2247 478 1.0850694444444445e-05
2248 478 6.5104166666666666e-05
2249 478 6.5104166666666666e-05
2250 478 6.5104166666666666e-05
2252 478 1.0850694444444445e-05
2343 478 1.0850694444444445e-05
479 479 0.00078124999999999993
480 479 4.3402777777777779e-05
510 479 4.3402777777777779e-05
511 479 4.3402777777777779e-05
2153 479 1.0850694444444445e-05
2154 479 1.0850694444444445e-05
2155 479 6.5104166666666666e-05
2157 479 6.5104166666666666e-05
2158 479 1.0850694444444445e-05
2248 479 6.5104166666666666e-05
2250 479 1.0850694444444445e-05
2251 479 6.5104166666666666e-05
2252 479 6.5104166666666666e-05
2253 479 6.5104166666666666e-05
2255 479 1.0850694444444445e-05
2346 479 1.0850694444444445e-05
480 480 0.00078124999999999993
481 480 4.3402777777777779e-05
511 480 4.3402777777777779e-05
512 480 4.3402777777777779e-05
2156 480 1.0850694444444445e-05
2157 480 1.0850694444444445e-05
2158 480 6.5104166666666666e-05
2160 480 6.5104166666666666e-05
2161 480 1.0850694444444445e-05
2251 480 6.5104166666666666e-05
2253 480 1.0850694444444445e-05
2254 480 6.5104166666666666e-05
2255 480 6.5104166666666666e-05
2256 480 6.5104166666666666e-05
2258 480 1.0850694444444445e-05
2349 480 1.0850694444444445e-05
481 481 0.00078124999999999993
482 481 4.3402777777777779e-05
512 481 4.3402777777777779e-05
513 481 4.3402777777777779e-05
2159 481 1.0850694444444445e-05
2160 481 1.0850694444444445e-05
2161 481 6.5104166666666666e-05
2163 481 6.5104166666666666e-05
2164 481 1.0850694444444445e-05
2254 481 6.5104166666666666e-05
2256 481 1.0850694444444445e-05
2257 481 6.5104166666666666e-05
2258 481 6.5104166666666666e-05
2259 481 6.5104166666666666e-05
2261 481 1.0850694444444445e-05
2352 481 1.0850694444444445e-05
482 482 0.00078124999999999993
483 482 4.3402777777777779e-05
513 482 4.3402777777777779e-05
514 482 4.3402777777777779e-05
2162 482 1.0850694444444445e-05
2163 482 1.0850694444444445e-05
2164 482 6.5104166666666666e-05
2166 482 6.5104166666666666e-05
2167 482 1.0850694444444445e-05
2257 482 6.5104166666666666e-05
2259 482 1.0850694444444445e-05
2260 482 6.5104166666666666e-05
2261 482 6.5104166666666666e-05
2262 482 6.5104166666666666e-05
2264 482 1.0850694444444445e-05
2355 482 1.0850694444444445e-05
483 483 0.00078124999999999993
484 483 4.3402777777777779e-05
514 483 4.3402777777777779e-05
515 483 4.3402777777777779e-05
2165 483 1.0850694444444445e-05
2166 483 1.0850694444444445e-05
2167 483 6.5104166666666666e-05
2169 483 6.5104166666666666e-05
2170 483 1.0850694444444445e-05
2260 483 6.5104166666666666e-05
2262 483 1.0850694444444445e-05
2263 483 6.5104166666666666e-05
2264 483 6.5104166666666666e-05
2265 483 6.5104166666666666e-05
2267 483 1.0850694444444445e-05
2358 483 1.0850694444444445e-05
484 484 0.00078124999999999993
485 484 4.3402777777777779e-05
515 484 4.3402777777777779e-05
516 484 4.3402777777777779e-05
2168 484 1.0850694444444445e-05
2169 484 1.0850694444444445e-05
2170 484 6.5104166666666666e-05
2172 484 6.5104166666666666e-05
2173 484 1.0850694444444445e-05
2263 484 6.5104166666666666e-05
2265 484 1.0850694444444445e-05
2266 484 6.5104166666666666e-05
2267 484 6.5104166666666666e-05
2268 484 6.5104166666666666e-05
2270 484 1.0850694444444445e-05
2361 484 1.0850694444444445e-05
485 485 0.00078124999999999993
486 485 4.3402777777777779e-05
516 485 4.3402777777777779e-05
517 485 4.3402777777777779e-05
2171 485 1.0850694444444445e-05
2172 485 1.0850694444444445e-05
2173 485 6.5104166666666666e-05
2175 485 6.5104166666666666e-05
2176 485 1.0850694444444445e-05
2266 485 6.5104166666666666e-05
2268 485 1.0850694444444445e-05
2269 485 6.5104166666666666e-05
2270 485 6.5104166666666666e-05
2271 485 6.5104166666666666e-05
2273 485 1.0850694444444445e-05
2364 485 1.0850694444444445e-05
486 486 0.00078124999999999993
487 486 4.3402777777777779e-05
517 486 4.3402777777777779e-05
518 486 4.3402777777777779e-05
2174 486 1.0850694444444445e-05
2175 486 1.0850694444444445e-05
2176 486 6.5104166666666666e-05
2178 486 6.5104166666666666e-05
2179 486 1.0850694444444445e-05
2269 486 6.5104166666666666e-05
2271 486 1.0850694444444445e-05
2272 486 6.5104166666666666e-05
2273 486 6.5104166666666666e-05
2274 486 6.5104166666666666e-05
2276 486 1.0850694444444445e-05
2367 486 1.0850694444444445e-05
487 487 0.00078124999999999993
488 487 4.3402777777777779e-05
518 487 4.3402777777777779e-05
519 487 4.3402777777777779e-05
2177 487 1.0850694444444445e-05
2178 487 1.0850694444444445e-05
2179 487 6.5104166666666666e-05
2181 487 6.5104166666666666e-05
2182 487 1.0850694444444445e-05
2272 487 6.5104166666666666e-05
2274 487 1.0850694444444445e-05
2275 487 6.5104166666666666e-05
2276 487 6.5104166666666666e-05
2277 487 6.5104166666666666e-05
2279 487 1.0850694444444445e-05
2370 487 1.0850694444444445e-05
488 488 0.00078124999999999993
519 488 4.3402777777777779e-05
2180 488 1.0850694444444445e-05
2181 488 1.0850694444444445e-05
2182 488 6.5104166666666666e-05
2184 488 6.5104166666666666e-05
2185 488 1.0850694444444445e-05
2275 488 6.5104166666666666e-05
2277 488 1.0850694444444445e-05
2278 488 6.5104166666666666e-05
2279 488 6.5104166666666666e-05
2280 488 6.5104166666666666e-05
2373 488 1.0850694444444445e-05
489 489 0.00078124999999999993
490 489 4.3402777777777779e-05
520 489 4.3402777777777779e-05
521 489 4.3402777777777779e-05
2186 489 1.0850694444444445e-05
2187 489 6.5104166666666666e-05
2189 489 6.5104166666666666e-05
2190 489 1.0850694444444445e-05
2281 489 6.5104166666666666e-05
2282 489 1.0850694444444445e-05
2283 489 6.5104166666666666e-05
2284 489 6.5104166666666666e-05
2285 489 6.5104166666666666e-05
2287 489 1.0850694444444445e-05
2378 489 1.0850694444444445e-05
490 490 0.00078124999999999993
491 490 4.3402777777777779e-05
521 490 4.3402777777777779e-05
522 490 4.3402777777777779e-05
2188 490 1.0850694444444445e-05
2189 490 1.0850694444444445e-05
2190 490 6.5104166666666666e-05
2192 490 6.5104166666666666e-05
2193 490 1.0850694444444445e-05
2283 490 6.5104166666666666e-05
2285 490 1.0850694444444445e-05
2286 490 6.5104166666666666e-05
2287 490 6.5104166666666666e-05
2288 490 6.5104166666666666e-05
2290 490 1.0850694444444445e-05
2381 490 1.0850694444444445e-05
491 491 0.00078124999999999993
492 491 4.3402777777777779e-05
522 491 4.3402777777777779e-05
523 491 4.3402777777777779e-05
2191 491 1.0850694444444445e-05
2192 491 1.0850694444444445e-05
2193 491 6.5104166666666666e-05
2195 491 6.5104166666666666e-05
2196 491 1.0850694444444445e-05
2286 491 6.5104166666666666e-05
2288 491 1.0850694444444445e-05
2289 491 6.5104166666666666e-05
2290 491 6.5104166666666666e-05
2291 491 6.5104166666666666e-05
2293 491 1.0850694444444445e-05
2384 491 1.0850694444444445e-05
492 492 0.00078124999999999993
493 492 4.3402777777777779e-05
523 492 4.3402777777777779e-05
524 492 4.3402777777777779e-05
2194 492 1.0850694444444445e-05
2195 492 1.0850694444444445e-05
2196 492 6.5104166666666666e-05
2198 492 6.5104166666666666e-05
2199 492 1.0850694444444445e-05
2289 492 6.5104166666666666e-05
2291 492 1.0850694444444445e-05
2292 492 6.5104166666666666e-05
2293 492 6.5104166666666666e-05
2294 492 6.5104166666666666e-05
2296 492 1.0850694444444445e-05
2387 492 1.0850694444444445e-05
493 493 0.00078124999999999993
494 493 4.3402777777777779e-05
524 493 4.3402777777777779e-05
525 493 4.3402777777777779e-05
2197 493 1.0850694444444445e-05
2198 493 1.0850694444444445e-05
2199 493 6.5104166666666666e-05
2201 493 6.5104166666666666e-05
2202 493 1.0850694444444445e-05
2292 493 6.5104166666666666e-05
2294 493 1.0850694444444445e-05
2295 493 6.5104166666666666e-05
2296 493 6.5104166666666666e-05
2297 493 6.5104166666666666e-05
2299 493 1.0850694444444445e-05
2390 493 1.0850694444444445e-05
494 494 0.00078124999999999993
495 494 4.3402777777777779e-05
525 494 4.3402777777777779e-05
526 494 4.3402777777777779e-05
2200 494 1.0850694444444445e-05
2201 494 1.0850694444444445e-05
2202 494 6.5104166666666666e-05
2204 494 6.5104166666666666e-05
2205 494 1.0850694444444445e-05
2295 494 6.5104166666666666e-05
2297 494 1.0850694444444445e-05
2298 494 6.5104166666666666e-05
2299 494 6.5104166666666666e-05
2300 494 6.5104166666666666e-05
2302 494 1.0850694444444445e-05
2393 494 1.0850694444444445e-05
495 495 0.00078124999999999993
496 495 4.3402777777777779e-05
526 495 4.3402777777777779e-05
527 495 4.3402777777777779e-05
2203 495 1.0850694444444445e-05
2204 495 1.0850694444444445e-05
2205 495 6.5104166666666666e-05
2207 495 6.5104166666666666e-05
2208 495 1.0850694444444445e-05
2298 495 6.5104166666666666e-05
2300 495 1.0850694444444445e-05
2301 495 6.5104166666666666e-05
2302 495 6.5104166666666666e-05
2303 495 6.5104166666666666e-05
2305 495 1.0850694444444445e-05
2396 495 1.0850694444444445e-05
496 496 0.00078124999999999993
497 496 4.3402777777777779e-05
527 496 4.3402777777777779e-05
528 496 4.3402777777777779e-05
2206 496 1.0850694444444445e-05
2207 496 1.0850694444444445e-05
2208 496 6.5104166666666666e-05
2210 496 6.5104166666666666e-05
2211 496 1.0850694444444445e-05
2301 496 6.5104166666666666e-05
2303 496 1.0850694444444445e-05
2304 496 6.5104166666666666e-05
2305 496 6.5104166666666666e-05
2306 496 6.5104166666666666e-05
2308 496 1.0850694444444445e-05
2399 496 1.0850694444444445e-05
497 497 0.00078124999999999993
498 497 4.3402777777777779e-05
528 497 4.3402777777777779e-05
529 497 4.3402777777777779e-05
2209 497 1.0850694444444445e-05
2210 497 1.0850694444444445e-05
2211 497 6.5104166666666666e-05
2213 497 6.5104166666666666e-05
2214 497 1.0850694444444445e-05
2304 497 6.5104166666666666e-05
2306 497 1.0850694444444445e-05
2307 497 6.5104166666666666e-05
2308 497 6.5104166666666666e-05
2309 497 6.5104166666666666e-05
2311 497 1.0850694444444445e-05
2402 497 1.0850694444444445e-05
498 498 0.00078124999999999993
499 498 4.3402777777777779e-05
529 498 4.3402777777777779e-05
530 498 4.3402777777777779e-05
2212 498 1.0850694444444445e-05
2213 498 1.0850694444444445e-05
2214 498 6.5104166666666666e-05
2216 498 6.5104166666666666e-05
2217 498 1.0850694444444445e-05
2307 498 6.5104166666666666e-05
2309 498 1.0850694444444445e-05
2310 498 6.5104166666666666e-05
2311 498 6.5104166666666666e-05
2312 498 6.5104166666666666e-05
2314 498 1.0850694444444445e-05
2405 498 1.0850694444444445e-05
499 499 0.00078124999999999993
500 499 4.3402777777777779e-05
530 499 4.3402777777777779e-05
531 499 4.3402777777777779e-05
2215 499 1.0850694444444445e-05
2216 499 1.0850694444444445e-05
2217 499 6.5104166666666666e-05
2219 499 6.5104166666666666e-05
2220 499 1.0850694444444445e-05
2310 499 6.5104166666666666e-05
2312 499 1.0850694444444445e-05
2313 499 6.5104166666666666e-05
2314 499 6.5104166666666666e-05
2315 499 6.5104166666666666e-05
2317 499 1.0850694444444445e-05
2408 499 1.0850694444444445e-05
500 500 0.00078124999999999993
501 500 4.3402777777777779e-05
531 500 4.3402777777777779e-05
532 500 4.3402777777777779e-05
2218 500 1.0850694444444445e-05
2219 500 1.0850694444444445e-05
2220 500 6.5104166666666666e-05
2222 500 6.5104166666666666e-05
2223 500 1.0850694444444445e-05
2313 500 6.5104166666666666e-05
2315 500 1.0850694444444445e-05
2316 500 6.5104166666666666e-05
2317 500 6.5104166666666666e-05
2318 500 6.5104166666666666e-05
2320 500 1.0850694444444445e-05
2411 500 1.0850694444444445e-05
501 501 0.00078124999999999993
502 501 4.3402777777777779e-05
532 501 4.3402777777777779e-05
533 501 4.3402777777777779e-05
2221 501 1.0850694444444445e-05
2222 501 1.0850694444444445e-05
2223 501 6.5104166666666666e-05
2225 501 6.5104166666666666e-05
2226 501 1.0850694444444445e-05
2316 501 6.5104166666666666e-05
2318 501 1.0850694444444445e-05
2319 501 6.5104166666666666e-05
2320 501 6.5104166666666666e-05
2321 501 6.5104166666666666e-05
2323 501 1.0850694444444445e-05
2414 501 1.0850694444444445e-05
502 502 0.00078124999999999993
503 502 4.3402777777777779e-05
533 502 4.3402777777777779e-05
534 502 4.3402777777777779e-05
2224 502 1.0850694444444445e-05
2225 502 1.0850694444444445e-05
2226 502 6.5104166666666666e-05
2228 502 6.5104166666666666e-05
2229 502 1.0850694444444445e-05
2319 502 6.5104166666666666e-05
2321 502 1.0850694444444445e-05
2322 502 6.5104166666666666e-05
2323 502 6.5104166666666666e-05
2324 502 6.5104166666666666e-05
2326 502 1.0850694444444445e-05
2417 502 1.0850694444444445e-05
503 503 0.00078124999999999993
504 503 4.3402777777777779e-05
534 503 4.3402777777777779e-05
535 503 4.3402777777777779e-05
2227 503 1.0850694444444445e-05
2228 503 1.0850694444444445e-05
2229 503 6.5104166666666666e-05
2231 503 6.5104166666666666e-05
2232 503 1.0850694444444445e-05
2322 503 6.5104166666666666e-05
2324 503 1.0850694444444445e-05
2325 503 6.5104166666666666e-05
2326 503 6.5104166666666666e-05
2327 503 6.5104166666666666e-05
2329 503 1.0850694444444445e-05
2420 503 1.0850694444444445e-05
504 504 0.00078124999999999993
505 504 4.3402777777777779e-05
535 504 4.3402777777777779e-05
536 504 4.3402777777777779e-05
2230 504 1.0850694444444445e-05
2231 504 1.0850694444444445e-05
2232 504 6.5104166666666666e-05
2234 504 6.5104166666666666e-05
2235 504 1.0850694444444445e-05
2325 504 6.5104166666666666e-05
2327 504 1.0850694444444445e-05
2328 504 6.5104166666666666e-05
2329 504 6.5104166666666666e-05
2330 504 6.5104166666666666e-05
2332 504 1.0850694444444445e-05
2423 504 1.0850694444444445e-05
505 505 0.00078124999999999993
506 505 4.3402777777777779e-05
536 505 4.3402777777777779e-05
537 505 4.3402777777777779e-05
2233 505 1.0850694444444445e-05
2234 505 1.0850694444444445e-05
2235 505 6.5104166666666666e-05
2237 505 6.5104166666666666e-05
2238 505 1.0850694444444445e-05
2328 505 6.5104166666666666e-05
2330 505 1.0850694444444445e-05
2331 505 6.5104166666666666e-05
2332 505 6.5104166666666666e-05
2333 505 6.5104166666666666e-05
2335 505 1.0850694444444445e-05
2426 505 1.0850694444444445e-05
506 506 0.00078124999999999993
507 506 4.3402777777777779e-05
537 506 4.3402777777777779e-05
538 506 4.3402777777777779e-05
2236 506 1.0850694444444445e-05
2237 506 1.0850694444444445e-05
2238 506 6.5104166666666666e-05
2240 506 6.5104166666666666e-05
2241 506 1.0850694444444445e-05
2331 506 6.5104166666666666e-05
2333 506 1.0850694444444445e-05
2334 506 6.5104166666666666e-05
2335 506 6.5104166666666666e-05
2336 506 6.5104166666666666e-05
2338 506 1.0850694444444445e-05
2429 506 1.0850694444444445e-05
507 507 0.00078124999999999993
508 507 4.3402777777777779e-05
538 507 4.3402777777777779e-05
539 507 4.3402777777777779e-05
2239 507 1.0850694444444445e-05
2240 507 1.0850694444444445e-05
2241 507 6.5104166666666666e-05
2243 507 6.5104166666666666e-05
2244 507 1.0850694444444445e-05
2334 507 6.5104166666666666e-05
2336 507 1.0850694444444445e-05
2337 507 6.5104166666666666e-05
2338 507 6.5104166666666666e-05
2339 507 6.5104166666666666e-05
2341 507 1.0850694444444445e-05
2432 507 1.0850694444444445e-05
508 508 0.00078124999999999993
509 508 4.3402777777777779e-05
539 508 4.3402777777777779e-05
540 508 4.3402777777777779e-05
2242 508 1.0850694444444445e-05
2243 508 1.0850694444444445e-05
2244 508 6.5104166666666666e-05
2246 508 6.5104166666666666e-05
2247 508 1.0850694444444445e-05
2337 508 6.5104166666666666e-05
2339 508 1.0850694444444445e-05
2340 508 6.5104166666666666e-05
2341 508 6.5104166666666666e-05
2342 508 6.5104166666666666e-05
2344 508 1.0850694444444445e-05
2435 508 1.0850694444444445e-05
509 509 0.00078124999999999993
510 509 4.3402777777777779e-05
540 509 4.3402777777777779e-05
541 509 4.3402777777777779e-05
2245 509 1.0850694444444445e-05
2246 509 1.0850694444444445e-05
2247 509 6.5104166666666666e-05
2249 509 6.5104166666666666e-05
2250 509 1.0850694444444445e-05
2340 509 6.5104166666666666e-05
2342 509 1.0850694444444445e-05
2343 509 6.5104166666666666e-05
2344 509 6.5104166666666666e-05
2345 509 6.5104166666666666e-05
2347 509 1.0850694444444445e-05
2438 509 1.0850694444444445e-05
510 510 0.00078124999999999993
511 510 4.3402777777777779e-05
541 510 4.3402777777777779e-05
542 510 4.3402777777777779e-05
2248 510 1.0850694444444445e-05
2249 510 1.0850694444444445e-05
2250 510 6.5104166666666666e-05
2252 510 6.5104166666666666e-05
2253 510 1.0850694444444445e-05
2343 510 6.5104166666666666e-05
2345 510 1.0850694444444445e-05
2346 510 6.5104166666666666e-05
2347 510 6.5104166666666666e-05
2348 510 6.5104166666666666e-05
2350 510 1.0850694444444445e-05
2441 510 1.0850694444444445e-05
511 511 0.00078124999999999993
512 511 4.3402777777777779e-05
542 511 4.3402777777777779e-05
543 511 4.3402777777777779e-05
2251 511 1.0850694444444445e-05
2252 511 1.0850694444444445e-05
2253 511 6.5104166666666666e-05
2255 511 6.5104166666666666e-05
2256 511 1.0850694444444445e-05
2346 511 6.5104166666666666e-05
2348 511 1.0850694444444445e-05
2349 511 6.5104166666666666e-05
2350 511 6.5104166666666666e-05
2351 511 6.5104166666666666e-05
2353 511 1.0850694444444445e-05
2444 511 1.0850694444444445e-05
512 512 0.00078124999999999993
513 512 4.3402777777777779e-05
543 512 4.3402777777777779e-05
544 512 4.3402777777777779e-05
2254 512 1.0850694444444445e-05
2255 512 1.0850694444444445e-05
2256 512 6.5104166666666666e-05
2258 512 6.5104166666666666e-05
2259 512 1.0850694444444445e-05
2349 512 6.5104166666666666e-05
2351 512 1.0850694444444445e-05
2352 512 6.5104166666666666e-05
2353 512 6.5104166666666666e-05
2354 512 6.5104166666666666e-05
2356 512 1.0850694444444445e-05
2447 512 1.0850694444444445e-05
513 513 0.00078124999999999993
514 513 4.3402777777777779e-05
544 513 4.3402777777777779e-05
545 513 4.3402777777777779e-05
2257 513 1.0850694444444445e-05
2258 513 1.0850694444444445e-05
2259 513 6.5104166666666666e-05
2261 513 6.5104166666666666e-05
2262 513 1.0850694444444445e-05
2352 513 6.5104166666666666e-05
2354 513 1.0850694444444445e-05
2355 513 6.5104166666666666e-05
2356 513 6.5104166666666666e-05
2357 513 6.5104166666666666e-05
2359 513 1.0850694444444445e-05
2450 513 1.0850694444444445e-05
514 514 0.00078124999999999993
515 514 4.3402777777777779e-05
545 514 4.3402777777777779e-05
546 514 4.3402777777777779e-05
2260 514 1.0850694444444445e-05
2261 514 1.0850694444444445e-05
2262 514 6.5104166666666666e-05
2264 514 6.5104166666666666e-05
2265 514 1.0850694444444445e-05
2355 514 6.5104166666666666e-05
2357 514 1.0850694444444445e-05
2358 514 6.5104166666666666e-05
2359 514 6.5104166666666666e-05
2360 514 6.5104166666666666e-05
2362 514 1.0850694444444445e-05
2453 514 1.0850694444444445e-05
515 515 0.00078124999999999993
516 515 4.3402777777777779e-05
546 515 4.3402777777777779e-05
547 515 4.3402777777777779e-05
2263 515 1.0850694444444445e-05
2264 515 1.0850694444444445e-05
2265 515 6.5104166666666666e-05
2267 515 6.5104166666666666e-05
2268 515 1.0850694444444445e-05
2358 515 6.5104166666666666e-05
2360 515 1.0850694444444445e-05
2361 515 6.5104166666666666e-05
2362 515 6.5104166666666666e-05
2363 515 6.5104166666666666e-05
2365 515 1.0850694444444445e-05
2456 515 1.0850694444444445e-05
516 516 0.00078124999999999993
517 516 4.3402777777777779e-05
547 516 4.3402777777777779e-05
548 516 4.3402777777777779e-05
2266 516 1.0850694444444445e-05
2267 516 1.0850694444444445e-05
2268 516 6.5104166666666666e-05
2270 516 6.5104166666666666e-05
2271 516 1.0850694444444445e-05
2361 516 6.5104166666666666e-05
2363 516 1.0850694444444445e-05
2364 516 6.5104166666666666e-05
2365 516 6.5104166666666666e-05
2366 516 6.5104166666666666e-05
2368 516 1.0850694444444445e-05
2459 516 1.0850694444444445e-05
517 517 0.00078124999999999993
518 517 4.3402777777777779e-05
548 517 4.3402777777777779e-05
549 517 4.3402777777777779e-05
2269 517 1.0850694444444445e-05
2270 517 1.0850694444444445e-05
2271 517 6.5104166666666666e-05
2273 517 6.5104166666666666e-05
2274 517 1.0850694444444445e-05
2364 517 6.5104166666666666e-05
2366 517 1.0850694444444445e-05
2367 517 6.5104166666666666e-05
2368 517 6.5104166666666666e-05
2369 517 6.5104166666666666e-05
2371 517 1.0850694444444445e-05
2462 517 1.0850694444444445e-05
518 518 0.00078124999999999993
519 518 4.3402777777777779e-05
549 518 4.3402777777777779e-05
550 518 4.3402777777777779e-05
2272 518 1.0850694444444445e-05
2273 518 1.0850694444444445e-05
2274 518 6.5104166666666666e-05
2276 518 6.5104166666666666e-05
2277 518 1.0850694444444445e-05
2367 518 6.5104166666666666e-05
2369 518 1.0850694444444445e-05
2370 518 6.5104166666666666e-05
2371 518 6.5104166666666666e-05
2372 518 6.5104166666666666e-05
2374 518 1.0850694444444445e-05
2465 518 1.0850694444444445e-05
519 519 0.00078124999999999993
550 519 4.3402777777777779e-05
2275 519 1.0850694444444445e-05
2276 519 1.0850694444444445e-05
2277 519 6.5104166666666666e-05
2279 519 6.5104166666666666e-05
2280 519 1.0850694444444445e-05
2370 519 6.5104166666666666e-05
2372 519 1.0850694444444445e-05
2373 519 6.5104166666666666e-05
2374 519 6.5104166666666666e-05
2375 519 6.5104166666666666e-05
2468 519 1.0850694444444445e-05
520 520 0.00078124999999999993
521 520 4.3402777777777779e-05
551 520 4.3402777777777779e-05
552 520 4.3402777777777779e-05
2281 520 1.0850694444444445e-05
2282 520 6.5104166666666666e-05
2284 520 6.5104166666666666e-05
2285 520 1.0850694444444445e-05
2376 520 6.5104166666666666e-05
2377 520 1.0850694444444445e-05
2378 520 6.5104166666666666e-05
2379 520 6.5104166666666666e-05
2380 520 6.5104166666666666e-05
2382 520 1.0850694444444445e-05
2473 520 1.0850694444444445e-05
521 521 0.00078124999999999993
522 521 4.3402777777777779e-05
552 521 4.3402777777777779e-05
553 521 4.3402777777777779e-05
2283 521 1.0850694444444445e-05
2284 521 1.0850694444444445e-05
2285 521 6.5104166666666666e-05
2287 521 6.5104166666666666e-05
2288 521 1.0850694444444445e-05
2378 521 6.5104166666666666e-05
2380 521 1.0850694444444445e-05
2381 521 6.5104166666666666e-05
2382 521 6.5104166666666666e-05
2383 521 6.5104166666666666e-05
2385 521 1.0850694444444445e-05
2476 521 1.0850694444444445e-05
522 522 0.00078124999999999993
523 522 4.3402777777777779e-05
553 522 4.3402777777777779e-05
554 522 4.3402777777777779e-05
2286 522 1.0850694444444445e-05
2287 522 1.0850694444444445e-05
2288 522 6.5104166666666666e-05
2290 522 6.5104166666666666e-05
2291 522 1.0850694444444445e-05
2381 522 6.5104166666666666e-05
2383 522 1.0850694444444445e-05
2384 522 6.5104166666666666e-05
2385 522 6.5104166666666666e-05
2386 522 6.5104166666666666e-05
2388 522 1.0850694444444445e-05
2479 522 1.0850694444444445e-05
523 523 0.00078124999999999993
524 523 4.3402777777777779e-05
554 523 4.3402777777777779e-05
555 523 4.3402777777777779e-05
2289 523 1.0850694444444445e-05
2290 523 1.0850694444444445e-05
2291 523 6.5104166666666666e-05
2293 523 6.5104166666666666e-05
2294 523 1.0850694444444445e-05
2384 523 6.5104166666666666e-05
2386 523 1.0850694444444445e-05
2387 523 6.5104166666666666e-05
2388 523 6.5104166666666666e-05
2389 523 6.5104166666666666e-05
2391 523 1.0850694444444445e-05
2482 523 1.0850694444444445e-05
524 524 0.00078124999999999993
525 524 4.3402777777777779e-05
555 524 4.3402777777777779e-05
556 524 4.3402777777777779e-05
2292 524 1.0850694444444445e-05
2293 524 1.0850694444444445e-05
2294 524 6.5104166666666666e-05
2296 524 6.5104166666666666e-05
2297 524 1.0850694444444445e-05
2387 524 6.5104166666666666e-05
2389 524 1.0850694444444445e-05
2390 524 6.5104166666666666e-05
2391 524 6.5104166666666666e-05
2392 524 6.5104166666666666e-05
2394 524 1.0850694444444445e-05
2485 524 1.0850694444444445e-05
525 525 0.00078124999999999993
526 525 4.3402777777777779e-05
556 525 4.3402777777777779e-05
557 525 4.3402777777777779e-05
2295 525 1.0850694444444445e-05
2296 525 1.0850694444444445e-05
2297 525 6.5104166666666666e-05
2299 525 6.5104166666666666e-05
2300 525 1.0850694444444445e-05
2390 525 6.5104166666666666e-05
2392 525 1.0850694444444445e-05
2393 525 6.5104166666666666e-05
2394 525 6.5104166666666666e-05
2395 525 6.5104166666666666e-05
2397 525 1.0850694444444445e-05
2488 525 1.0850694444444445e-05
526 526 0.00078124999999999993
527 526 4.3402777777777779e-05
557 526 4.3402777777777779e-05
558 526 4.3402777777777779e-05
2298 526 1.0850694444444445e-05
2299 526 1.0850694444444445e-05
2300 526 6.5104166666666666e-05
2302 526 6.5104166666666666e-05
2303 526 1.0850694444444445e-05
2393 526 6.5104166666666666e-05
2395 526 1.0850694444444445e-05
2396 526 6.5104166666666666e-05
2397 526 6.5104166666666666e-05
2398 526 6.5104166666666666e-05
2400 526 1.0850694444444445e-05
2491 526 1.0850694444444445e-05
527 527 0.00078124999999999993
528 527 4.3402777777777779e-05
558 527 4.3402777777777779e-05
559 527 4.3402777777777779e-05
2301 527 1.0850694444444445e-05
2302 527 1.0850694444444445e-05
2303 527 6.5104166666666666e-05
2305 527 6.5104166666666666e-05
2306 527 1.0850694444444445e-05
2396 527 6.5104166666666666e-05
2398 527 1.0850694444444445e-05
2399 527 6.5104166666666666e-05
2400 527 6.5104166666666666e-05
2401 527 6.5104166666666666e-05
2403 527 1.0850694444444445e-05
2494 527 1.0850694444444445e-05
528 528 0.00078124999999999993
529 528 4.3402777777777779e-05
559 528 4.3402777777777779e-05
560 528 4.3402777777777779e-05
2304 528 1.0850694444444445e-05
2305 528 1.0850694444444445e-05
2306 528 6.5104166666666666e-05
2308 528 6.5104166666666666e-05
2309 528 1.0850694444444445e-05
2399 528 6.5104166666666666e-05
2401 528 1.0850694444444445e-05
2402 528 6.5104166666666666e-05
2403 528 6.5104166666666666e-05
2404 528 6.5104166666666666e-05
2406 528 1.0850694444444445e-05
2497 528 1.0850694444444445e-05
529 529 0.00078124999999999993
530 529 4.3402777777777779e-05
560 529 4.3402777777777779e-05
561 529 4.3402777777777779e-05
2307 529 1.0850694444444445e-05
2308 529 1.0850694444444445e-05
2309 529 6.5104166666666666e-05
2311 529 6.5104166666666666e-05
2312 529 1.0850694444444445e-05
2402 529 6.5104166666666666e-05
2404 529 1.0850694444444445e-05
2405 529 6.5104166666666666e-05
2406 529 6.5104166666666666e-05
2407 529 6.5104166666666666e-05
2409 529 1.0850694444444445e-05
2500 529 1.0850694444444445e-05
530 530 0.00078124999999999993
531 530 4.3402777777777779e-05
561 530 4.3402777777777779e-05
562 530 4.3402777777777779e-05
2310 530 1.0850694444444445e-05
2311 530 1.0850694444444445e-05
2312 530 6.5104166666666666e-05
2314 530 6.5104166666666666e-05
2315 530 1.0850694444444445e-05
2405 530 6.5104166666666666e-05
2407 530 1.0850694444444445e-05
2408 530 6.5104166666666666e-05
2409 530 6.5104166666666666e-05
2410 530 6.5104166666666666e-05
2412 530 1.0850694444444445e-05
2503 530 1.0850694444444445e-05
531 531 0.00078124999999999993
532 531 4.3402777777777779e-05
562 531 4.3402777777777779e-05
563 531 4.3402777777777779e-05
2313 531 1.0850694444444445e-05
2314 531 1.0850694444444445e-05
2315 531 6.5104166666666666e-05
2317 531 6.5104166666666666e-05
2318 531 1.0850694444444445e-05
2408 531 6.5104166666666666e-05
2410 531 1.0850694444444445e-05
2411 531 6.5104166666666666e-05
2412 531 6.5104166666666666e-05
2413 531 6.5104166666666666e-05
2415 531 1.0850694444444445e-05
2506 531 1.0850694444444445e-05
532 532 0.00078124999999999993
533 532 4.3402777777777779e-05
563 532 4.3402777777777779e-05
564 532 4.3402777777777779e-05
2316 532 1.0850694444444445e-05
2317 532 1.0850694444444445e-05
2318 532 6.5104166666666666e-05
2320 532 6.5104166666666666e-05
2321 532 1.0850694444444445e-05
2411 532 6.5104166666666666e-05
2413 532 1.0850694444444445e-05
2414 532 6.5104166666666666e-05
2415 532 6.5104166666666666e-05
2416 532 6.5104166666666666e-05
2418 532 1.0850694444444445e-05
2509 532 1.0850694444444445e-05
533 533 0.00078124999999999993
534 533 4.3402777777777779e-05
564 533 4.3402777777777779e-05
565 533 4.3402777777777779e-05
2319 533 1.0850694444444445e-05
2320 533 1.0850694444444445e-05
2321 533 6.5104166666666666e-05
2323 533 6.5104166666666666e-05
2324 533 1.0850694444444445e-05
2414 533 6.5104166666666666e-05
2416 533 1.0850694444444445e-05
2417 533 6.5104166666666666e-05
2418 533 6.5104166666666666e-05
2419 533 6.5104166666666666e-05
2421 533 1.0850694444444445e-05
2512 533 1.0850694444444445e-05
534 534 0.00078124999999999993
535 534 4.3402777777777779e-05
565 534 4.3402777777777779e-05
566 534 4.3402777777777779e-05
2322 534 1.0850694444444445e-05
2323 534 1.0850694444444445e-05
2324 534 6.5104166666666666e-05
2326 534 6.5104166666666666e-05
2327 534 1.0850694444444445e-05
2417 534 6.5104166666666666e-05
2419 534 1.0850694444444445e-05
2420 534 6.5104166666666666e-05
2421 534 6.5104166666666666e-05
2422 534 6.5104166666666666e-05
2424 534 1.0850694444444445e-05
2515 534 1.0850694444444445e-05
535 535 0.00078124999999999993
536 535 4.3402777777777779e-05
566 535 4.3402777777777779e-05
567 535 4.3402777777777779e-05
2325 535 1.0850694444444445e-05
2326 535 1.0850694444444445e-05
2327 535 6.5104166666666666e-05
2329 535 6.5104166666666666e-05
2330 535 1.0850694444444445e-05
2420 535 6.5104166666666666e-05
2422 535 1.0850694444444445e-05
2423 535 6.5104166666666666e-05
2424 535 6.5104166666666666e-05
2425 535 6.5104166666666666e-05
2427 535 1.0850694444444445e-05
2518 535 1.0850694444444445e-05
536 536 0.00078124999999999993
537 536 4.3402777777777779e-05
567 536 4.3402777777777779e-05
568 536 4.3402777777777779e-05
2328 536 1.0850694444444445e-05
2329 536 1.0850694444444445e-05
2330 536 6.5104166666666666e-05
2332 536 6.5104166666666666e-05
2333 536 1.0850694444444445e-05
2423 536 6.5104166666666666e-05
2425 536 1.0850694444444445e-05
2426 536 6.5104166666666666e-05
2427 536 6.5104166666666666e-05
2428 536 6.5104166666666666e-05
2430 536 1.0850694444444445e-05
2521 536 1.0850694444444445e-05
537 537 0.00078124999999999993
538 537 4.3402777777777779e-05
568 537 4.3402777777777779e-05
569 537 4.3402777777777779e-05
2331 537 1.0850694444444445e-05
2332 537 1.0850694444444445e-05
2333 537 6.5104166666666666e-05
2335 537 6.5104166666666666e-05
2336 537 1.0850694444444445e-05
2426 537 6.5104166666666666e-05
2428 537 1.0850694444444445e-05
2429 537 6.5104166666666666e-05
2430 537 6.5104166666666666e-05
2431 537 6.5104166666666666e-05
2433 537 1.0850694444444445e-05
2524 537 1.0850694444444445e-05
538 538 0.00078124999999999993
539 538 4.3402777777777779e-05
569 538 4.3402777777777779e-05
570 538 4.3402777777777779e-05
2334 538 1.0850694444444445e-05
2335 538 1.0850694444444445e-05
2336 538 6.5104166666666666e-05
2338 538 6.5104166666666666e-05
2339 538 1.0850694444444445e-05
2429 538 6.5104166666666666e-05
2431 538 1.0850694444444445e-05
2432 538 6.5104166666666666e-05
2433 538 6.5104166666666666e-05
2434 538 6.5104166666666666e-05
2436 538 1.0850694444444445e-05
2527 538 1.0850694444444445e-05
539 539 0.00078124999999999993
540 539 4.3402777777777779e-05
570 539 4.3402777777777779e-05
571 539 4.3402777777777779e-05
2337 539 1.0850694444444445e-05
2338 539 1.0850694444444445e-05
2339 539 6.5104166666666666e-05
2341 539 6.5104166666666666e-05
2342 539 1.0850694444444445e-05
2432 539 6.5104166666666666e-05
2434 539 1.0850694444444445e-05
2435 539 6.5104166666666666e-05
2436 539 6.5104166666666666e-05
2437 539 6.5104166666666666e-05
2439 539 1.0850694444444445e-05
2530 539 1.0850694444444445e-05
540 540 0.00078124999999999993
541 540 4.3402777777777779e-05
571 540 4.3402777777777779e-05
572 540 4.3402777777777779e-05
2340 540 1.0850694444444445e-05
2341 540 1.0850694444444445e-05
2342 540 6.5104166666666666e-05
2344 540 6.5104166666666666e-05
2345 540 1.0850694444444445e-05
2435 540 6.5104166666666666e-05
2437 540 1.0850694444444445e-05
2438 540 6.5104166666666666e-05
2439 540 6.5104166666666666e-05
2440 540 6.5104166666666666e-05
2442 540 1.0850694444444445e-05
2533 540 1.0850694444444445e-05
541 541 0.00078124999999999993
542 541 4.3402777777777779e-05
572 541 4.3402777777777779e-05
573 541 4.3402777777777779e-05
2343 541 1.0850694444444445e-05
2344 541 1.0850694444444445e-05
2345 541 6.5104166666666666e-05
2347 541 6.5104166666666666e-05
2348 541 1.0850694444444445e-05
2438 541 6.5104166666666666e-05
2440 541 1.0850694444444445e-05
2441 541 6.5104166666666666e-05
2442 541 6.5104166666666666e-05
2443 541 6.5104166666666666e-05
2445 541 1.0850694444444445e-05
2536 541 1.0850694444444445e-05
542 542 0.00078124999999999993
543 542 4.3402777777777779e-05
573 542 4.3402777777777779e-05
574 542 4.3402777777777779e-05
2346 542 1.0850694444444445e-05
2347 542 1.0850694444444445e-05
2348 542 6.5104166666666666e-05
2350 542 6.5104166666666666e-05
2351 542 1.0850694444444445e-05
2441 542 6.5104166666666666e-05
2443 542 1.0850694444444445e-05
2444 542 6.5104166666666666e-05
2445 542 6.5104166666666666e-05
2446 542 6.5104166666666666e-05
2448 542 1.0850694444444445e-05
2539 542 1.0850694444444445e-05
543 543 0.00078124999999999993
544 543 4.3402777777777779e-05
574 543 4.3402777777777779e-05
575 543 4.3402777777777779e-05
2349 543 1.0850694444444445e-05
2350 543 1.0850694444444445e-05
2351 543 6.5104166666666666e-05
2353 543 6.5104166666666666e-05
2354 543 1.0850694444444445e-05
2444 543 6.5104166666666666e-05
2446 543 1.0850694444444445e-05
2447 543 6.5104166666666666e-05
2448 543 6.5104166666666666e-05
2449 543 6.5104166666666666e-05
2451 543 1.0850694444444445e-05
2542 543 1.0850694444444445e-05
544 544 0.00078124999999999993
545 544 4.3402777777777779e-05
575 544 4.3402777777777779e-05
576 544 4.3402777777777779e-05
2352 544 1.0850694444444445e-05
2353 544 1.0850694444444445e-05
2354 544 6.5104166666666666e-05
2356 544 6.5104166666666666e-05
2357 544 1.0850694444444445e-05
2447 544 6.5104166666666666e-05
2449 544 1.0850694444444445e-05
2450 544 6.5104166666666666e-05
2451 544 6.5104166666666666e-05
2452 544 6.5104166666666666e-05
2454 544 1.0850694444444445e-05
2545 544 1.0850694444444445e-05
545 545 0.00078124999999999993
546 545 4.3402777777777779e-05
576 545 4.3402777777777779e-05
577 545 4.3402777777777779e-05
2355 545 1.0850694444444445e-05
2356 545 1.0850694444444445e-05
2357 545 6.5104166666666666e-05
2359 545 6.5104166666666666e-05
2360 545 1.0850694444444445e-05
2450 545 6.5104166666666666e-05
2452 545 1.0850694444444445e-05
2453 545 6.5104166666666666e-05
2454 545 6.5104166666666666e-05
2455 545 6.5104166666666666e-05
2457 545 1.0850694444444445e-05
2548 545 1.0850694444444445e-05
546 546 0.00078124999999999993
547 546 4.3402777777777779e-05
577 546 4.3402777777777779e-05
578 546 4.3402777777777779e-05
2358 546 1.0850694444444445e-05
2359 546 1.0850694444444445e-05
2360 546 6.5104166666666666e-05
2362 546 6.5104166666666666e-05
2363 546 1.0850694444444445e-05
2453 546 6.5104166666666666e-05
2455 546 1.0850694444444445e-05
2456 546 6.5104166666666666e-05
2457 546 6.5104166666666666e-05
2458 546 6.5104166666666666e-05
2460 546 1.0850694444444445e-05
2551 546 1.0850694444444445e-05
547 547 0.00078124999999999993
548 547 4.3402777777777779e-05
578 547 4.3402777777777779e-05
579 547 4.3402777777777779e-05
2361 547 1.0850694444444445e-05
2362 547 1.0850694444444445e-05
2363 547 6.5104166666666666e-05
2365 547 6.5104166666666666e-05
2366 547 1.0850694444444445e-05
2456 547 6.5104166666666666e-05
2458 547 1.0850694444444445e-05
2459 547 6.5104166666666666e-05
2460 547 6.5104166666666666e-05
2461 547 6.5104166666666666e-05
2463 547 1.0850694444444445e-05
2554 547 1.0850694444444445e-05
548 548 0.00078124999999999993
549 548 4.3402777777777779e-05
579 548 4.3402777777777779e-05
580 548 4.3402777777777779e-05
2364 548 1.0850694444444445e-05
2365 548 1.0850694444444445e-05
2366 548 6.5104166666666666e-05
2368 548 6.5104166666666666e-05
2369 548 1.0850694444444445e-05
2459 548 6.5104166666666666e-05
2461 548 1.0850694444444445e-05
2462 548 6.5104166666666666e-05
2463 548 6.5104166666666666e-05
2464 548 6.5104166666666666e-05
2466 548 1.0850694444444445e-05
2557 548 1.0850694444444445e-05
549 549 0.00078124999999999993
550 549 4.3402777777777779e-05
580 549 4.3402777777777779e-05
581 549 4.3402777777777779e-05
2367 549 1.0850694444444445e-05
2368 549 1.0850694444444445e-05
2369 549 6.5104166666666666e-05
2371 549 6.5104166666666666e-05
2372 549 1.0850694444444445e-05
2462 549 6.5104166666666666e-05
2464 549 1.0850694444444445e-05
2465 549 6.5104166666666666e-05
2466 549 6.5104166666666666e-05
2467 549 6.5104166666666666e-05
2469 549 1.0850694444444445e-05
2560 549 1.0850694444444445e-05
550 550 0.00078124999999999993
581 550 4.3402777777777779e-05
2370 550 1.0850694444444445e-05
2371 550 1.0850694444444445e-05
2372 550 6.5104166666666666e-05
2374 550 6.5104166666666666e-05
2375 550 1.0850694444444445e-05
2465 550 6.5104166666666666e-05
2467 550 1.0850694444444445e-05
2468 550 6.5104166666666666e-05
2469 550 6.5104166666666666e-05
2470 550 6.5104166666666666e-05
2563 550 1.0850694444444445e-05
551 551 0.00078124999999999993
552 551 4.3402777777777779e-05
582 551 4.3402777777777779e-05
583 551 4.3402777777777779e-05
2376 551 1.0850694444444445e-05
2377 551 6.5104166666666666e-05
2379 551 6.5104166666666666e-05
2380 551 1.0850694444444445e-05
2471 551 6.5104166666666666e-05
2472 551 1.0850694444444445e-05
2473 551 6.5104166666666666e-05
2474 551 6.5104166666666666e-05
2475 551 6.5104166666666666e-05
2477 551 1.0850694444444445e-05
2568 551 1.0850694444444445e-05
552 552 0.00078124999999999993
553 552 4.3402777777777779e-05
583 552 4.3402777777777779e-05
584 552 4.3402777777777779e-05
2378 552 1.0850694444444445e-05
2379 552 1.0850694444444445e-05
2380 552 6.5104166666666666e-05
2382 552 6.5104166666666666e-05
2383 552 1.0850694444444445e-05
2473 552 6.5104166666666666e-05
2475 552 1.0850694444444445e-05
2476 552 6.5104166666666666e-05
2477 552 6.5104166666666666e-05
2478 552 6.5104166666666666e-05
2480 552 1.0850694444444445e-05
2571 552 1.0850694444444445e-05
553 553 0.00078124999999999993
554 553 4.3402777777777779e-05
584 553 4.3402777777777779e-05
585 553 4.3402777777777779e-05
2381 553 1.0850694444444445e-05
2382 553 1.0850694444444445e-05
2383 553 6.5104166666666666e-05
2385 553 6.5104166666666666e-05
2386 553 1.0850694444444445e-05
2476 553 6.5104166666666666e-05
2478 553 1.0850694444444445e-05
2479 553 6.5104166666666666e-05
2480 553 6.5104166666666666e-05
2481 553 6.5104166666666666e-05
2483 553 1.0850694444444445e-05
2574 553 1.0850694444444445e-05
554 554 0.00078124999999999993
555 554 4.3402777777777779e-05
585 554 4.3402777777777779e-05
586 554 4.3402777777777779e-05
2384 554 1.0850694444444445e-05
2385 554 1.0850694444444445e-05
2386 554 6.5104166666666666e-05
2388 554 6.5104166666666666e-05
2389 554 1.0850694444444445e-05
2479 554 6.5104166666666666e-05
2481 554 1.0850694444444445e-05
2482 554 6.5104166666666666e-05
2483 554 6.5104166666666666e-05
2484 554 6.5104166666666666e-05
2486 554 1.0850694444444445e-05
2577 554 1.0850694444444445e-05
555 555 0.00078124999999999993
556 555 4.3402777777777779e-05
586 555 4.3402777777777779e-05
587 555 4.3402777777777779e-05
2387 555 1.0850694444444445e-05
2388 555 1.0850694444444445e-05
2389 555 6.5104166666666666e-05
2391 555 6.5104166666666666e-05
2392 555 1.0850694444444445e-05
2482 555 6.5104166666666666e-05
2484 555 1.0850694444444445e-05
2485 555 6.5104166666666666e-05
2486 555 6.5104166666666666e-05
2487 555 6.5104166666666666e-05
2489 555 1.0850694444444445e-05
2580 555 1.0850694444444445e-05
556 556 0.00078124999999999993
557 556 4.3402777777777779e-05
587 556 4.3402777777777779e-05
588 556 4.3402777777777779e-05
2390 556 1.0850694444444445e-05
2391 556 1.0850694444444445e-05
2392 556 6.5104166666666666e-05
2394 556 6.5104166666666666e-05
2395 556 1.0850694444444445e-05
2485 556 6.5104166666666666e-05
2487 556 1.0850694444444445e-05
2488 556 6.5104166666666666e-05
2489 556 6.5104166666666666e-05
2490 556 6.5104166666666666e-05
2492 556 1.0850694444444445e-05
2583 556 1.0850694444444445e-05
557 557 0.00078124999999999993
558 557 4.3402777777777779e-05
588 557 4.3402777777777779e-05
589 557 4.3402777777777779e-05
2393 557 1.0850694444444445e-05
2394 557 1.0850694444444445e-05
2395 557 6.5104166666666666e-05
2397 557 6.5104166666666666e-05
2398 557 1.0850694444444445e-05
2488 557 6.5104166666666666e-05
2490 557 1.0850694444444445e-05
2491 557 6.5104166666666666e-05
2492 557 6.5104166666666666e-05
2493 557 6.5104166666666666e-05
2495 557 1.0850694444444445e-05
2586 557 1.0850694444444445e-05
558 558 0.00078124999999999993
559 558 4.3402777777777779e-05
589 558 4.3402777777777779e-05
590 558 4.3402777777777779e-05
2396 558 1.0850694444444445e-05
2397 558 1.0850694444444445e-05
2398 558 6.5104166666666666e-05
2400 558 6.5104166666666666e-05
2401 558 1.0850694444444445e-05
2491 558 6.5104166666666666e-05
2493 558 1.0850694444444445e-05
2494 558 6.5104166666666666e-05
2495 558 6.5104166666666666e-05
2496 558 6.5104166666666666e-05
2498 558 1.0850694444444445e-05
2589 558 1.0850694444444445e-05
559 559 0.00078124999999999993
560 559 4.3402777777777779e-05
590 559 4.3402777777777779e-05
591 559 4.3402777777777779e-05
2399 559 1.0850694444444445e-05
2400 559 1.0850694444444445e-05
2401 559 6.5104166666666666e-05
2403 559 6.5104166666666666e-05
2404 559 1.0850694444444445e-05
2494 559 6.5104166666666666e-05
2496 559 1.0850694444444445e-05
2497 559 6.5104166666666666e-05
2498 559 6.5104166666666666e-05
2499 559 6.5104166666666666e-05
2501 559 1.0850694444444445e-05
2592 559 1.0850694444444445e-05
560 560 0.00078124999999999993
561 560 4.3402777777777779e-05
591 560 4.3402777777777779e-05
592 560 4.3402777777777779e-05
2402 560 1.0850694444444445e-05
2403 560 1.0850694444444445e-05
2404 560 6.5104166666666666e-05
2406 560 6.5104166666666666e-05
2407 560 1.0850694444444445e-05
2497 560 6.5104166666666666e-05
2499 560 1.0850694444444445e-05
2500 560 6.5104166666666666e-05
2501 560 6.5104166666666666e-05
2502 560 6.5104166666666666e-05
2504 560 1.0850694444444445e-05
2595 560 1.0850694444444445e-05
561 561 0.00078124999999999993
562 561 4.3402777777777779e-05
592 561 4.3402777777777779e-05
593 561 4.3402777777777779e-05
2405 561 1.0850694444444445e-05
2406 561 1.0850694444444445e-05
2407 561 6.5104166666666666e-05
2409 561 6.5104166666666666e-05
2410 561 1.0850694444444445e-05
2500 561 6.5104166666666666e-05
2502 561 1.0850694444444445e-05
2503 561 6.5104166666666666e-05
2504 561 6.5104166666666666e-05
2505 561 6.5104166666666666e-05
2507 561 1.0850694444444445e-05
2598 561 1.0850694444444445e-05
562 562 0.00078124999999999993
563 562 4.3402777777777779e-05
593 562 4.3402777777777779e-05
594 562 4.3402777777777779e-05
2408 562 1.0850694444444445e-05
2409 562 1.0850694444444445e-05
2410 562 6.5104166666666666e-05
2412 562 6.5104166666666666e-05
2413 562 1.0850694444444445e-05
2503 562 6.5104166666666666e-05
2505 562 1.0850694444444445e-05
2506 562 6.5104166666666666e-05
2507 562 6.5104166666666666e-05
2508 562 6.5104166666666666e-05
2510 562 1.0850694444444445e-05
2601 562 1.0850694444444445e-05
563 563 0.00078124999999999993
564 563 4.3402777777777779e-05
594 563 4.3402777777777779e-05
595 563 4.3402777777777779e-05
2411 563 1.0850694444444445e-05
2412 563 1.0850694444444445e-05
2413 563 6.5104166666666666e-05
2415 563 6.5104166666666666e-05
2416 563 1.0850694444444445e-05
2506 563 6.5104166666666666e-05
2508 563 1.0850694444444445e-05
2509 563 6.5104166666666666e-05
2510 563 6.5104166666666666e-05
2511 563 6.5104166666666666e-05
2513 563 1.0850694444444445e-05
2604 563 1.0850694444444445e-05
564 564 0.00078124999999999993
565 564 4.3402777777777779e-05
595 564 4.3402777777777779e-05
596 564 4.3402777777777779e-05
2414 564 1.0850694444444445e-05
2415 564 1.0850694444444445e-05
2416 564 6.5104166666666666e-05
2418 564 6.5104166666666666e-05
2419 564 1.0850694444444445e-05
2509 564 6.5104166666666666e-05
2511 564 1.0850694444444445e-05
2512 564 6.5104166666666666e-05
2513 564 6.5104166666666666e-05
2514 564 6.5104166666666666e-05
2516 564 1.0850694444444445e-05
2607 564 1.0850694444444445e-05
565 565 0.00078124999999999993
566 565 4.3402777777777779e-05
596 565 4.3402777777777779e-05
597 565 4.3402777777777779e-05
2417 565 1.0850694444444445e-05
2418 565 1.0850694444444445e-05
2419 565 6.5104166666666666e-05
2421 565 6.5104166666666666e-05
2422 565 1.0850694444444445e-05
2512 565 6.5104166666666666e-05
2514 565 1.0850694444444445e-05
2515 565 6.5104166666666666e-05
2516 565 6.5104166666666666e-05
2517 565 6.5104166666666666e-05
2519 565 1.0850694444444445e-05
2610 565 1.0850694444444445e-05
566 566 0.00078124999999999993
567 566 4.3402777777777779e-05
597 566 4.3402777777777779e-05
598 566 4.3402777777777779e-05
2420 566 1.0850694444444445e-05
2421 566 1.0850694444444445e-05
2422 566 6.5104166666666666e-05
2424 566 6.5104166666666666e-05
2425 566 1.0850694444444445e-05
2515 566 6.5104166666666666e-05
2517 566 1.0850694444444445e-05
2518 566 6.5104166666666666e-05
2519 566 6.5104166666666666e-05
2520 566 6.5104166666666666e-05
2522 566 1.0850694444444445e-05
2613 566 1.0850694444444445e-05
567 567 0.00078124999999999993
568 567 4.3402777777777779e-05
598 567 4.3402777777777779e-05
599 567 4.3402777777777779e-05
2423 567 1.0850694444444445e-05
2424 567 1.0850694444444445e-05
2425 567 6.5104166666666666e-05
2427 567 6.5104166666666666e-05
2428 567 1.0850694444444445e-05
2518 567 6.5104166666666666e-05
2520 567 1.0850694444444445e-05
2521 567 6.5104166666666666e-05
2522 567 6.5104166666666666e-05
2523 567 6.5104166666666666e-05
2525 567 1.0850694444444445e-05
2616 567 1.0850694444444445e-05
568 568 0.00078124999999999993
569 568 4.3402777777777779e-05
599 568 4.3402777777777779e-05
600 568 4.3402777777777779e-05
2426 568 1.0850694444444445e-05
2427 568 1.0850694444444445e-05
2428 568 6.5104166666666666e-05
2430 568 6.5104166666666666e-05
2431 568 1.0850694444444445e-05
2521 568 6.5104166666666666e-05
2523 568 1.0850694444444445e-05
2524 568 6.5104166666666666e-05
2525 568 6.5104166666666666e-05
2526 568 6.5104166666666666e-05
2528 568 1.0850694444444445e-05
2619 568 1.0850694444444445e-05
569 569 0.00078124999999999993
570 569 4.3402777777777779e-05
600 569 4.3402777777777779e-05
601 569 4.3402777777777779e-05
2429 569 1.0850694444444445e-05
2430 569 1.0850694444444445e-05
2431 569 6.5104166666666666e-05
2433 569 6.5104166666666666e-05
2434 569 1.0850694444444445e-05
2524 569 6.5104166666666666e-05
2526 569 1.0850694444444445e-05
2527 569 6.5104166666666666e-05
2528 569 6.5104166666666666e-05
2529 569 6.5104166666666666e-05
2531 569 1.0850694444444445e-05
2622 569 1.0850694444444445e-05
570 570 0.00078124999999999993
571 570 4.3402777777777779e-05
601 570 4.3402777777777779e-05
602 570 4.3402777777777779e-05
2432 570 1.0850694444444445e-05
2433 570 1.0850694444444445e-05
2434 570 6.5104166666666666e-05
2436 570 6.5104166666666666e-05
2437 570 1.0850694444444445e-05
2527 570 6.5104166666666666e-05
2529 570 1.0850694444444445e-05
2530 570 6.5104166666666666e-05
2531 570 6.5104166666666666e-05
2532 570 6.5104166666666666e-05
2534 570 1.0850694444444445e-05
2625 570 1.0850694444444445e-05
571 571 0.00078124999999999993
572 571 4.3402777777777779e-05
602 571 4.3402777777777779e-05
603 571 4.3402777777777779e-05
2435 571 1.0850694444444445e-05
2436 571 1.0850694444444445e-05
2437 571 6.5104166666666666e-05
2439 571 6.5104166666666666e-05
2440 571 1.0850694444444445e-05
2530 571 6.5104166666666666e-05
2532 571 1.0850694444444445e-05
2533 571 6.5104166666666666e-05
2534 571 6.5104166666666666e-05
2535 571 6.5104166666666666e-05
2537 571 1.0850694444444445e-05
2628 571 1.0850694444444445e-05
572 572 0.00078124999999999993
573 572 4.3402777777777779e-05
603 572 4.3402777777777779e-05
604 572 4.3402777777777779e-05
2438 572 1.0850694444444445e-05
2439 572 1.0850694444444445e-05
2440 572 6.5104166666666666e-05
2442 572 6.5104166666666666e-05
2443 572 1.0850694444444445e-05
2533 572 6.5104166666666666e-05
2535 572 1.0850694444444445e-05
2536 572 6.5104166666666666e-05
2537 572 6.5104166666666666e-05
2538 572 6.5104166666666666e-05
2540 572 1.0850694444444445e-05
2631 572 1.0850694444444445e-05
573 573 0.00078124999999999993
574 573 4.3402777777777779e-05
604 573 4.3402777777777779e-05
605 573 4.3402777777777779e-05
2441 573 1.0850694444444445e-05
2442 573 1.0850694444444445e-05
2443 573 6.5104166666666666e-05
2445 573 6.5104166666666666e-05
2446 573 1.0850694444444445e-05
2536 573 6.5104166666666666e-05
2538 573 1.0850694444444445e-05
2539 573 6.5104166666666666e-05
2540 573 6.5104166666666666e-05
2541 573 6.5104166666666666e-05
2543 573 1.0850694444444445e-05
2634 573 1.0850694444444445e-05
574 574 0.00078124999999999993
575 574 4.3402777777777779e-05
605 574 4.3402777777777779e-05
606 574 4.3402777777777779e-05
2444 574 1.0850694444444445e-05
2445 574 1.0850694444444445e-05
2446 574 6.5104166666666666e-05
2448 574 6.5104166666666666e-05
2449 574 1.0850694444444445e-05
2539 574 6.5104166666666666e-05
2541 574 1.0850694444444445e-05
2542 574 6.5104166666666666e-05
2543 574 6.5104166666666666e-05
2544 574 6.5104166666666666e-05
2546 574 1.0850694444444445e-05
2637 574 1.0850694444444445e-05
575 575 0.00078124999999999993
576 575 4.3402777777777779e-05
606 575 4.3402777777777779e-05
607 575 4.3402777777777779e-05
2447 575 1.0850694444444445e-05
2448 575 1.0850694444444445e-05
2449 575 6.5104166666666666e-05
2451 575 6.5104166666666666e-05
2452 575 1.0850694444444445e-05
2542 575 6.5104166666666666e-05
2544 575 1.0850694444444445e-05
2545 575 6.5104166666666666e-05
2546 575 6.5104166666666666e-05
2547 575 6.5104166666666666e-05
2549 575 1.0850694444444445e-05
2640 575 1.0850694444444445e-05
576 576 0.00078124999999999993
577 576 4.3402777777777779e-05
607 576 4.3402777777777779e-05
608 576 4.3402777777777779e-05
2450 576 1.0850694444444445e-05
2451 576 1.0850694444444445e-05
2452 576 6.5104166666666666e-05
2454 576 6.5104166666666666e-05
2455 576 1.0850694444444445e-05
2545 576 6.5104166666666666e-05
2547 576 1.0850694444444445e-05
2548 576 6.5104166666666666e-05
2549 576 6.5104166666666666e-05
2550 576 6.5104166666666666e-05
2552 576 1.0850694444444445e-05
2643 576 1.0850694444444445e-05
577 577 0.00078124999999999993
578 577 4.3402777777777779e-05
608 577 4.3402777777777779e-05
609 577 4.3402777777777779e-05
2453 577 1.0850694444444445e-05
2454 577 1.0850694444444445e-05
2455 577 6.5104166666666666e-05
2457 577 6.5104166666666666e-05
2458 577 1.0850694444444445e-05
2548 577 6.5104166666666666e-05
2550 577 1.0850694444444445e-05
2551 577 6.5104166666666666e-05
2552 577 6.5104166666666666e-05
2553 577 6.5104166666666666e-05
2555 577 1.0850694444444445e-05
2646 577 1.0850694444444445e-05
578 578 0.00078124999999999993
579 578 4.3402777777777779e-05
609 578 4.3402777777777779e-05
610 578 4.3402777777777779e-05
2456 578 1.0850694444444445e-05
2457 578 1.0850694444444445e-05
2458 578 6.5104166666666666e-05
2460 578 6.5104166666666666e-05
2461 578 1.0850694444444445e-05
2551 578 6.5104166666666666e-05
2553 578 1.0850694444444445e-05
2554 578 6.5104166666666666e-05
2555 578 6.5104166666666666e-05
2556 578 6.5104166666666666e-05
2558 578 1.0850694444444445e-05
2649 578 1.0850694444444445e-05
579 579 0.00078124999999999993
580 579 4.3402777777777779e-05
610 579 4.3402777777777779e-05
611 579 4.3402777777777779e-05
2459 579 1.0850694444444445e-05
2460 579 1.0850694444444445e-05
2461 579 6.5104166666666666e-05
2463 579 6.5104166666666666e-05
2464 579 1.0850694444444445e-05
2554 579 6.5104166666666666e-05
2556 579 1.0850694444444445e-05
2557 579 6.5104166666666666e-05
2558 579 6.5104166666666666e-05
2559 579 6.5104166666666666e-05
2561 579 1.0850694444444445e-05
2652 579 1.0850694444444445e-05
580 580 0.00078124999999999993
581 580 4.3402777777777779e-05
611 580 4.3402777777777779e-05
612 580 4.3402777777777779e-05
2462 580 1.0850694444444445e-05
2463 580 1.0850694444444445e-05
2464 580 6.5104166666666666e-05
2466 580 6.5104166666666666e-05
2467 580 1.0850694444444445e-05
2557 580 6.5104166666666666e-05
2559 580 1.0850694444444445e-05
2560 580 6.5104166666666666e-05
2561 580 6.5104166666666666e-05
2562 580 6.5104166666666666e-05
2564 580 1.0850694444444445e-05
2655 580 1.0850694444444445e-05
581 581 0.00078124999999999993
612 581 4.3402777777777779e-05
2465 581 1.0850694444444445e-05
2466 581 1.0850694444444445e-05
2467 581 6.5104166666666666e-05
2469 581 6.5104166666666666e-05
2470 581 1.0850694444444445e-05
2560 581 6.5104166666666666e-05
2562 581 1.0850694444444445e-05
2563 581 6.5104166666666666e-05
2564 581 6.5104166666666666e-05
2565 581 6.5104166666666666e-05
2658 581 1.0850694444444445e-05
582 582 0.00078124999999999993
583 582 4.3402777777777779e-05
613 582 4.3402777777777779e-05
614 582 4.3402777777777779e-05
2471 582 1.0850694444444445e-05
2472 582 6.5104166666666666e-05
2474 582 6.5104166666666666e-05
2475 582 1.0850694444444445e-05
2566 582 6.5104166666666666e-05
2567 582 1.0850694444444445e-05
2568 582 6.5104166666666666e-05
2569 582 6.5104166666666666e-05
2570 582 6.5104166666666666e-05
2572 582 1.0850694444444445e-05
2663 582 1.0850694444444445e-05
583 583 0.00078124999999999993
584 583 4.3402777777777779e-05
614 583 4.3402777777777779e-05
615 583 4.3402777777777779e-05
2473 583 1.0850694444444445e-05
2474 583 1.0850694444444445e-05
2475 583 6.5104166666666666e-05
2477 583 6.5104166666666666e-05
2478 583 1.0850694444444445e-05
2568 583 6.5104166666666666e-05
2570 583 1.0850694444444445e-05
2571 583 6.5104166666666666e-05
2572 583 6.5104166666666666e-05
2573 583 6.5104166666666666e-05
2575 583 1.0850694444444445e-05
2666 583 1.0850694444444445e-05
584 584 0.00078124999999999993
585 584 4.3402777777777779e-05
615 584 4.3402777777777779e-05
616 584 4.3402777777777779e-05
2476 584 1.0850694444444445e-05
2477 584 1.0850694444444445e-05
2478 584 6.5104166666666666e-05
2480 584 6.5104166666666666e-05
2481 584 1.0850694444444445e-05
2571 584 6.5104166666666666e-05
2573 584 1.0850694444444445e-05
2574 584 6.5104166666666666e-05
2575 584 6.5104166666666666e-05
2576 584 6.5104166666666666e-05
2578 584 1.0850694444444445e-05
2669 584 1.0850694444444445e-05
585 585 0.00078124999999999993
586 585 4.3402777777777779e-05
616 585 4.3402777777777779e-05
617 585 4.3402777777777779e-05
2479 585 1.0850694444444445e-05
2480 585 1.0850694444444445e-05
2481 585 6.5104166666666666e-05
2483 585 6.5104166666666666e-05
2484 585 1.0850694444444445e-05
2574 585 6.5104166666666666e-05
2576 585 1.0850694444444445e-05
2577 585 6.5104166666666666e-05
2578 585 6.5104166666666666e-05
2579 585 6.5104166666666666e-05
2581 585 1.0850694444444445e-05
2672 585 1.0850694444444445e-05
586 586 0.00078124999999999993
587 586 4.3402777777777779e-05
617 586 4.3402777777777779e-05
618 586 4.3402777777777779e-05
2482 586 1.0850694444444445e-05
2483 586 1.0850694444444445e-05
2484 586 6.5104166666666666e-05
2486 586 6.5104166666666666e-05
2487 586 1.0850694444444445e-05
2577 586 6.5104166666666666e-05
2579 586 1.0850694444444445e-05
2580 586 6.5104166666666666e-05
2581 586 6.5104166666666666e-05
2582 586 6.5104166666666666e-05
2584 586 1.0850694444444445e-05
2675 586 1.0850694444444445e-05
587 587 0.00078124999999999993
588 587 4.3402777777777779e-05
618 587 4.3402777777777779e-05
619 587 4.3402777777777779e-05
2485 587 1.0850694444444445e-05
2486 587 1.0850694444444445e-05
2487 587 6.5104166666666666e-05
2489 587 6.5104166666666666e-05
2490 587 1.0850694444444445e-05
2580 587 6.5104166666666666e-05
2582 587 1.0850694444444445e-05
2583 587 6.5104166666666666e-05
2584 587 6.5104166666666666e-05
2585 587 6.5104166666666666e-05
2587 587 1.0850694444444445e-05
2678 587 1.0850694444444445e-05
588 588 0.00078124999999999993
589 588 4.3402777777777779e-05
619 588 4.3402777777777779e-05
620 588 4.3402777777777779e-05
2488 588 1.0850694444444445e-05
2489 588 1.0850694444444445e-05
2490 588 6.5104166666666666e-05
2492 588 6.5104166666666666e-05
2493 588 1.0850694444444445e-05
2583 588 6.5104166666666666e-05
2585 588 1.0850694444444445e-05
2586 588 6.5104166666666666e-05
2587 588 6.5104166666666666e-05
2588 588 6.5104166666666666e-05
2590 588 1.0850694444444445e-05
2681 588 1.0850694444444445e-05
589 589 0.00078124999999999993
590 589 4.3402777777777779e-05
620 589 4.3402777777777779e-05
621 589 4.3402777777777779e-05
2491 589 1.0850694444444445e-05
2492 589 1.0850694444444445e-05
2493 589 6.5104166666666666e-05
2495 589 6.5104166666666666e-05
2496 589 1.0850694444444445e-05
2586 589 6.5104166666666666e-05
2588 589 1.0850694444444445e-05
2589 589 6.5104166666666666e-05
2590 589 6.5104166666666666e-05
2591 589 6.5104166666666666e-05
2593 589 1.0850694444444445e-05
2684 589 1.0850694444444445e-05
590 590 0.00078124999999999993
591 590 4.3402777777777779e-05
621 590 4.3402777777777779e-05
622 590 4.3402777777777779e-05
2494 590 1.0850694444444445e-05
2495 590 1.0850694444444445e-05
2496 590 6.5104166666666666e-05
2498 590 6.5104166666666666e-05
2499 590 1.0850694444444445e-05
2589 590 6.5104166666666666e-05
2591 590 1.0850694444444445e-05
2592 590 6.5104166666666666e-05
2593 590 6.5104166666666666e-05
2594 590 6.5104166666666666e-05
2596 590 1.0850694444444445e-05
2687 590 1.0850694444444445e-05
591 591 0.00078124999999999993
592 591 4.3402777777777779e-05
622 591 4.3402777777777779e-05
623 591 4.3402777777777779e-05
2497 591 1.0850694444444445e-05
2498 591 1.0850694444444445e-05
2499 591 6.5104166666666666e-05
2501 591 6.5104166666666666e-05
2502 591 1.0850694444444445e-05
2592 591 6.5104166666666666e-05
2594 591 1.0850694444444445e-05
2595 591 6.5104166666666666e-05
2596 591 6.5104166666666666e-05
2597 591 6.5104166666666666e-05
2599 591 1.0850694444444445e-05
2690 591 1.0850694444444445e-05
592 592 0.00078124999999999993
593 592 4.3402777777777779e-05
623 592 4.3402777777777779e-05
624 592 4.3402777777777779e-05
2500 592 1.0850694444444445e-05
2501 592 1.0850694444444445e-05
2502 592 6.5104166666666666e-05
2504 592 6.5104166666666666e-05
2505 592 1.0850694444444445e-05
2595 592 6.5104166666666666e-05
2597 592 1.0850694444444445e-05
2598 592 6.5104166666666666e-05
2599 592 6.5104166666666666e-05
2600 592 6.5104166666666666e-05
2602 592 1.0850694444444445e-05
2693 592 1.0850694444444445e-05
593 593 0.00078124999999999993
594 593 4.3402777777777779e-05
624 593 4.3402777777777779e-05
625 593 4.3402777777777779e-05
2503 593 1.0850694444444445e-05
2504 593 1.0850694444444445e-05
2505 593 6.5104166666666666e-05
2507 593 6.5104166666666666e-05
2508 593 1.0850694444444445e-05
2598 593 6.5104166666666666e-05
2600 593 1.0850694444444445e-05
2601 593 6.5104166666666666e-05
2602 593 6.5104166666666666e-05
2603 593 6.5104166666666666e-05
2605 593 1.0850694444444445e-05
2696 593 1.0850694444444445e-05
594 594 0.00078124999999999993
595 594 4.3402777777777779e-05
625 594 4.3402777777777779e-05
626 594 4.3402777777777779e-05
2506 594 1.0850694444444445e-05
2507 594 1.0850694444444445e-05
2508 594 6.5104166666666666e-05
2510 594 6.5104166666666666e-05
2511 594 1.0850694444444445e-05
2601 594 6.5104166666666666e-05
2603 594 1.0850694444444445e-05
2604 594 6.5104166666666666e-05
2605 594 6.5104166666666666e-05
2606 594 6.5104166666666666e-05
2608 594 1.0850694444444445e-05
2699 594 1.0850694444444445e-05
595 595 0.00078124999999999993
596 595 4.3402777777777779e-05
626 595 4.3402777777777779e-05
627 595 4.3402777777777779e-05
2509 595 1.0850694444444445e-05
2510 595 1.0850694444444445e-05
2511 595 6.5104166666666666e-05
2513 595 6.5104166666666666e-05
2514 595 1.0850694444444445e-05
2604 595 6.5104166666666666e-05
2606 595 1.0850694444444445e-05
2607 595 6.5104166666666666e-05
2608 595 6.5104166666666666e-05
2609 595 6.5104166666666666e-05
2611 595 1.0850694444444445e-05
2702 595 1.0850694444444445e-05
596 596 0.00078124999999999993
597 596 4.3402777777777779e-05
627 596 4.3402777777777779e-05
628 596 4.3402777777777779e-05
2512 596 1.0850694444444445e-05
2513 596 1.0850694444444445e-05
2514 596 6.5104166666666666e-05
2516 596 6.5104166666666666e-05
2517 596 1.0850694444444445e-05
2607 596 6.5104166666666666e-05
2609 596 1.0850694444444445e-05
2610 596 6.5104166666666666e-05
2611 596 6.5104166666666666e-05
2612 596 6.5104166666666666e-05
2614 596 1.0850694444444445e-05
2705 596 1.0850694444444445e-05
597 597 0.00078124999999999993
598 597 4.3402777777777779e-05
628 597 4.3402777777777779e-05
629 597 4.3402777777777779e-05
2515 597 1.0850694444444445e-05
2516 597 1.0850694444444445e-05
2517 597 6.5104166666666666e-05
2519 597 6.5104166666666666e-05
2520 597 1.0850694444444445e-05
2610 597 6.5104166666666666e-05
2612 597 1.0850694444444445e-05
2613 597 6.5104166666666666e-05
2614 597 6.5104166666666666e-05
2615 597 6.5104166666666666e-05
2617 597 1.0850694444444445e-05
2708 597 1.0850694444444445e-05
598 598 0.00078124999999999993
599 598 4.3402777777777779e-05
629 598 4.3402777777777779e-05
630 598 4.3402777777777779e-05
2518 598 1.0850694444444445e-05
2519 598 1.0850694444444445e-05
2520 598 6.5104166666666666e-05
2522 598 6.5104166666666666e-05
2523 598 1.0850694444444445e-05
2613 598 6.5104166666666666e-05
2615 598 1.0850694444444445e-05
2616 598 6.5104166666666666e-05
2617 598 6.5104166666666666e-05
2618 598 6.5104166666666666e-05
2620 598 1.0850694444444445e-05
2711 598 1.0850694444444445e-05
599 599 0.00078124999999999993
600 599 4.3402777777777779e-05
630 599 4.3402777777777779e-05
631 599 4.3402777777777779e-05
2521 599 1.0850694444444445e-05
2522 599 1.0850694444444445e-05
2523 599 6.5104166666666666e-05
2525 599 6.5104166666666666e-05
2526 599 1.0850694444444445e-05
2616 599 6.5104166666666666e-05
2618 599 1.0850694444444445e-05
2619 599 6.5104166666666666e-05
2620 599 6.5104166666666666e-05
2621 599 6.5104166666666666e-05
2623 599 1.0850694444444445e-05
2714 599 1.0850694444444445e-05
600 600 0.00078124999999999993
601 600 4.3402777777777779e-05
631 600 4.3402777777777779e-05
632 600 4.3402777777777779e-05
2524 600 1.0850694444444445e-05
2525 600 1.0850694444444445e-05
2526 600 6.5104166666666666e-05
2528 600 6.5104166666666666e-05
2529 600 1.0850694444444445e-05
2619 600 6.5104166666666666e-05
2621 600 1.0850694444444445e-05
2622 600 6.5104166666666666e-05
2623 600 6.5104166666666666e-05
2624 600 6.5104166666666666e-05
2626 600 1.0850694444444445e-05
2717 600 1.0850694444444445e-05
601 601 0.00078124999999999993
602 601 4.3402777777777779e-05
632 601 4.3402777777777779e-05
633 601 4.3402777777777779e-05
2527 601 1.0850694444444445e-05
2528 601 1.0850694444444445e-05
2529 601 6.5104166666666666e-05
2531 601 6.5104166666666666e-05
2532 601 1.0850694444444445e-05
2622 601 6.5104166666666666e-05
2624 601 1.0850694444444445e-05
2625 601 6.5104166666666666e-05
2626 601 6.5104166666666666e-05
2627 601 6.5104166666666666e-05
2629 601 1.0850694444444445e-05
2720 601 1.0850694444444445e-05
602 602 0.00078124999999999993
603 602 4.3402777777777779e-05
633 602 4.3402777777777779e-05
634 602 4.3402777777777779e-05
2530 602 1.0850694444444445e-05
2531 602 1.0850694444444445e-05
2532 602 6.5104166666666666e-05
2534 602 6.5104166666666666e-05
2535 602 1.0850694444444445e-05
2625 602 6.5104166666666666e-05
2627 602 1.0850694444444445e-05
2628 602 6.5104166666666666e-05
2629 602 6.5104166666666666e-05
2630 602 6.5104166666666666e-05
2632 602 1.0850694444444445e-05
2723 602 1.0850694444444445e-05
603 603 0.00078124999999999993
604 603 4.3402777777777779e-05
634 603 4.3402777777777779e-05
635 603 4.3402777777777779e-05
2533 603 1.0850694444444445e-05
2534 603 1.0850694444444445e-05
2535 603 6.5104166666666666e-05
2537 603 6.5104166666666666e-05
2538 603 1.0850694444444445e-05
2628 603 6.5104166666666666e-05
2630 603 1.0850694444444445e-05
2631 603 6.5104166666666666e-05
2632 603 6.5104166666666666e-05
2633 603 6.5104166666666666e-05
2635 603 1.0850694444444445e-05
2726 603 1.0850694444444445e-05
604 604 0.00078124999999999993
605 604 4.3402777777777779e-05
635 604 4.3402777777777779e-05
636 604 4.3402777777777779e-05
2536 604 1.0850694444444445e-05
2537 604 1.0850694444444445e-05
2538 604 6.5104166666666666e-05
2540 604 6.5104166666666666e-05
2541 604 1.0850694444444445e-05
2631 604 6.5104166666666666e-05
2633 604 1.0850694444444445e-05
2634 604 6.5104166666666666e-05
2635 604 6.5104166666666666e-05
2636 604 6.5104166666666666e-05
2638 604 1.0850694444444445e-05
2729 604 1.0850694444444445e-05
605 605 0.00078124999999999993
606 605 4.3402777777777779e-05
636 605 4.3402777777777779e-05
637 605 4.3402777777777779e-05
2539 605 1.0850694444444445e-05
2540 605 1.0850694444444445e-05
2541 605 6.5104166666666666e-05
2543 605 6.5104166666666666e-05
2544 605 1.0850694444444445e-05
2634 605 6.5104166666666666e-05
2636 605 1.0850694444444445e-05
2637 605 6.5104166666666666e-05
2638 605 6.5104166666666666e-05
2639 605 6.5104166666666666e-05
2641 605 1.0850694444444445e-05
2732 605 1.0850694444444445e-05
606 606 0.00078124999999999993
607 606 4.3402777777777779e-05
637 606 4.3402777777777779e-05
638 606 4.3402777777777779e-05
2542 606 1.0850694444444445e-05
2543 606 1.0850694444444445e-05
2544 606 6.5104166666666666e-05
2546 606 6.5104166666666666e-05
2547 606 1.0850694444444445e-05
2637 606 6.5104166666666666e-05
2639 606 1.0850694444444445e-05
2640 606 6.5104166666666666e-05
2641 606 6.5104166666666666e-05
2642 606 6.5104166666666666e-05
2644 606 1.0850694444444445e-05
2735 606 1.0850694444444445e-05
607 607 0.00078124999999999993
608 607 4.3402777777777779e-05
638 607 4.3402777777777779e-05
639 607 4.3402777777777779e-05
2545 607 1.0850694444444445e-05
2546 607 1.0850694444444445e-05
2547 607 6.5104166666666666e-05
2549 607 6.5104166666666666e-05
2550 607 1.0850694444444445e-05
2640 607 6.5104166666666666e-05
2642 607 1.0850694444444445e-05
2643 607 6.5104166666666666e-05
2644 607 6.5104166666666666e-05
2645 607 6.5104166666666666e-05
2647 607 1.0850694444444445e-05
2738 607 1.0850694444444445e-05
608 608 0.00078124999999999993
609 608 4.3402777777777779e-05
639 608 4.3402777777777779e-05
640 608 4.3402777777777779e-05
2548 608 1.0850694444444445e-05
2549 608 1.0850694444444445e-05
2550 608 6.5104166666666666e-05
2552 608 6.5104166666666666e-05
2553 608 1.0850694444444445e-05
2643 608 6.5104166666666666e-05
2645 608 1.0850694444444445e-05
2646 608 6.5104166666666666e-05
2647 608 6.5104166666666666e-05
2648 608 6.5104166666666666e-05
2650 608 1.0850694444444445e-05
2741 608 1.0850694444444445e-05
609 609 0.00078124999999999993
610 609 4.3402777777777779e-05
640 609 4.3402777777777779e-05
641 609 4.3402777777777779e-05
2551 609 1.0850694444444445e-05
2552 609 1.0850694444444445e-05
2553 609 6.5104166666666666e-05
2555 609 6.5104166666666666e-05
2556 609 1.0850694444444445e-05
2646 609 6.5104166666666666e-05
2648 609 1.0850694444444445e-05
2649 609 6.5104166666666666e-05
2650 609 6.5104166666666666e-05
2651 609 6.5104166666666666e-05
2653 609 1.0850694444444445e-05
2744 609 1.0850694444444445e-05
610 610 0.00078124999999999993
611 610 4.3402777777777779e-05
641 610 4.3402777777777779e-05
642 610 4.3402777777777779e-05
2554 610 1.0850694444444445e-05
2555 610 1.0850694444444445e-05
2556 610 6.5104166666666666e-05
2558 610 6.5104166666666666e-05
2559 610 1.0850694444444445e-05
2649 610 6.5104166666666666e-05
2651 610 1.0850694444444445e-05
2652 610 6.5104166666666666e-05
2653 610 6.5104166666666666e-05
2654 610 6.5104166666666666e-05
2656 610 1.0850694444444445e-05
2747 610 1.0850694444444445e-05
611 611 0.00078124999999999993
612 611 4.3402777777777779e-05
642 611 4.3402777777777779e-05
643 611 4.3402777777777779e-05
2557 611 1.0850694444444445e-05
2558 611 1.0850694444444445e-05
2559 611 6.5104166666666666e-05
2561 611 6.5104166666666666e-05
2562 611 1.0850694444444445e-05
2652 611 6.5104166666666666e-05
2654 611 1.0850694444444445e-05
2655 611 6.5104166666666666e-05
2656 611 6.5104166666666666e-05
2657 611 6.5104166666666666e-05
2659 611 1.0850694444444445e-05
2750 611 1.0850694444444445e-05
612 612 0.00078124999999999993
643 612 4.3402777777777779e-05
2560 612 1.0850694444444445e-05
2561 612 1.0850694444444445e-05
2562 612 6.5104166666666666e-05
2564 612 6.5104166666666666e-05
2565 612 1.0850694444444445e-05
2655 612 6.5104166666666666e-05
2657 612 1.0850694444444445e-05
2658 612 6.5104166666666666e-05
2659 612 6.5104166666666666e-05
2660 612 6.5104166666666666e-05
2753 612 1.0850694444444445e-05
613 613 0.00078124999999999993
614 613 4.3402777777777779e-05
644 613 4.3402777777777779e-05
645 613 4.3402777777777779e-05
2566 613 1.0850694444444445e-05
2567 613 6.5104166666666666e-05
2569 613 6.5104166666666666e-05
2570 613 1.0850694444444445e-05
2661 613 6.5104166666666666e-05
2662 613 1.0850694444444445e-05
2663 613 6.5104166666666666e-05
2664 613 6.5104166666666666e-05
2665 613 6.5104166666666666e-05
2667 613 1.0850694444444445e-05
2758 613 1.0850694444444445e-05
614 614 0.00078124999999999993
615 614 4.3402777777777779e-05
645 614 4.3402777777777779e-05
646 614 4.3402777777777779e-05
2568 614 1.0850694444444445e-05
2569 614 1.0850694444444445e-05
2570 614 6.5104166666666666e-05
2572 614 6.5104166666666666e-05
2573 614 1.0850694444444445e-05
2663 614 6.5104166666666666e-05
2665 614 1.0850694444444445e-05
2666 614 6.5104166666666666e-05
2667 614 6.5104166666666666e-05
2668 614 6.5104166666666666e-05
2670 614 1.0850694444444445e-05
2761 614 1.0850694444444445e-05
615 615 0.00078124999999999993
616 615 4.3402777777777779e-05
646 615 4.3402777777777779e-05
647 615 4.3402777777777779e-05
2571 615 1.0850694444444445e-05
2572 615 1.0850694444444445e-05
2573 615 6.5104166666666666e-05
2575 615 6.5104166666666666e-05
2576 615 1.0850694444444445e-05
2666 615 6.5104166666666666e-05
2668 615 1.0850694444444445e-05
2669 615 6.5104166666666666e-05
2670 615 6.5104166666666666e-05
2671 615 6.5104166666666666e-05
2673 615 1.0850694444444445e-05
2764 615 1.0850694444444445e-05
616 616 0.00078124999999999993
617 616 4.3402777777777779e-05
647 616 4.3402777777777779e-05
648 616 4.3402777777777779e-05
2574 616 1.0850694444444445e-05
2575 616 1.0850694444444445e-05
2576 616 6.5104166666666666e-05
2578 616 6.5104166666666666e-05
2579 616 1.0850694444444445e-05
2669 616 6.5104166666666666e-05
2671 616 1.0850694444444445e-05
2672 616 6.5104166666666666e-05
2673 616 6.5104166666666666e-05
2674 616 6.5104166666666666e-05
2676 616 1.0850694444444445e-05
2767 616 1.0850694444444445e-05
617 617 0.00078124999999999993
618 617 4.3402777777777779e-05
648 617 4.3402777777777779e-05
649 617 4.3402777777777779e-05
2577 617 1.0850694444444445e-05
2578 617 1.0850694444444445e-05
2579 617 6.5104166666666666e-05
2581 617 6.5104166666666666e-05
2582 617 1.0850694444444445e-05
2672 617 6.5104166666666666e-05
2674 617 1.0850694444444445e-05
2675 617 6.5104166666666666e-05
2676 617 6.5104166666666666e-05
2677 617 6.5104166666666666e-05
2679 617 1.0850694444444445e-05
2770 617 1.0850694444444445e-05
618 618 0.00078124999999999993
619 618 4.3402777777777779e-05
649 618 4.3402777777777779e-05
650 618 4.3402777777777779e-05
2580 618 1.0850694444444445e-05
2581 618 1.0850694444444445e-05
2582 618 6.5104166666666666e-05
2584 618 6.5104166666666666e-05
2585 618 1.0850694444444445e-05
2675 618 6.5104166666666666e-05
2677 618 1.0850694444444445e-05
2678 618 6.5104166666666666e-05
2679 618 6.5104166666666666e-05
2680 618 6.5104166666666666e-05
2682 618 1.0850694444444445e-05
2773 618 1.0850694444444445e-05
619 619 0.00078124999999999993
620 619 4.3402777777777779e-05
650 619 4.3402777777777779e-05
651 619 4.3402777777777779e-05
2583 619 1.0850694444444445e-05
2584 619 1.0850694444444445e-05
2585 619 6.5104166666666666e-05
2587 619 6.5104166666666666e-05
2588 619 1.0850694444444445e-05
2678 619 6.5104166666666666e-05
2680 619 1.0850694444444445e-05
2681 619 6.5104166666666666e-05
2682 619 6.5104166666666666e-05
2683 619 6.5104166666666666e-05
2685 619 1.0850694444444445e-05
2776 619 1.0850694444444445e-05
620 620 0.00078124999999999993
621 620 4.3402777777777779e-05
651 620 4.3402777777777779e-05
652 620 4.3402777777777779e-05
2586 620 1.0850694444444445e-05
2587 620 1.0850694444444445e-05
2588 620 6.5104166666666666e-05
2590 620 6.5104166666666666e-05
2591 620 1.0850694444444445e-05
2681 620 6.5104166666666666e-05
2683 620 1.0850694444444445e-05
2684 620 6.5104166666666666e-05
2685 620 6.5104166666666666e-05
2686 620 6.5104166666666666e-05
2688 620 1.0850694444444445e-05
2779 620 1.0850694444444445e-05
621 621 0.00078124999999999993
622 621 4.3402777777777779e-05
652 621 4.3402777777777779e-05
653 621 4.3402777777777779e-05
2589 621 1.0850694444444445e-05
2590 621 1.0850694444444445e-05
2591 621 6.5104166666666666e-05
2593 621 6.5104166666666666e-05
2594 621 1.0850694444444445e-05
2684 621 6.5104166666666666e-05
2686 621 1.0850694444444445e-05
2687 621 6.5104166666666666e-05
2688 621 6.5104166666666666e-05
2689 621 6.5104166666666666e-05
2691 621 1.0850694444444445e-05
2782 621 1.0850694444444445e-05
622 622 0.00078124999999999993
623 622 4.3402777777777779e-05
653 622 4.3402777777777779e-05
654 622 4.3402777777777779e-05
2592 622 1.0850694444444445e-05
2593 622 1.0850694444444445e-05
2594 622 6.5104166666666666e-05
2596 622 6.5104166666666666e-05
2597 622 1.0850694444444445e-05
2687 622 6.5104166666666666e-05
2689 622 1.0850694444444445e-05
2690 622 6.5104166666666666e-05
2691 622 6.5104166666666666e-05
2692 622 6.5104166666666666e-05
2694 622 1.0850694444444445e-05
2785 622 1.0850694444444445e-05
623 623 0.00078124999999999993
624 623 4.3402777777777779e-05
654 623 4.3402777777777779e-05
655 623 4.3402777777777779e-05
2595 623 1.0850694444444445e-05
2596 623 1.0850694444444445e-05
2597 623 6.5104166666666666e-05
2599 623 6.5104166666666666e-05
2600 623 1.0850694444444445e-05
2690 623 6.5104166666666666e-05
2692 623 1.0850694444444445e-05
2693 623 6.5104166666666666e-05
2694 623 6.5104166666666666e-05
2695 623 6.5104166666666666e-05
2697 623 1.0850694444444445e-05
2788 623 1.0850694444444445e-05
624 624 0.00078124999999999993
625 624 4.3402777777777779e-05
655 624 4.3402777777777779e-05
656 624 4.3402777777777779e-05
2598 624 1.0850694444444445e-05
2599 624 1.0850694444444445e-05
2600 624 6.5104166666666666e-05
2602 624 6.5104166666666666e-05
2603 624 1.0850694444444445e-05
2693 624 6.5104166666666666e-05
2695 624 1.0850694444444445e-05
2696 624 6.5104166666666666e-05
2697 624 6.5104166666666666e-05
2698 624 6.5104166666666666e-05
2700 624 1.0850694444444445e-05
2791 624 1.0850694444444445e-05
625 625 0.00078124999999999993
626 625 4.3402777777777779e-05
656 625 4.3402777777777779e-05
657 625 4.3402777777777779e-05
2601 625 1.0850694444444445e-05
2602 625 1.0850694444444445e-05
2603 625 6.5104166666666666e-05
2605 625 6.5104166666666666e-05
2606 625 1.0850694444444445e-05
2696 625 6.5104166666666666e-05
2698 625 1.0850694444444445e-05
2699 625 6.5104166666666666e-05
2700 625 6.5104166666666666e-05
2701 625 6.5104166666666666e-05
2703 625 1.0850694444444445e-05
2794 625 1.0850694444444445e-05
626 626 0.00078124999999999993
627 626 4.3402777777777779e-05
657 626 4.3402777777777779e-05
658 626 4.3402777777777779e-05
2604 626 1.0850694444444445e-05
2605 626 1.0850694444444445e-05
2606 626 6.5104166666666666e-05
2608 626 6.5104166666666666e-05
2609 626 1.0850694444444445e-05
2699 626 6.5104166666666666e-05
2701 626 1.0850694444444445e-05
2702 626 6.5104166666666666e-05
2703 626 6.5104166666666666e-05
2704 626 6.5104166666666666e-05
2706 626 1.0850694444444445e-05
2797 626 1.0850694444444445e-05
627 627 0.00078124999999999993
628 627 4.3402777777777779e-05
658 627 4.3402777777777779e-05
659 627 4.3402777777777779e-05
2607 627 1.0850694444444445e-05
2608 627 1.0850694444444445e-05
2609 627 6.5104166666666666e-05
2611 627 6.5104166666666666e-05
2612 627 1.0850694444444445e-05
2702 627 6.5104166666666666e-05
2704 627 1.0850694444444445e-05
2705 627 6.5104166666666666e-05
2706 627 6.5104166666666666e-05
2707 627 6.5104166666666666e-05
2709 627 1.0850694444444445e-05
2800 627 1.0850694444444445e-05
628 628 0.00078124999999999993
629 628 4.3402777777777779e-05
659 628 4.3402777777777779e-05
660 628 4.3402777777777779e-05
2610 628 1.0850694444444445e-05
2611 628 1.0850694444444445e-05
2612 628 6.5104166666666666e-05
2614 628 6.5104166666666666e-05
2615 628 1.0850694444444445e-05
2705 628 6.5104166666666666e-05
2707 628 1.0850694444444445e-05
2708 628 6.5104166666666666e-05
2709 628 6.5104166666666666e-05
2710 628 6.5104166666666666e-05
2712 628 1.0850694444444445e-05
2803 628 1.0850694444444445e-05
629 629 0.00078124999999999993
630 629 4.3402777777777779e-05
660 629 4.3402777777777779e-05
661 629 4.3402777777777779e-05
2613 629 1.0850694444444445e-05
2614 629 1.0850694444444445e-05
2615 629 6.5104166666666666e-05
2617 629 6.5104166666666666e-05
2618 629 1.0850694444444445e-05
2708 629 6.5104166666666666e-05
2710 629 1.0850694444444445e-05
2711 629 6.5104166666666666e-05
2712 629 6.5104166666666666e-05
2713 629 6.5104166666666666e-05
2715 629 1.0850694444444445e-05
2806 629 1.0850694444444445e-05
630 630 0.00078124999999999993
631 630 4.3402777777777779e-05
661 630 4.3402777777777779e-05
662 630 4.3402777777777779e-05
2616 630 1.0850694444444445e-05
2617 630 1.0850694444444445e-05
2618 630 6.5104166666666666e-05
2620 630 6.5104166666666666e-05
2621 630 1.0850694444444445e-05
2711 630 6.5104166666666666e-05
2713 630 1.0850694444444445e-05
2714 630 6.5104166666666666e-05
2715 630 6.5104166666666666e-05
2716 630 6.5104166666666666e-05
2718 630 1.0850694444444445e-05
2809 630 1.0850694444444445e-05
631 631 0.00078124999999999993
632 631 4.3402777777777779e-05
662 631 4.3402777777777779e-05
663 631 4.3402777777777779e-05
2619 631 1.0850694444444445e-05
2620 631 1.0850694444444445e-05
2621 631 6.5104166666666666e-05
2623 631 6.5104166666666666e-05
2624 631 1.0850694444444445e-05
2714 631 6.5104166666666666e-05
2716 631 1.0850694444444445e-05
2717 631 6.5104166666666666e-05
2718 631 6.5104166666666666e-05
2719 631 6.5104166666666666e-05
2721 631 1.0850694444444445e-05
2812 631 1.0850694444444445e-05
632 632 0.00078124999999999993
633 632 4.3402777777777779e-05
663 632 4.3402777777777779e-05
664 632 4.3402777777777779e-05
2622 632 1.0850694444444445e-05
2623 632 1.0850694444444445e-05
2624 632 6.5104166666666666e-05
2626 632 6.5104166666666666e-05
2627 632 1.0850694444444445e-05
2717 632 6.5104166666666666e-05
2719 632 1.0850694444444445e-05
2720 632 6.5104166666666666e-05
2721 632 6.5104166666666666e-05
2722 632 6.5104166666666666e-05
2724 632 1.0850694444444445e-05
2815 632 1.0850694444444445e-05
633 633 0.00078124999999999993
634 633 4.3402777777777779e-05
664 633 4.3402777777777779e-05
665 633 4.3402777777777779e-05
2625 633 1.0850694444444445e-05
2626 633 1.0850694444444445e-05
2627 633 6.5104166666666666e-05
2629 633 6.5104166666666666e-05
2630 633 1.0850694444444445e-05
2720 633 6.5104166666666666e-05
2722 633 1.0850694444444445e-05
2723 633 6.5104166666666666e-05
2724 633 6.5104166666666666e-05
2725 633 6.5104166666666666e-05
2727 633 1.0850694444444445e-05
2818 633 1.0850694444444445e-05
634 634 0.00078124999999999993
635 634 4.3402777777777779e-05
665 634 4.3402777777777779e-05
666 634 4.3402777777777779e-05
2628 634 1.0850694444444445e-05
2629 634 1.0850694444444445e-05
2630 634 6.5104166666666666e-05
2632 634 6.5104166666666666e-05
2633 634 1.0850694444444445e-05
2723 634 6.5104166666666666e-05
2725 634 1.0850694444444445e-05
2726 634 6.5104166666666666e-05
2727 634 6.5104166666666666e-05
2728 634 6.5104166666666666e-05
2730 634 1.0850694444444445e-05
2821 634 1.0850694444444445e-05
635 635 0.00078124999999999993
636 635 4.3402777777777779e-05
666 635 4.3402777777777779e-05
667 635 4.3402777777777779e-05
2631 635 1.0850694444444445e-05
2632 635 1.0850694444444445e-05
2633 635 6.5104166666666666e-05
2635 635 6.5104166666666666e-05
2636 635 1.0850694444444445e-05
2726 635 6.5104166666666666e-05
2728 635 1.0850694444444445e-05
2729 635 6.5104166666666666e-05
2730 635 6.5104166666666666e-05
2731 635 6.5104166666666666e-05
2733 635 1.0850694444444445e-05
2824 635 1.0850694444444445e-05
636 636 0.00078124999999999993
637 636 4.3402777777777779e-05
667 636 4.3402777777777779e-05
668 636 4.3402777777777779e-05
2634 636 1.0850694444444445e-05
2635 636 1.0850694444444445e-05
2636 636 6.5104166666666666e-05
2638 636 6.5104166666666666e-05
2639 636 1.0850694444444445e-05
2729 636 6.5104166666666666e-05
2731 636 1.0850694444444445e-05
2732 636 6.5104166666666666e-05
2733 636 6.5104166666666666e-05
2734 636 6.5104166666666666e-05
2736 636 1.0850694444444445e-05
2827 636 1.0850694444444445e-05
637 637 0.00078124999999999993
638 637 4.3402777777777779e-05
668 637 4.3402777777777779e-05
669 637 4.3402777777777779e-05
2637 637 1.0850694444444445e-05
2638 637 1.0850694444444445e-05
2639 637 6.5104166666666666e-05
2641 637 6.5104166666666666e-05
2642 637 1.0850694444444445e-05
2732 637 6.5104166666666666e-05
2734 637 1.0850694444444445e-05
2735 637 6.5104166666666666e-05
2736 637 6.5104166666666666e-05
2737 637 6.5104166666666666e-05
2739 637 1.0850694444444445e-05
2830 637 1.0850694444444445e-05
638 638 0.00078124999999999993
639 638 4.3402777777777779e-05
669 638 4.3402777777777779e-05
670 638 4.3402777777777779e-05
2640 638 1.0850694444444445e-05
2641 638 1.0850694444444445e-05
2642 638 6.5104166666666666e-05
2644 638 6.5104166666666666e-05
2645 638 1.0850694444444445e-05
2735 638 6.5104166666666666e-05
2737 638 1.0850694444444445e-05
2738 638 6.5104166666666666e-05
2739 638 6.5104166666666666e-05
2740 638 6.5104166666666666e-05
2742 638 1.0850694444444445e-05
2833 638 1.0850694444444445e-05
639 639 0.00078124999999999993
640 639 4.3402777777777779e-05
670 639 4.3402777777777779e-05
671 639 4.3402777777777779e-05
2643 639 1.0850694444444445e-05
2644 639 1.0850694444444445e-05
2645 639 6.5104166666666666e-05
2647 639 6.5104166666666666e-05
2648 639 1.0850694444444445e-05
2738 639 6.5104166666666666e-05
2740 639 1.0850694444444445e-05
2741 639 6.5104166666666666e-05
2742 639 6.5104166666666666e-05
2743 639 6.5104166666666666e-05
2745 639 1.0850694444444445e-05
2836 639 1.0850694444444445e-05
640 640 0.00078124999999999993
641 640 4.3402777777777779e-05
671 640 4.3402777777777779e-05
672 640 4.3402777777777779e-05
2646 640 1.0850694444444445e-05
2647 640 1.0850694444444445e-05
2648 640 6.5104166666666666e-05
2650 640 6.5104166666666666e-05
2651 640 1.0850694444444445e-05
2741 640 6.5104166666666666e-05
2743 640 1.0850694444444445e-05
2744 640 6.5104166666666666e-05
2745 640 6.5104166666666666e-05
2746 640 6.5104166666666666e-05
2748 640 1.0850694444444445e-05
2839 640 1.0850694444444445e-05
641 641 0.00078124999999999993
642 641 4.3402777777777779e-05
672 641 4.3402777777777779e-05
673 641 4.3402777777777779e-05
2649 641 1.0850694444444445e-05
2650 641 1.0850694444444445e-05
2651 641 6.5104166666666666e-05
2653 641 6.5104166666666666e-05
2654 641 1.0850694444444445e-05
2744 641 6.5104166666666666e-05
2746 641 1.0850694444444445e-05
2747 641 6.5104166666666666e-05
2748 641 6.5104166666666666e-05
2749 641 6.5104166666666666e-05
2751 641 1.0850694444444445e-05
2842 641 1.0850694444444445e-05
642 642 0.00078124999999999993
643 642 4.3402777777777779e-05
673 642 4.3402777777777779e-05
674 642 4.3402777777777779e-05
2652 642 1.0850694444444445e-05
2653 642 1.0850694444444445e-05
2654 642 6.5104166666666666e-05
2656 642 6.5104166666666666e-05
2657 642 1.0850694444444445e-05
2747 642 6.5104166666666666e-05
2749 642 1.0850694444444445e-05
2750 642 6.5104166666666666e-05
2751 642 6.5104166666666666e-05
2752 642 6.5104166666666666e-05
2754 642 1.0850694444444445e-05
2845 642 1.0850694444444445e-05
643 643 0.00078124999999999993
674 643 4.3402777777777779e-05
2655 643 1.0850694444444445e-05
2656 643 1.0850694444444445e-05
2657 643 6.5104166666666666e-05
2659 643 6.5104166666666666e-05
2660 643 1.0850694444444445e-05
2750 643 6.5104166666666666e-05
2752 643 1.0850694444444445e-05
2753 643 6.5104166666666666e-05
2754 643 6.5104166666666666e-05
2755 643 6.5104166666666666e-05
2848 643 1.0850694444444445e-05
644 644 0.00078124999999999993
645 644 4.3402777777777779e-05
675 644 4.3402777777777779e-05
676 644 4.3402777777777779e-05
2661 644 1.0850694444444445e-05
2662 644 6.5104166666666666e-05
2664 644 6.5104166666666666e-05
2665 644 1.0850694444444445e-05
2756 644 6.5104166666666666e-05
2757 644 1.0850694444444445e-05
2758 644 6.5104166666666666e-05
2759 644 6.5104166666666666e-05
2760 644 6.5104166666666666e-05
2762 644 1.0850694444444445e-05
2853 644 1.0850694444444445e-05
645 645 0.00078124999999999993
646 645 4.3402777777777779e-05
676 645 4.3402777777777779e-05
677 645 4.3402777777777779e-05
2663 645 1.0850694444444445e-05
2664 645 1.0850694444444445e-05
2665 645 6.5104166666666666e-05
2667 645 6.5104166666666666e-05
2668 645 1.0850694444444445e-05
2758 645 6.5104166666666666e-05
2760 645 1.0850694444444445e-05
2761 645 6.5104166666666666e-05
2762 645 6.5104166666666666e-05
2763 645 6.5104166666666666e-05
2765 645 1.0850694444444445e-05
2856 645 1.0850694444444445e-05
646 646 0.00078124999999999993
647 646 4.3402777777777779e-05
677 646 4.3402777777777779e-05
678 646 4.3402777777777779e-05
2666 646 1.0850694444444445e-05
2667 646 1.0850694444444445e-05
2668 646 6.5104166666666666e-05
2670 646 6.5104166666666666e-05
2671 646 1.0850694444444445e-05
2761 646 6.5104166666666666e-05
2763 646 1.0850694444444445e-05
2764 646 6.5104166666666666e-05
2765 646 6.5104166666666666e-05
2766 646 6.5104166666666666e-05
2768 646 1.0850694444444445e-05
2859 646 1.0850694444444445e-05
647 647 0.00078124999999999993
648 647 4.3402777777777779e-05
678 647 4.3402777777777779e-05
679 647 4.3402777777777779e-05
2669 647 1.0850694444444445e-05
2670 647 1.0850694444444445e-05
2671 647 6.5104166666666666e-05
2673 647 6.5104166666666666e-05
2674 647 1.0850694444444445e-05
2764 647 6.5104166666666666e-05
2766 647 1.0850694444444445e-05
2767 647 6.5104166666666666e-05
2768 647 6.5104166666666666e-05
2769 647 6.5104166666666666e-05
2771 647 1.0850694444444445e-05
2862 647 1.0850694444444445e-05
648 648 0.00078124999999999993
649 648 4.3402777777777779e-05
679 648 4.3402777777777779e-05
680 648 4.3402777777777779e-05
2672 648 1.0850694444444445e-05
2673 648 1.0850694444444445e-05
2674 648 6.5104166666666666e-05
2676 648 6.5104166666666666e-05
2677 648 1.0850694444444445e-05
2767 648 6.5104166666666666e-05
2769 648 1.0850694444444445e-05
2770 648 6.5104166666666666e-05
2771 648 6.5104166666666666e-05
2772 648 6.5104166666666666e-05
2774 648 1.0850694444444445e-05
2865 648 1.0850694444444445e-05
649 649 0.00078124999999999993
650 649 4.3402777777777779e-05
680 649 4.3402777777777779e-05
681 649 4.3402777777777779e-05
2675 649 1.0850694444444445e-05
2676 649 1.0850694444444445e-05
2677 649 6.5104166666666666e-05
2679 649 6.5104166666666666e-05
2680 649 1.0850694444444445e-05
2770 649 6.5104166666666666e-05
2772 649 1.0850694444444445e-05
2773 649 6.5104166666666666e-05
2774 649 6.5104166666666666e-05
2775 649 6.5104166666666666e-05
2777 649 1.0850694444444445e-05
2868 649 1.0850694444444445e-05
650 650 0.00078124999999999993
651 650 4.3402777777777779e-05
681 650 4.3402777777777779e-05
682 650 4.3402777777777779e-05
2678 650 1.0850694444444445e-05
2679 650 1.0850694444444445e-05
2680 650 6.5104166666666666e-05
2682 650 6.5104166666666666e-05
2683 650 1.0850694444444445e-05
2773 650 6.5104166666666666e-05
2775 650 1.0850694444444445e-05
2776 650 6.5104166666666666e-05
2777 650 6.5104166666666666e-05
2778 650 6.5104166666666666e-05
2780 650 1.0850694444444445e-05
2871 650 1.0850694444444445e-05
651 651 0.00078124999999999993
652 651 4.3402777777777779e-05
682 651 4.3402777777777779e-05
683 651 4.3402777777777779e-05
2681 651 1.0850694444444445e-05
2682 651 1.0850694444444445e-05
2683 651 6.5104166666666666e-05
2685 651 6.5104166666666666e-05
2686 651 1.0850694444444445e-05
2776 651 6.5104166666666666e-05
2778 651 1.0850694444444445e-05
2779 651 6.5104166666666666e-05
2780 651 6.5104166666666666e-05
2781 651 6.5104166666666666e-05
2783 651 1.0850694444444445e-05
2874 651 1.0850694444444445e-05
652 652 0.00078124999999999993
653 652 4.3402777777777779e-05
683 652 4.3402777777777779e-05
684 652 4.3402777777777779e-05
2684 652 1.0850694444444445e-05
2685 652 1.0850694444444445e-05
2686 652 6.5104166666666666e-05
2688 652 6.5104166666666666e-05
2689 652 1.0850694444444445e-05
2779 652 6.5104166666666666e-05
2781 652 1.0850694444444445e-05
2782 652 6.5104166666666666e-05
2783 652 6.5104166666666666e-05
2784 652 6.5104166666666666e-05
2786 652 1.0850694444444445e-05
2877 652 1.0850694444444445e-05
653 653 0.00078124999999999993
654 653 4.3402777777777779e-05
684 653 4.3402777777777779e-05
685 653 4.3402777777777779e-05
2687 653 1.0850694444444445e-05
2688 653 1.0850694444444445e-05
2689 653 6.5104166666666666e-05
2691 653 6.5104166666666666e-05
2692 653 1.0850694444444445e-05
2782 653 6.5104166666666666e-05
2784 653 1.0850694444444445e-05
2785 653 6.5104166666666666e-05
2786 653 6.5104166666666666e-05
2787 653 6.5104166666666666e-05
2789 653 1.0850694444444445e-05
2880 653 1.0850694444444445e-05
654 654 0.00078124999999999993
655 654 4.3402777777777779e-05
685 654 4.3402777777777779e-05
686 654 4.3402777777777779e-05
2690 654 1.0850694444444445e-05
2691 654 1.0850694444444445e-05
2692 654 6.5104166666666666e-05
2694 654 6.5104166666666666e-05
2695 654 1.0850694444444445e-05
2785 654 6.5104166666666666e-05
2787 654 1.0850694444444445e-05
2788 654 6.5104166666666666e-05
2789 654 6.5104166666666666e-05
2790 654 6.5104166666666666e-05
2792 654 1.0850694444444445e-05
2883 654 1.0850694444444445e-05
655 655 0.00078124999999999993
656 655 4.3402777777777779e-05
686 655 4.3402777777777779e-05
687 655 4.3402777777777779e-05
2693 655 1.0850694444444445e-05
2694 655 1.0850694444444445e-05
2695 655 6.5104166666666666e-05
2697 655 6.5104166666666666e-05
2698 655 1.0850694444444445e-05
2788 655 6.5104166666666666e-05
2790 655 1.0850694444444445e-05
2791 655 6.5104166666666666e-05
2792 655 6.5104166666666666e-05
2793 655 6.5104166666666666e-05
2795 655 1.0850694444444445e-05
2886 655 1.0850694444444445e-05
656 656 0.00078124999999999993
657 656 4.3402777777777779e-05
687 656 4.3402777777777779e-05
688 656 4.3402777777777779e-05
2696 656 1.0850694444444445e-05
2697 656 1.0850694444444445e-05
2698 656 6.5104166666666666e-05
2700 656 6.5104166666666666e-05
2701 656 1.0850694444444445e-05
2791 656 6.5104166666666666e-05
2793 656 1.0850694444444445e-05
2794 656 6.5104166666666666e-05
2795 656 6.5104166666666666e-05
2796 656 6.5104166666666666e-05
2798 656 1.0850694444444445e-05
2889 656 1.0850694444444445e-05
657 657 0.00078124999999999993
658 657 4.3402777777777779e-05
688 657 4.3402777777777779e-05
689 657 4.3402777777777779e-05
2699 657 1.0850694444444445e-05
2700 657 1.0850694444444445e-05
2701 657 6.5104166666666666e-05
2703 657 6.5104166666666666e-05
2704 657 1.0850694444444445e-05
2794 657 6.5104166666666666e-05
2796 657 1.0850694444444445e-05
2797 657 6.5104166666666666e-05
2798 657 6.5104166666666666e-05
2799 657 6.5104166666666666e-05
2801 657 1.0850694444444445e-05
2892 657 1.0850694444444445e-05
658 658 0.00078124999999999993
659 658 4.3402777777777779e-05
689 658 4.3402777777777779e-05
690 658 4.3402777777777779e-05
2702 658 1.0850694444444445e-05
2703 658 1.0850694444444445e-05
2704 658 6.5104166666666666e-05
2706 658 6.5104166666666666e-05
2707 658 1.0850694444444445e-05
2797 658 6.5104166666666666e-05
2799 658 1.0850694444444445e-05
2800 658 6.5104166666666666e-05
2801 658 6.5104166666666666e-05
2802 658 6.5104166666666666e-05
2804 658 1.0850694444444445e-05
2895 658 1.0850694444444445e-05
659 659 0.00078124999999999993
660 659 4.3402777777777779e-05
690 659 4.3402777777777779e-05
691 659 4.3402777777777779e-05
2705 659 1.0850694444444445e-05
2706 659 1.0850694444444445e-05
2707 659 6.5104166666666666e-05
2709 659 6.5104166666666666e-05
2710 659 1.0850694444444445e-05
2800 659 6.5104166666666666e-05
2802 659 1.0850694444444445e-05
2803 659 6.5104166666666666e-05
2804 659 6.5104166666666666e-05
2805 659 6.5104166666666666e-05
2807 659 1.0850694444444445e-05
2898 659 1.0850694444444445e-05
660 660 0.00078124999999999993
661 660 4.3402777777777779e-05
691 660 4.3402777777777779e-05
692 660 4.3402777777777779e-05
2708 660 1.0850694444444445e-05
2709 660 1.0850694444444445e-05
2710 660 6.5104166666666666e-05
2712 660 6.5104166666666666e-05
2713 660 1.0850694444444445e-05
2803 660 6.5104166666666666e-05
2805 660 1.0850694444444445e-05
2806 660 6.5104166666666666e-05
2807 660 6.5104166666666666e-05
2808 660 6.5104166666666666e-05
2810 660 1.0850694444444445e-05
2901 660 1.0850694444444445e-05
661 661 0.00078124999999999993
662 661 4.3402777777777779e-05
692 661 4.3402777777777779e-05
693 661 4.3402777777777779e-05
2711 661 1.0850694444444445e-05
2712 661 1.0850694444444445e-05
2713 661 6.5104166666666666e-05
2715 661 6.5104166666666666e-05
2716 661 1.0850694444444445e-05
2806 661 6.5104166666666666e-05
2808 661 1.0850694444444445e-05
2809 661 6.5104166666666666e-05
2810 661 6.5104166666666666e-05
2811 661 6.5104166666666666e-05
2813 661 1.0850694444444445e-05
2904 661 1.0850694444444445e-05
662 662 0.00078124999999999993
663 662 4.3402777777777779e-05
693 662 4.3402777777777779e-05
694 662 4.3402777777777779e-05
2714 662 1.0850694444444445e-05
2715 662 1.0850694444444445e-05
2716 662 6.5104166666666666e-05
2718 662 6.5104166666666666e-05
2719 662 1.0850694444444445e-05
2809 662 6.5104166666666666e-05
2811 662 1.0850694444444445e-05
2812 662 6.5104166666666666e-05
2813 662 6.5104166666666666e-05
2814 662 6.5104166666666666e-05
2816 662 1.0850694444444445e-05
2907 662 1.0850694444444445e-05
663 663 0.00078124999999999993
664 663 4.3402777777777779e-05
694 663 4.3402777777777779e-05
695 663 4.3402777777777779e-05
2717 663 1.0850694444444445e-05
2718 663 1.0850694444444445e-05
2719 663 6.5104166666666666e-05
2721 663 6.5104166666666666e-05
2722 663 1.0850694444444445e-05
2812 663 6.5104166666666666e-05
2814 663 1.0850694444444445e-05
2815 663 6.5104166666666666e-05
2816 663 6.5104166666666666e-05
2817 663 6.5104166666666666e-05
2819 663 1.0850694444444445e-05
2910 663 1.0850694444444445e-05
664 664 0.00078124999999999993
665 664 4.3402777777777779e-05
695 664 4.3402777777777779e-05
696 664 4.3402777777777779e-05
2720 664 1.0850694444444445e-05
2721 664 1.0850694444444445e-05
2722 664 6.5104166666666666e-05
2724 664 6.5104166666666666e-05
2725 664 1.0850694444444445e-05
2815 664 6.5104166666666666e-05
2817 664 1.0850694444444445e-05
2818 664 6.5104166666666666e-05
2819 664 6.5104166666666666e-05
2820 664 6.5104166666666666e-05
2822 664 1.0850694444444445e-05
2913 664 1.0850694444444445e-05
665 665 0.00078124999999999993
666 665 4.3402777777777779e-05
696 665 4.3402777777777779e-05
697 665 4.3402777777777779e-05
2723 665 1.0850694444444445e-05
2724 665 1.0850694444444445e-05
2725 665 6.5104166666666666e-05
2727 665 6.5104166666666666e-05
2728 665 1.0850694444444445e-05
2818 665 6.5104166666666666e-05
2820 665 1.0850694444444445e-05
2821 665 6.5104166666666666e-05
2822 665 6.5104166666666666e-05
2823 665 6.5104166666666666e-05
2825 665 1.0850694444444445e-05
2916 665 1.0850694444444445e-05
666 666 0.00078124999999999993
667 666 4.3402777777777779e-05
697 666 4.3402777777777779e-05
698 666 4.3402777777777779e-05
2726 666 1.0850694444444445e-05
2727 666 1.0850694444444445e-05
2728 666 6.5104166666666666e-05
2730 666 6.5104166666666666e-05
2731 666 1.0850694444444445e-05
2821 666 6.5104166666666666e-05
2823 666 1.0850694444444445e-05
2824 666 6.5104166666666666e-05
2825 666 6.5104166666666666e-05
2826 666 6.5104166666666666e-05
2828 666 1.0850694444444445e-05
2919 666 1.0850694444444445e-05
667 667 0.00078124999999999993
668 667 4.3402777777777779e-05
698 667 4.3402777777777779e-05
699 667 4.3402777777777779e-05
2729 667 1.0850694444444445e-05
2730 667 1.0850694444444445e-05
2731 667 6.5104166666666666e-05
2733 667 6.5104166666666666e-05
2734 667 1.0850694444444445e-05
2824 667 6.5104166666666666e-05
2826 667 1.0850694444444445e-05
2827 667 6.5104166666666666e-05
2828 667 6.5104166666666666e-05
2829 667 6.5104166666666666e-05
2831 667 1.0850694444444445e-05
2922 667 1.0850694444444445e-05
668 668 0.00078124999999999993
669 668 4.3402777777777779e-05
699 668 4.3402777777777779e-05
700 668 4.3402777777777779e-05
2732 668 1.0850694444444445e-05
2733 668 1.0850694444444445e-05
2734 668 6.5104166666666666e-05
2736 668 6.5104166666666666e-05
2737 668 1.0850694444444445e-05
2827 668 6.5104166666666666e-05
2829 668 1.0850694444444445e-05
2830 668 6.5104166666666666e-05
2831 668 6.5104166666666666e-05
2832 668 6.5104166666666666e-05
2834 668 1.0850694444444445e-05
2925 668 1.0850694444444445e-05
669 669 0.00078124999999999993
670 669 4.3402777777777779e-05
700 669 4.3402777777777779e-05
701 669 4.3402777777777779e-05
2735 669 1.0850694444444445e-05
2736 669 1.0850694444444445e-05
2737 669 6.5104166666666666e-05
2739 669 6.5104166666666666e-05
2740 669 1.0850694444444445e-05
2830 669 6.5104166666666666e-05
2832 669 1.0850694444444445e-05
2833 669 6.5104166666666666e-05
2834 669 6.5104166666666666e-05
2835 669 6.5104166666666666e-05
2837 669 1.0850694444444445e-05
2928 669 1.0850694444444445e-05
670 670 0.00078124999999999993
671 670 4.3402777777777779e-05
701 670 4.3402777777777779e-05
702 670 4.3402777777777779e-05
2738 670 1.0850694444444445e-05
2739 670 1.0850694444444445e-05
2740 670 6.5104166666666666e-05
2742 670 6.5104166666666666e-05
2743 670 1.0850694444444445e-05
2833 670 6.5104166666666666e-05
2835 670 1.0850694444444445e-05
2836 670 6.5104166666666666e-05
2837 670 6.5104166666666666e-05
2838 670 6.5104166666666666e-05
2840 670 1.0850694444444445e-05
2931 670 1.0850694444444445e-05
671 671 0.00078124999999999993
672 671 4.3402777777777779e-05
702 671 4.3402777777777779e-05
703 671 4.3402777777777779e-05
2741 671 1.0850694444444445e-05
2742 671 1.0850694444444445e-05
2743 671 6.5104166666666666e-05
2745 671 6.5104166666666666e-05
2746 671 1.0850694444444445e-05
2836 671 6.5104166666666666e-05
2838 671 1.0850694444444445e-05
2839 671 6.5104166666666666e-05
2840 671 6.5104166666666666e-05
2841 671 6.5104166666666666e-05
2843 671 1.0850694444444445e-05
2934 671 1.0850694444444445e-05
672 672 0.00078124999999999993
673 672 4.3402777777777779e-05
703 672 4.3402777777777779e-05
704 672 4.3402777777777779e-05
2744 672 1.0850694444444445e-05
2745 672 1.0850694444444445e-05
2746 672 6.5104166666666666e-05
2748 672 6.5104166666666666e-05
2749 672 1.0850694444444445e-05
2839 672 6.5104166666666666e-05
2841 672 1.0850694444444445e-05
2842 672 6.5104166666666666e-05
2843 672 6.5104166666666666e-05
2844 672 6.5104166666666666e-05
2846 672 1.0850694444444445e-05
2937 672 1.0850694444444445e-05
673 673 0.00078124999999999993
674 673 4.3402777777777779e-05
704 673 4.3402777777777779e-05
705 673 4.3402777777777779e-05
2747 673 1.0850694444444445e-05
2748 673 1.0850694444444445e-05
2749 673 6.5104166666666666e-05
2751 673 6.5104166666666666e-05
2752 673 1.0850694444444445e-05
2842 673 6.5104166666666666e-05
2844 673 1.0850694444444445e-05
2845 673 6.5104166666666666e-05
2846 673 6.5104166666666666e-05
2847 673 6.5104166666666666e-05
2849 673 1.0850694444444445e-05
2940 673 1.0850694444444445e-05
674 674 0.00078124999999999993
705 674 4.3402777777777779e-05
2750 674 1.0850694444444445e-05
2751 674 1.0850694444444445e-05
2752 674 6.5104166666666666e-05
2754 674 6.5104166666666666e-05
2755 674 1.0850694444444445e-05
2845 674 6.5104166666666666e-05
2847 674 1.0850694444444445e-05
2848 674 6.5104166666666666e-05
2849 674 6.5104166666666666e-05
2850 674 6.5104166666666666e-05
2943 674 1.0850694444444445e-05
675 675 0.00078124999999999993
676 675 4.3402777777777779e-05
2756 675 1.0850694444444445e-05
2757 675 6.5104166666666666e-05
2759 675 6.5104166666666666e-05
2760 675 1.0850694444444445e-05
2851 675 6.5104166666666666e-05
2852 675 1.0850694444444445e-05
2853 675 6.5104166666666666e-05
2854 675 6.5104166666666666e-05
2855 675 6.5104166666666666e-05
2857 675 1.0850694444444445e-05
676 676 0.00078124999999999993
677 676 4.3402777777777779e-05
2758 676 1.0850694444444445e-05
2759 676 1.0850694444444445e-05
2760 676 6.5104166666666666e-05
2762 676 6.5104166666666666e-05
2763 676 1.0850694444444445e-05
2853 676 6.5104166666666666e-05
2855 676 1.0850694444444445e-05
2856 676 6.5104166666666666e-05
2857 676 6.5104166666666666e-05
2858 676 6.5104166666666666e-05
2860 676 1.0850694444444445e-05
677 677 0.00078124999999999993
678 677 4.3402777777777779e-05
2761 677 1.0850694444444445e-05
2762 677 1.0850694444444445e-05
2763 677 6.5104166666666666e-05
2765 677 6.5104166666666666e-05
2766 677 1.0850694444444445e-05
2856 677 6.5104166666666666e-05
2858 677 1.0850694444444445e-05
2859 677 6.5104166666666666e-05
2860 677 6.5104166666666666e-05
2861 677 6.5104166666666666e-05
2863 677 1.0850694444444445e-05
678 678 0.00078124999999999993
679 678 4.3402777777777779e-05
2764 678 1.0850694444444445e-05
2765 678 1.0850694444444445e-05
2766 678 6.5104166666666666e-05
2768 678 6.5104166666666666e-05
2769 678 1.0850694444444445e-05
2859 678 6.5104166666666666e-05
2861 678 1.0850694444444445e-05
2862 678 6.5104166666666666e-05
2863 678 6.5104166666666666e-05
2864 678 6.5104166666666666e-05
2866 678 1.0850694444444445e-05
679 679 0.00078124999999999993
680 679 4.3402777777777779e-05
2767 679 1.0850694444444445e-05
2768 679 1.0850694444444445e-05
2769 679 6.5104166666666666e-05
2771 679 6.5104166666666666e-05
2772 679 1.0850694444444445e-05
2862 679 6.5104166666666666e-05
2864 679 1.0850694444444445e-05
2865 679 6.5104166666666666e-05
2866 679 6.5104166666666666e-05
2867 679 6.5104166666666666e-05
2869 679 1.0850694444444445e-05
680 680 0.00078124999999999993
681 680 4.3402777777777779e-05
2770 680 1.0850694444444445e-05
2771 680 1.0850694444444445e-05
2772 680 6.5104166666666666e-05
2774 680 6.5104166666666666e-05
2775 680 1.0850694444444445e-05
2865 680 6.5104166666666666e-05
2867 680 1.0850694444444445e-05
2868 680 6.5104166666666666e-05
2869 680 6.5104166666666666e-05
2870 680 6.5104166666666666e-05
2872 680 1.0850694444444445e-05
681 681 0.00078124999999999993
682 681 4.3402777777777779e-05
2773 681 1.0850694444444445e-05
2774 681 1.0850694444444445e-05
2775 681 6.5104166666666666e-05
2777 681 6.5104166666666666e-05
2778 681 1.0850694444444445e-05
2868 681 6.5104166666666666e-05
2870 681 1.0850694444444445e-05
2871 681 6.5104166666666666e-05
2872 681 6.5104166666666666e-05
2873 681 6.5104166666666666e-05
2875 681 1.0850694444444445e-05
682 682 0.00078124999999999993
683 682 4.3402777777777779e-05
2776 682 1.0850694444444445e-05
2777 682 1.0850694444444445e-05
2778 682 6.5104166666666666e-05
2780 682 6.5104166666666666e-05
2781 682 1.0850694444444445e-05
2871 682 6.5104166666666666e-05
2873 682 1.0850694444444445e-05
2874 682 6.5104166666666666e-05
2875 682 6.5104166666666666e-05
2876 682 6.5104166666666666e-05
2878 682 1.0850694444444445e-05
683 683 0.00078124999999999993
684 683 4.3402777777777779e-05
2779 683 1.0850694444444445e-05
2780 683 1.0850694444444445e-05
2781 683 6.5104166666666666e-05
2783 683 6.5104166666666666e-05
2784 683 1.0850694444444445e-05
2874 683 6.5104166666666666e-05
2876 683 1.0850694444444445e-05
2877 683 6.5104166666666666e-05
2878 683 6.5104166666666666e-05
2879 683 6.5104166666666666e-05
2881 683 1.0850694444444445e-05
684 684 0.00078124999999999993
685 684 4.3402777777777779e-05
2782 684 1.0850694444444445e-05
2783 684 1.0850694444444445e-05
2784 684 6.5104166666666666e-05
2786 684 6.5104166666666666e-05
2787 684 1.0850694444444445e-05
2877 684 6.5104166666666666e-05
2879 684 1.0850694444444445e-05
2880 684 6.5104166666666666e-05
2881 684 6.5104166666666666e-05
2882 684 6.5104166666666666e-05
2884 684 1.0850694444444445e-05
685 685 0.00078124999999999993
686 685 4.3402777777777779e-05
2785 685 1.0850694444444445e-05
2786 685 1.0850694444444445e-05
2787 685 6.5104166666666666e-05
2789 685 6.5104166666666666e-05
2790 685 1.0850694444444445e-05
2880 685 6.5104166666666666e-05
2882 685 1.0850694444444445e-05
2883 685 6.5104166666666666e-05
2884 685 6.5104166666666666e-05
2885 685 6.5104166666666666e-05
2887 685 1.0850694444444445e-05
686 686 0.00078124999999999993
687 686 4.3402777777777779e-05
2788 686 1.0850694444444445e-05
2789 686 1.0850694444444445e-05
2790 686 6.5104166666666666e-05
2792 686 6.5104166666666666e-05
2793 686 1.0850694444444445e-05
2883 686 6.5104166666666666e-05
2885 686 1.0850694444444445e-05
2886 686 6.5104166666666666e-05
2887 686 6.5104166666666666e-05
2888 686 6.5104166666666666e-05
2890 686 1.0850694444444445e-05
687 687 0.00078124999999999993
688 687 4.3402777777777779e-05
2791 687 1.0850694444444445e-05
2792 687 1.0850694444444445e-05
2793 687 6.5104166666666666e-05
2795 687 6.5104166666666666e-05
2796 687 1.0850694444444445e-05
2886 687 6.5104166666666666e-05
2888 687 1.0850694444444445e-05
2889 687 6.5104166666666666e-05
2890 687 6.5104166666666666e-05
2891 687 6.5104166666666666e-05
2893 687 1.0850694444444445e-05
688 688 0.00078124999999999993
689 688 4.3402777777777779e-05
2794 688 1.0850694444444445e-05
2795 688 1.0850694444444445e-05
2796 688 6.5104166666666666e-05
2798 688 6.5104166666666666e-05
2799 688 1.0850694444444445e-05
2889 688 6.5104166666666666e-05
2891 688 1.0850694444444445e-05
2892 688 6.5104166666666666e-05
2893 688 6.5104166666666666e-05
2894 688 6.5104166666666666e-05
2896 688 1.0850694444444445e-05
689 689 0.00078124999999999993
690 689 4.3402777777777779e-05
2797 689 1.0850694444444445e-05
2798 689 1.0850694444444445e-05
2799 689 6.5104166666666666e-05
2801 689 6.5104166666666666e-05
2802 689 1.0850694444444445e-05
2892 689 6.5104166666666666e-05
2894 689 1.0850694444444445e-05
2895 689 6.5104166666666666e-05
2896 689 6.5104166666666666e-05
2897 689 6.5104166666666666e-05
2899 689 1.0850694444444445e-05
690 690 0.00078124999999999993
691 690 4.3402777777777779e-05
2800 690 1.0850694444444445e-05
2801 690 1.0850694444444445e-05
2802 690 6.5104166666666666e-05
2804 690 6.5104166666666666e-05
2805 690 1.0850694444444445e-05
2895 690 6.5104166666666666e-05
2897 690 1.0850694444444445e-05
2898 690 6.5104166666666666e-05
2899 690 6.5104166666666666e-05
2900 690 6.5104166666666666e-05
2902 690 1.0850694444444445e-05
691 691 0.00078124999999999993
692 691 4.3402777777777779e-05
2803 691 1.0850694444444445e-05
2804 691 1.0850694444444445e-05
2805 691 6.5104166666666666e-05
2807 691 6.5104166666666666e-05
2808 691 1.0850694444444445e-05
2898 691 6.5104166666666666e-05
2900 691 1.0850694444444445e-05
2901 691 6.5104166666666666e-05
2902 691 6.5104166666666666e-05
2903 691 6.5104166666666666e-05
2905 691 1.0850694444444445e-05
692 692 0.00078124999999999993
693 692 4.3402777777777779e-05
2806 692 1.0850694444444445e-05
2807 692 1.0850694444444445e-05
2808 692 6.5104166666666666e-05
2810 692 6.5104166666666666e-05
2811 692 1.0850694444444445e-05
2901 692 6.5104166666666666e-05
2903 692 1.0850694444444445e-05
2904 692 6.5104166666666666e-05
2905 692 6.5104166666666666e-05
2906 692 6.5104166666666666e-05
2908 692 1.0850694444444445e-05
693 693 0.00078124999999999993
694 693 4.3402777777777779e-05
2809 693 1.0850694444444445e-05
2810 693 1.0850694444444445e-05
2811 693 6.5104166666666666e-05
2813 693 6.5104166666666666e-05
2814 693 1.0850694444444445e-05
2904 693 6.5104166666666666e-05
2906 693 1.0850694444444445e-05
2907 693 6.5104166666666666e-05
2908 693 6.5104166666666666e-05
2909 693 6.5104166666666666e-05
2911 693 1.0850694444444445e-05
694 694 0.00078124999999999993
695 694 4.3402777777777779e-05
2812 694 1.0850694444444445e-05
2813 694 1.0850694444444445e-05
2814 694 6.5104166666666666e-05
2816 694 6.5104166666666666e-05
2817 694 1.0850694444444445e-05
2907 694 6.5104166666666666e-05
2909 694 1.0850694444444445e-05
2910 694 6.5104166666666666e-05
2911 694 6.5104166666666666e-05
2912 694 6.5104166666666666e-05
2914 694 1.0850694444444445e-05
695 695 0.00078124999999999993
696 695 4.3402777777777779e-05
2815 695 1.0850694444444445e-05
2816 695 1.0850694444444445e-05
2817 695 6.5104166666666666e-05
2819 695 6.5104166666666666e-05
2820 695 1.0850694444444445e-05
2910 695 6.5104166666666666e-05
2912 695 1.0850694444444445e-05
2913 695 6.5104166666666666e-05
2914 695 6.5104166666666666e-05
2915 695 6.5104166666666666e-05
2917 695 1.0850694444444445e-05
696 696 0.00078124999999999993
697 696 4.3402777777777779e-05
2818 696 1.0850694444444445e-05
2819 696 1.0850694444444445e-05
2820 696 6.5104166666666666e-05
2822 696 6.5104166666666666e-05
2823 696 1.0850694444444445e-05
2913 696 6.5104166666666666e-05
2915 696 1.0850694444444445e-05
2916 696 6.5104166666666666e-05
2917 696 6.5104166666666666e-05
2918 696 6.5104166666666666e-05
2920 696 1.0850694444444445e-05
697 697 0.00078124999999999993
698 697 4.3402777777777779e-05
2821 697 1.0850694444444445e-05
2822 697 1.0850694444444445e-05
2823 697 6.5104166666666666e-05
2825 697 6.5104166666666666e-05
2826 697 1.0850694444444445e-05
2916 697 6.5104166666666666e-05
2918 697 1.0850694444444445e-05
2919 697 6.5104166666666666e-05
2920 697 6.5104166666666666e-05
2921 697 6.5104166666666666e-05
2923 697 1.0850694444444445e-05
698 698 0.00078124999999999993
699 698 4.3402777777777779e-05
2824 698 1.0850694444444445e-05
2825 698 1.0850694444444445e-05
2826 698 6.5104166666666666e-05
2828 698 6.5104166666666666e-05
2829 698 1.0850694444444445e-05
2919 698 6.5104166666666666e-05
2921 698 1.0850694444444445e-05
2922 698 6.5104166666666666e-05
2923 698 6.5104166666666666e-05
2924 698 6.5104166666666666e-05
2926 698 1.0850694444444445e-05
699 699 0.00078124999999999993
700 699 4.3402777777777779e-05
2827 699 1.0850694444444445e-05
2828 699 1.0850694444444445e-05
2829 699 6.5104166666666666e-05
2831 699 6.5104166666666666e-05
2832 699 1.0850694444444445e-05
2922 699 6.5104166666666666e-05
2924 699 1.0850694444444445e-05
2925 699 6.5104166666666666e-05
2926 699 6.5104166666666666e-05
2927 699 6.5104166666666666e-05
2929 699 1.0850694444444445e-05
700 700 0.00078124999999999993
701 700 4.3402777777777779e-05
2830 700 1.0850694444444445e-05
2831 700 1.0850694444444445e-05
2832 700 6.5104166666666666e-05
2834 700 6.5104166666666666e-05
2835 700 1.0850694444444445e-05
2925 700 6.5104166666666666e-05
2927 700 1.0850694444444445e-05
2928 700 6.5104166666666666e-05
2929 700 6.5104166666666666e-05
2930 700 6.5104166666666666e-05
2932 700 1.0850694444444445e-05
701 701 0.00078124999999999993
702 701 4.3402777777777779e-05
2833 701 1.0850694444444445e-05
2834 701 1.0850694444444445e-05
2835 701 6.5104166666666666e-05
2837 701 6.5104166666666666e-05
2838 701 1.0850694444444445e-05
2928 701 6.5104166666666666e-05
2930 701 1.0850694444444445e-05
2931 701 6.5104166666666666e-05
2932 701 6.5104166666666666e-05
2933 701 6.5104166666666666e-05
2935 701 1.0850694444444445e-05
702 702 0.00078124999999999993
703 702 4.3402777777777779e-05
2836 702 1.0850694444444445e-05
2837 702 1.0850694444444445e-05
2838 702 6.5104166666666666e-05
2840 702 6.5104166666666666e-05
2841 702 1.0850694444444445e-05
2931 702 6.5104166666666666e-05
2933 702 1.0850694444444445e-05
2934 702 6.5104166666666666e-05
2935 702 6.5104166666666666e-05
2936 702 6.5104166666666666e-05
2938 702 1.0850694444444445e-05
703 703 0.00078124999999999993
704 703 4.3402777777777779e-05
2839 703 1.0850694444444445e-05
2840 703 1.0850694444444445e-05
2841 703 6.5104166666666666e-05
2843 703 6.5104166666666666e-05
2844 703 1.0850694444444445e-05
2934 703 6.5104166666666666e-05
2936 703 1.0850694444444445e-05
2937 703 6.5104166666666666e-05
2938 703 6.5104166666666666e-05
2939 703 6.5104166666666666e-05
2941 703 1.0850694444444445e-05
704 704 0.00078124999999999993
705 704 4.3402777777777779e-05
2842 704 1.0850694444444445e-05
2843 704 1.0850694444444445e-05
2844 704 6.5104166666666666e-05
2846 704 6.5104166666666666e-05
2847 704 1.0850694444444445e-05
2937 704 6.5104166666666666e-05
2939 704 1.0850694444444445e-05
2940 704 6.5104166666666666e-05
2941 704 6.5104166666666666e-05
2942 704 6.5104166666666666e-05
2944 704 1.0850694444444445e-05
705 705 0.00078124999999999993
2845 705 1.0850694444444445e-05
2846 705 1.0850694444444445e-05
2847 705 6.5104166666666666e-05
2849 705 6.5104166666666666e-05
2850 705 1.0850694444444445e-05
2940 705 6.5104166666666666e-05
2942 705 1.0850694444444445e-05
2943 705 6.5104166666666666e-05
2944 705 6.5104166666666666e-05
2945 705 6.5104166666666666e-05
706 706 4.3402777777777779e-05
707 706 1.0850694444444445e-05
737 706 1.0850694444444445e-05
707 707 4.3402777777777779e-05
708 707 1.0850694444444445e-05
739 707 1.0850694444444445e-05
708 708 4.3402777777777779e-05
709 708 1.0850694444444445e-05
739 708 1.0850694444444445e-05
709 709 4.3402777777777779e-05
710 709 1.0850694444444445e-05
742 709 1.0850694444444445e-05
710 710 4.3402777777777779e-05
711 710 1.0850694444444445e-05
742 710 1.0850694444444445e-05
711 711 4.3402777777777779e-05
712 711 1.0850694444444445e-05
745 711 1.0850694444444445e-05
712 712 4.3402777777777779e-05
713 712 1.0850694444444445e-05
745 712 1.0850694444444445e-05
713 713 4.3402777777777779e-05
714 713 1.0850694444444445e-05
748 713 1.0850694444444445e-05
714 714 4.3402777777777779e-05
715 714 1.0850694444444445e-05
748 714 1.0850694444444445e-05
715 715 4.3402777777777779e-05
716 715 1.0850694444444445e-05
751 715 1.0850694444444445e-05
716 716 4.3402777777777779e-05
717 716 1.0850694444444445e-05
751 716 1.0850694444444445e-05
717 717 4.3402777777777779e-05
718 717 1.0850694444444445e-05
754 717 1.0850694444444445e-05
718 718 4.3402777777777779e-05
719 718 1.0850694444444445e-05
754 718 1.0850694444444445e-05
719 719 4.3402777777777779e-05
720 719 1.0850694444444445e-05
757 719 1.0850694444444445e-05
720 720 4.3402777777777779e-05
721 720 1.0850694444444445e-05
757 720 1.0850694444444445e-05
721 721 4.3402777777777779e-05
722 721 1.0850694444444445e-05
760 721 1.0850694444444445e-05
722 722 4.3402777777777779e-05
723 722 1.0850694444444445e-05
760 722 1.0850694444444445e-05
723 723 4.3402777777777779e-05
724 723 1.0850694444444445e-05
763 723 1.0850694444444445e-05
724 724 4.3402777777777779e-05
725 724 1.0850694444444445e-05
763 724 1.0850694444444445e-05
725 725 4.3402777777777779e-05
726 725 1.0850694444444445e-05
766 725 1.0850694444444445e-05
726 726 4.3402777777777779e-05
727 726 1.0850694444444445e-05
766 726 1.0850694444444445e-05
727 727 4.3402777777777779e-05
728 727 1.0850694444444445e-05
769 727 1.0850694444444445e-05
728 728 4.3402777777777779e-05
729 728 1.0850694444444445e-05
769 728 1.0850694444444445e-05
729 729 4.3402777777777779e-05
730 729 1.0850694444444445e-05
772 729 1.0850694444444445e-05
730 730 4.3402777777777779e-05
731 730 1.0850694444444445e-05
772 730 1.0850694444444445e-05
731 731 4.3402777777777779e-05
732 731 1.0850694444444445e-05
775 731 1.0850694444444445e-05
732 732 4.3402777777777779e-05
733 732 1.0850694444444445e-05
775 732 1.0850694444444445e-05
733 733 4.3402777777777779e-05
734 733 1.0850694444444445e-05
778 733 1.0850694444444445e-05
734 734 4.3402777777777779e-05
735 734 1.0850694444444445e-05
778 734 1.0850694444444445e-05
735 735 4.3402777777777779e-05
736 735 1.0850694444444445e-05
781 735 1.0850694444444445e-05
736 736 4.3402777777777779e-05
781 736 1.0850694444444445e-05
737 737 4.3402777777777779e-05
738 737 1.0850694444444445e-05
740 737 1.0850694444444445e-05
738 738 4.3402777777777779e-05
740 738 1.0850694444444445e-05
784 738 1.0850694444444445e-05
739 739 4.3402777777777779e-05
741 739 1.0850694444444445e-05
743 739 1.0850694444444445e-05
740 740 4.3402777777777779e-05
741 740 1.0850694444444445e-05
786 740 1.0850694444444445e-05
741 741 4.3402777777777779e-05
743 741 1.0850694444444445e-05
786 741 1.0850694444444445e-05
742 742 4.3402777777777779e-05
744 742 1.0850694444444445e-05
746 742 1.0850694444444445e-05
743 743 4.3402777777777779e-05
744 743 1.0850694444444445e-05
789 743 1.0850694444444445e-05
744 744 4.3402777777777779e-05
746 744 1.0850694444444445e-05
789 744 1.0850694444444445e-05
745 745 4.3402777777777779e-05
747 745 1.0850694444444445e-05
749 745 1.0850694444444445e-05
746 746 4.3402777777777779e-05
747 746 1.0850694444444445e-05
792 746 1.0850694444444445e-05
747 747 4.3402777777777779e-05
749 747 1.0850694444444445e-05
792 747 1.0850694444444445e-05
748 748 4.3402777777777779e-05
750 748 1.0850694444444445e-05
752 748 1.0850694444444445e-05
749 749 4.3402777777777779e-05
750 749 1.0850694444444445e-05
795 749 1.0850694444444445e-05
750 750 4.3402777777777779e-05
752 750 1.0850694444444445e-05
795 750 1.0850694444444445e-05
751 751 4.3402777777777779e-05
753 751 1.0850694444444445e-05
755 751 1.0850694444444445e-05
752 752 4.3402777777777779e-05
753 752 1.0850694444444445e-05
798 752 1.0850694444444445e-05
753 753 4.3402777777777779e-05
755 753 1.0850694444444445e-05
798 753 1.0850694444444445e-05
754 754 4.3402777777777779e-05
756 754 1.0850694444444445e-05
758 754 1.0850694444444445e-05
755 755 4.3402777777777779e-05
756 755 1.0850694444444445e-05
801 755 1.0850694444444445e-05
756 756 4.3402777777777779e-05
758 756 1.0850694444444445e-05
801 756 1.0850694444444445e-05
757 757 4.3402777777777779e-05
759 757 1.0850694444444445e-05
761 757 1.0850694444444445e-05
758 758 4.3402777777777779e-05
759 758 1.0850694444444445e-05
804 758 1.0850694444444445e-05
759 759 4.3402777777777779e-05
761 759 1.0850694444444445e-05
804 759 1.0850694444444445e-05
760 760 4.3402777777777779e-05
762 760 1.0850694444444445e-05
764 760 1.0850694444444445e-05
761 761 4.3402777777777779e-05
762 761 1.0850694444444445e-05
807 761 1.0850694444444445e-05
762 762 4.3402777777777779e-05
764 762 1.0850694444444445e-05
807 762 1.0850694444444445e-05
763 763 4.3402777777777779e-05
765 763 1.0850694444444445e-05
767 763 1.0850694444444445e-05
764 764 4.3402777777777779e-05
765 764 1.0850694444444445e-05
810 764 1.0850694444444445e-05
765 765 4.3402777777777779e-05
767 765 1.0850694444444445e-05
810 765 1.0850694444444445e-05
766 766 4.3402777777777779e-05
768 766 1.0850694444444445e-05
770 766 1.0850694444444445e-05
767 767 4.3402777777777779e-05
768 767 1.0850694444444445e-05
813 767 1.0850694444444445e-05
768 768 4.3402777777777779e-05
770 768 1.0850694444444445e-05
813 768 1.0850694444444445e-05
769 769 4.3402777777777779e-05
771 769 1.0850694444444445e-05
773 769 1.0850694444444445e-05
770 770 4.3402777777777779e-05
771 770 1.0850694444444445e-05
816 770 1.0850694444444445e-05
771 771 4.3402777777777779e-05
773 771 1.0850694444444445e-05
816 771 1.0850694444444445e-05
772 772 4.3402777777777779e-05
774 772 1.0850694444444445e-05
776 772 1.0850694444444445e-05
773 773 4.3402777777777779e-05
774 773 1.0850694444444445e-05
819 773 1.0850694444444445e-05
774 774 4.3402777777777779e-05
776 774 1.0850694444444445e-05
819 774 1.0850694444444445e-05
775 775 4.3402777777777779e-05
777 775 1.0850694444444445e-05
779 775 1.0850694444444445e-05
776 776 4.3402777777777779e-05
777 776 1.0850694444444445e-05
822 776 1.0850694444444445e-05
777 777 4.3402777777777779e-05
779 777 1.0850694444444445e-05
822 777 1.0850694444444445e-05
778 778 4.3402777777777779e-05
780 778 1.0850694444444445e-05
782 778 1.0850694444444445e-05
779 779 4.3402777777777779e-05
780 779 1.0850694444444445e-05
825 779 1.0850694444444445e-05
780 780 4.3402777777777779e-05
782 780 1.0850694444444445e-05
825 780 1.0850694444444445e-05
781 781 4.3402777777777779e-05
783 781 1.0850694444444445e-05
782 782 4.3402777777777779e-05
783 782 1.0850694444444445e-05
828 782 1.0850694444444445e-05
783 783 4.3402777777777779e-05
828 783 1.0850694444444445e-05
784 784 4.3402777777777779e-05
785 784 1.0850694444444445e-05
787 784 1.0850694444444445e-05
785 785 4.3402777777777779e-05
787 785 1.0850694444444445e-05
831 785 1.0850694444444445e-05
786 786 4.3402777777777779e-05
788 786 1.0850694444444445e-05
790 786 1.0850694444444445e-05
787 787 4.3402777777777779e-05
788 787 1.0850694444444445e-05
833 787 1.0850694444444445e-05
788 788 4.3402777777777779e-05
790 788 1.0850694444444445e-05
833 788 1.0850694444444445e-05
789 789 4.3402777777777779e-05
791 789 1.0850694444444445e-05
793 789 1.0850694444444445e-05
790 790 4.3402777777777779e-05
791 790 1.0850694444444445e-05
836 790 1.0850694444444445e-05
791 791 4.3402777777777779e-05
793 791 1.0850694444444445e-05
836 791 1.0850694444444445e-05
792 792 4.3402777777777779e-05
794 792 1.0850694444444445e-05
796 792 1.0850694444444445e-05
793 793 4.3402777777777779e-05
794 793 1.0850694444444445e-05
839 793 1.0850694444444445e-05
794 794 4.3402777777777779e-05
796 794 1.0850694444444445e-05
839 794 1.0850694444444445e-05
795 795 4.3402777777777779e-05
797 795 1.0850694444444445e-05
799 795 1.0850694444444445e-05
796 796 4.3402777777777779e-05
797 796 1.0850694444444445e-05
842 796 1.0850694444444445e-05
797 797 4.3402777777777779e-05
799 797 1.0850694444444445e-05
842 797 1.0850694444444445e-05
798 798 4.3402777777777779e-05
800 798 1.0850694444444445e-05
802 798 1.0850694444444445e-05
799 799 4.3402777777777779e-05
800 799 1.0850694444444445e-05
845 799 1.0850694444444445e-05
800 800 4.3402777777777779e-05
802 800 1.0850694444444445e-05
845 800 1.0850694444444445e-05
801 801 4.3402777777777779e-05
803 801 1.0850694444444445e-05
805 801 1.0850694444444445e-05
802 802 4.3402777777777779e-05
803 802 1.0850694444444445e-05
848 802 1.0850694444444445e-05
803 803 4.3402777777777779e-05
805 803 1.0850694444444445e-05
848 803 1.0850694444444445e-05
804 804 4.3402777777777779e-05
806 804 1.0850694444444445e-05
808 804 1.0850694444444445e-05
805 805 4.3402777777777779e-05
806 805 1.0850694444444445e-05
851 805 1.0850694444444445e-05
806 806 4.3402777777777779e-05
808 806 1.0850694444444445e-05
851 806 1.0850694444444445e-05
807 807 4.3402777777777779e-05
809 807 1.0850694444444445e-05
811 807 1.0850694444444445e-05
808 808 4.3402777777777779e-05
809 808 1.0850694444444445e-05
854 808 1.0850694444444445e-05
809 809 4.3402777777777779e-05
811 809 1.0850694444444445e-05
854 809 1.0850694444444445e-05
810 810 4.3402777777777779e-05
812 810 1.0850694444444445e-05
814 810 1.0850694444444445e-05
811 811 4.3402777777777779e-05
812 811 1.0850694444444445e-05
857 811 1.0850694444444445e-05
812 812 4.3402777777777779e-05
814 812 1.0850694444444445e-05
857 812 1.0850694444444445e-05
813 813 4.3402777777777779e-05
815 813 1.0850694444444445e-05
817 813 1.0850694444444445e-05
814 814 4.3402777777777779e-05
815 814 1.0850694444444445e-05
860 814 1.0850694444444445e-05
815 815 4.3402777777777779e-05
817 815 1.0850694444444445e-05
860 815 1.0850694444444445e-05
816 816 4.3402777777777779e-05
818 816 1.0850694444444445e-05
820 816 1.0850694444444445e-05
817 817 4.3402777777777779e-05
818 817 1.0850694444444445e-05
863 817 1.0850694444444445e-05
818 818 4.3402777777777779e-05
820 818 1.0850694444444445e-05
863 818 1.0850694444444445e-05
819 819 4.3402777777777779e-05
821 819 1.0850694444444445e-05
823 819 1.0850694444444445e-05
820 820 4.3402777777777779e-05
821 820 1.0850694444444445e-05
866 820 1.0850694444444445e-05
821 821 4.3402777777777779e-05
823 821 1.0850694444444445e-05
866 821 1.0850694444444445e-05
822 822 4.3402777777777779e-05
824 822 1.0850694444444445e-05
826 822 1.0850694444444445e-05
823 823 4.3402777777777779e-05
824 823 1.0850694444444445e-05
869 823 1.0850694444444445e-05
824 824 4.3402777777777779e-05
826 824 1.0850694444444445e-05
869 824 1.0850694444444445e-05
825 825 4.3402777777777779e-05
827 825 1.0850694444444445e-05
829 825 1.0850694444444445e-05
826 826 4.3402777777777779e-05
827 826 1.0850694444444445e-05
872 826 1.0850694444444445e-05
827 827 4.3402777777777779e-05
829 827 1.0850694444444445e-05
872 827 1.0850694444444445e-05
828 828 4.3402777777777779e-05
830 828 1.0850694444444445e-05
829 829 4.3402777777777779e-05
830 829 1.0850694444444445e-05
875 829 1.0850694444444445e-05
830 830 4.3402777777777779e-05
875 830 1.0850694444444445e-05
831 831 4.3402777777777779e-05
832 831 1.0850694444444445e-05
834 831 1.0850694444444445e-05
832 832 4.3402777777777779e-05
834 832 1.0850694444444445e-05
878 832 1.0850694444444445e-05
833 833 4.3402777777777779e-05
835 833 1.0850694444444445e-05
837 833 1.0850694444444445e-05
834 834 4.3402777777777779e-05
835 834 1.0850694444444445e-05
880 834 1.0850694444444445e-05
835 835 4.3402777777777779e-05
837 835 1.0850694444444445e-05
880 835 1.0850694444444445e-05
836 836 4.3402777777777779e-05
838 836 1.0850694444444445e-05
840 836 1.0850694444444445e-05
837 837 4.3402777777777779e-05
838 837 1.0850694444444445e-05
883 837 1.0850694444444445e-05
838 838 4.3402777777777779e-05
840 838 1.0850694444444445e-05
883 838 1.0850694444444445e-05
839 839 4.3402777777777779e-05
841 839 1.0850694444444445e-05
843 839 1.0850694444444445e-05
840 840 4.3402777777777779e-05
841 840 1.0850694444444445e-05
886 840 1.0850694444444445e-05
841 841 4.3402777777777779e-05
843 841 1.0850694444444445e-05
886 841 1.0850694444444445e-05
842 842 4.3402777777777779e-05
844 842 1.0850694444444445e-05
846 842 1.0850694444444445e-05
843 843 4.3402777777777779e-05
844 843 1.0850694444444445e-05
889 843 1.0850694444444445e-05
844 844 4.3402777777777779e-05
846 844 1.0850694444444445e-05
889 844 1.0850694444444445e-05
845 845 4.3402777777777779e-05
847 845 1.0850694444444445e-05
849 845 1.0850694444444445e-05
846 846 4.3402777777777779e-05
847 846 1.0850694444444445e-05
892 846 1.0850694444444445e-05
847 847 4.3402777777777779e-05
849 847 1.0850694444444445e-05
892 847 1.0850694444444445e-05
848 848 4.3402777777777779e-05
850 848 1.0850694444444445e-05
852 848 1.0850694444444445e-05
849 849 4.3402777777777779e-05
850 849 1.0850694444444445e-05
895 849 1.0850694444444445e-05
850 850 4.3402777777777779e-05
852 850 1.0850694444444445e-05
895 850 1.0850694444444445e-05
851 851 4.3402777777777779e-05
853 851 1.0850694444444445e-05
855 851 1.0850694444444445e-05
852 852 4.3402777777777779e-05
853 852 1.0850694444444445e-05
898 852 1.0850694444444445e-05
853 853 4.3402777777777779e-05
855 853 1.0850694444444445e-05
898 853 1.0850694444444445e-05
854 854 4.3402777777777779e-05
856 854 1.0850694444444445e-05
858 854 1.0850694444444445e-05
855 855 4.3402777777777779e-05
856 855 1.0850694444444445e-05
901 855 1.0850694444444445e-05
856 856 4.3402777777777779e-05
858 856 1.0850694444444445e-05
901 856 1.0850694444444445e-05
857 857 4.3402777777777779e-05
859 857 1.0850694444444445e-05
861 857 1.0850694444444445e-05
858 858 4.3402777777777779e-05
859 858 1.0850694444444445e-05
904 858 1.0850694444444445e-05
859 859 4.3402777777777779e-05
861 859 1.0850694444444445e-05
904 859 1.0850694444444445e-05
860 860 4.3402777777777779e-05
862 860 1.0850694444444445e-05
864 860 1.0850694444444445e-05
861 861 4.3402777777777779e-05
862 861 1.0850694444444445e-05
907 861 1.0850694444444445e-05
862 862 4.3402777777777779e-05
864 862 1.0850694444444445e-05
907 862 1.0850694444444445e-05
863 863 4.3402777777777779e-05
865 863 1.0850694444444445e-05
867 863 1.0850694444444445e-05
864 864 4.3402777777777779e-05
865 864 1.0850694444444445e-05
910 864 1.0850694444444445e-05
865 865 4.3402777777777779e-05
867 865 1.0850694444444445e-05
910 865 1.0850694444444445e-05
866 866 4.3402777777777779e-05
868 866 1.0850694444444445e-05
870 866 1.0850694444444445e-05
867 867 4.3402777777777779e-05
868 867 1.0850694444444445e-05
913 867 1.0850694444444445e-05
868 868 4.3402777777777779e-05
870 868 1.0850694444444445e-05
913 868 1.0850694444444445e-05
869 869 4.3402777777777779e-05
871 869 1.0850694444444445e-05
873 869 1.0850694444444445e-05
870 870 4.3402777777777779e-05
871 870 1.0850694444444445e-05
916 870 1.0850694444444445e-05
871 871 4.3402777777777779e-05
873 871 1.0850694444444445e-05
916 871 1.0850694444444445e-05
872 872 4.3402777777777779e-05
874 872 1.0850694444444445e-05
876 872 1.0850694444444445e-05
873 873 4.3402777777777779e-05
874 873 1.0850694444444445e-05
919 873 1.0850694444444445e-05
874 874 4.3402777777777779e-05
876 874 1.0850694444444445e-05
919 874 1.0850694444444445e-05
875 875 4.3402777777777779e-05
877 875 1.0850694444444445e-05
876 876 4.3402777777777779e-05
877 876 1.0850694444444445e-05
922 876 1.0850694444444445e-05
877 877 4.3402777777777779e-05
922 877 1.0850694444444445e-05
878 878 4.3402777777777779e-05
879 878 1.0850694444444445e-05
881 878 1.0850694444444445e-05
879 879 4.3402777777777779e-05
881 879 1.0850694444444445e-05
925 879 1.0850694444444445e-05
880 880 4.3402777777777779e-05
882 880 1.0850694444444445e-05
884 880 1.0850694444444445e-05
881 881 4.3402777777777779e-05
882 881 1.0850694444444445e-05
927 881 1.0850694444444445e-05
882 882 4.3402777777777779e-05
884 882 1.0850694444444445e-05
927 882 1.0850694444444445e-05
883 883 4.3402777777777779e-05
885 883 1.0850694444444445e-05
887 883 1.0850694444444445e-05
884 884 4.3402777777777779e-05
885 884 1.0850694444444445e-05
930 884 1.0850694444444445e-05
885 885 4.3402777777777779e-05
887 885 1.0850694444444445e-05
930 885 1.0850694444444445e-05
886 886 4.3402777777777779e-05
888 886 1.0850694444444445e-05
890 886 1.0850694444444445e-05
887 887 4.3402777777777779e-05
888 887 1.0850694444444445e-05
933 887 1.0850694444444445e-05
888 888 4.3402777777777779e-05
890 888 1.0850694444444445e-05
933 888 1.0850694444444445e-05
889 889 4.3402777777777779e-05
891 889 1.0850694444444445e-05
893 889 1.0850694444444445e-05
890 890 4.3402777777777779e-05
891 890 1.0850694444444445e-05
936 890 1.0850694444444445e-05
891 891 4.3402777777777779e-05
893 891 1.0850694444444445e-05
936 891 1.0850694444444445e-05
892 892 4.3402777777777779e-05
894 892 1.0850694444444445e-05
896 892 1.0850694444444445e-05
893 893 4.3402777777777779e-05
894 893 1.0850694444444445e-05
939 893 1.0850694444444445e-05
894 894 4.3402777777777779e-05
896 894 1.0850694444444445e-05
939 894 1.0850694444444445e-05
895 895 4.3402777777777779e-05
897 895 1.0850694444444445e-05
899 895 1.0850694444444445e-05
896 896 4.3402777777777779e-05
897 896 1.0850694444444445e-05
942 896 1.0850694444444445e-05
897 897 4.3402777777777779e-05
899 897 1.0850694444444445e-05
942 897 1.0850694444444445e-05
898 898 4.3402777777777779e-05
900 898 1.0850694444444445e-05
902 898 1.0850694444444445e-05
899 899 4.3402777777777779e-05
900 899 1.0850694444444445e-05
945 899 1.0850694444444445e-05
900 900 4.3402777777777779e-05
902 900 1.0850694444444445e-05
945 900 1.0850694444444445e-05
901 901 4.3402777777777779e-05
903 901 1.0850694444444445e-05
905 901 1.0850694444444445e-05
902 902 4.3402777777777779e-05
903 902 1.0850694444444445e-05
948 902 1.0850694444444445e-05
903 903 4.3402777777777779e-05
905 903 1.0850694444444445e-05
948 903 1.0850694444444445e-05
904 904 4.3402777777777779e-05
906 904 1.0850694444444445e-05
908 904 1.0850694444444445e-05
905 905 4.3402777777777779e-05
906 905 1.0850694444444445e-05
951 905 1.0850694444444445e-05
906 906 4.3402777777777779e-05
908 906 1.0850694444444445e-05
951 906 1.0850694444444445e-05
907 907 4.3402777777777779e-05
909 907 1.0850694444444445e-05
911 907 1.0850694444444445e-05
908 908 4.3402777777777779e-05
909 908 1.0850694444444445e-05
954 908 1.0850694444444445e-05
909 909 4.3402777777777779e-05
911 909 1.0850694444444445e-05
954 909 1.0850694444444445e-05
910 910 4.3402777777777779e-05
912 910 1.0850694444444445e-05
914 910 1.0850694444444445e-05
911 911 4.3402777777777779e-05
912 911 1.0850694444444445e-05
957 911 1.0850694444444445e-05
912 912 4.3402777777777779e-05
914 912 1.0850694444444445e-05
957 912 1.0850694444444445e-05
913 913 4.3402777777777779e-05
915 913 1.0850694444444445e-05
917 913 1.0850694444444445e-05
914 914 4.3402777777777779e-05
915 914 1.0850694444444445e-05
960 914 1.0850694444444445e-05
915 915 4.3402777777777779e-05
917 915 1.0850694444444445e-05
960 915 1.0850694444444445e-05
916 916 4.3402777777777779e-05
918 916 1.0850694444444445e-05
920 916 1.0850694444444445e-05
917 917 4.3402777777777779e-05
918 917 1.0850694444444445e-05
963 917 1.0850694444444445e-05
918 918 4.3402777777777779e-05
920 918 1.0850694444444445e-05
963 918 1.0850694444444445e-05
919 919 4.3402777777777779e-05
921 919 1.0850694444444445e-05
923 919 1.0850694444444445e-05
920 920 4.3402777777777779e-05
921 920 1.0850694444444445e-05
966 920 1.0850694444444445e-05
921 921 4.3402777777777779e-05
923 921 1.0850694444444445e-05
966 921 1.0850694444444445e-05
922 922 4.3402777777777779e-05
924 922 1.0850694444444445e-05
923 923 4.3402777777777779e-05
924 923 1.0850694444444445e-05
969 923 1.0850694444444445e-05
924 924 4.3402777777777779e-05
969 924 1.0850694444444445e-05
925 925 4.3402777777777779e-05
926 925 1.0850694444444445e-05
928 925 1.0850694444444445e-05
926 926 4.3402777777777779e-05
928 926 1.0850694444444445e-05
972 926 1.0850694444444445e-05
927 927 4.3402777777777779e-05
929 927 1.0850694444444445e-05
931 927 1.0850694444444445e-05
928 928 4.3402777777777779e-05
929 928 1.0850694444444445e-05
974 928 1.0850694444444445e-05
929 929 4.3402777777777779e-05
931 929 1.0850694444444445e-05
974 929 1.0850694444444445e-05
930 930 4.3402777777777779e-05
932 930 1.0850694444444445e-05
934 930 1.0850694444444445e-05
931 931 4.3402777777777779e-05
932 931 1.0850694444444445e-05
977 931 1.0850694444444445e-05
932 932 4.3402777777777779e-05
934 932 1.0850694444444445e-05
977 932 1.0850694444444445e-05
933 933 4.3402777777777779e-05
935 933 1.0850694444444445e-05
937 933 1.0850694444444445e-05
934 934 4.3402777777777779e-05
935 934 1.0850694444444445e-05
980 934 1.0850694444444445e-05
935 935 4.3402777777777779e-05
937 935 1.0850694444444445e-05
980 935 1.0850694444444445e-05
936 936 4.3402777777777779e-05
938 936 1.0850694444444445e-05
940 936 1.0850694444444445e-05
937 937 4.3402777777777779e-05
938 937 1.0850694444444445e-05
983 937 1.0850694444444445e-05
938 938 4.3402777777777779e-05
940 938 1.0850694444444445e-05
983 938 1.0850694444444445e-05
939 939 4.3402777777777779e-05
941 939 1.0850694444444445e-05
943 939 1.0850694444444445e-05
940 940 4.3402777777777779e-05
941 940 1.0850694444444445e-05
986 940 1.0850694444444445e-05
941 941 4.3402777777777779e-05
943 941 1.0850694444444445e-05
986 941 1.0850694444444445e-05
942 942 4.3402777777777779e-05
944 942 1.0850694444444445e-05
946 942 1.0850694444444445e-05
943 943 4.3402777777777779e-05
944 943 1.0850694444444445e-05
989 943 1.0850694444444445e-05
944 944 4.3402777777777779e-05
946 944 1.0850694444444445e-05
989 944 1.0850694444444445e-05
945 945 4.3402777777777779e-05
947 945 1.0850694444444445e-05
949 945 1.0850694444444445e-05
946 946 4.3402777777777779e-05
947 946 1.0850694444444445e-05
992 946 1.0850694444444445e-05
947 947 4.3402777777777779e-05
949 947 1.0850694444444445e-05
992 947 1.0850694444444445e-05
948 948 4.3402777777777779e-05
950 948 1.0850694444444445e-05
952 948 1.0850694444444445e-05
949 949 4.3402777777777779e-05
950 949 1.0850694444444445e-05
995 949 1.0850694444444445e-05
950 950 4.3402777777777779e-05
952 950 1.0850694444444445e-05
995 950 1.0850694444444445e-05
951 951 4.3402777777777779e-05
953 951 1.0850694444444445e-05
955 951 1.0850694444444445e-05
952 952 4.3402777777777779e-05
953 952 1.0850694444444445e-05
998 952 1.0850694444444445e-05
953 953 4.3402777777777779e-05
955 953 1.0850694444444445e-05
998 953 1.0850694444444445e-05
954 954 4.3402777777777779e-05
956 954 1.0850694444444445e-05
958 954 1.0850694444444445e-05
955 955 4.3402777777777779e-05
956 955 1.0850694444444445e-05
1001 955 1.0850694444444445e-05
956 956 4.3402777777777779e-05
958 956 1.0850694444444445e-05
1001 956 1.0850694444444445e-05
957 957 4.3402777777777779e-05
959 957 1.0850694444444445e-05
961 957 1.0850694444444445e-05
958 958 4.3402777777777779e-05
959 958 1.0850694444444445e-05
1004 958 1.0850694444444445e-05
959 959 4.3402777777777779e-05
961 959 1.0850694444444445e-05
1004 959 1.0850694444444445e-05
960 960 4.3402777777777779e-05
962 960 1.0850694444444445e-05
964 960 1.0850694444444445e-05
961 961 4.3402777777777779e-05
962 961 1.0850694444444445e-05
1007 961 1.0850694444444445e-05
962 962 4.3402777777777779e-05
964 962 1.0850694444444445e-05
1007 962 1.0850694444444445e-05
963 963 4.3402777777777779e-05
965 963 1.0850694444444445e-05
967 963 1.0850694444444445e-05
964 964 4.3402777777777779e-05
965 964 1.0850694444444445e-05
1010 964 1.0850694444444445e-05
965 965 4.3402777777777779e-05
967 965 1.0850694444444445e-05
1010 965 1.0850694444444445e-05
966 966 4.3402777777777779e-05
968 966 1.0850694444444445e-05
970 966 1.0850694444444445e-05
967 967 4.3402777777777779e-05
968 967 1.0850694444444445e-05
1013 967 1.0850694444444445e-05
968 968 4.3402777777777779e-05
970 968 1.0850694444444445e-05
1013 968 1.0850694444444445e-05
969 969 4.3402777777777779e-05
971 969 1.0850694444444445e-05
970 970 4.3402777777777779e-05
971 970 1.0850694444444445e-05
1016 970 1.0850694444444445e-05
971 971 4.3402777777777779e-05
1016 971 1.0850694444444445e-05
972 972 4.3402777777777779e-05
973 972 1.0850694444444445e-05
975 972 1.0850694444444445e-05
973 973 4.3402777777777779e-05
975 973 1.0850694444444445e-05
1019 973 1.0850694444444445e-05
974 974 4.3402777777777779e-05
976 974 1.0850694444444445e-05
978 974 1.0850694444444445e-05
975 975 4.3402777777777779e-05
976 975 1.0850694444444445e-05
1021 975 1.0850694444444445e-05
976 976 4.3402777777777779e-05
978 976 1.0850694444444445e-05
1021 976 1.0850694444444445e-05
977 977 4.3402777777777779e-05
979 977 1.0850694444444445e-05
981 977 1.0850694444444445e-05
978 978 4.3402777777777779e-05
979 978 1.0850694444444445e-05
1024 978 1.0850694444444445e-05
979 979 4.3402777777777779e-05
981 979 1.0850694444444445e-05
1024 979 1.0850694444444445e-05
980 980 4.3402777777777779e-05
982 980 1.0850694444444445e-05
984 980 1.0850694444444445e-05
981 981 4.3402777777777779e-05
982 981 1.0850694444444445e-05
1027 981 1.0850694444444445e-05
982 982 4.3402777777777779e-05
984 982 1.0850694444444445e-05
1027 982 1.0850694444444445e-05
983 983 4.3402777777777779e-05
985 983 1.0850694444444445e-05
987 983 1.0850694444444445e-05
984 984 4.3402777777777779e-05
985 984 1.0850694444444445e-05
1030 984 1.0850694444444445e-05
985 985 4.3402777777777779e-05
987 985 1.0850694444444445e-05
1030 985 1.0850694444444445e-05
986 986 4.3402777777777779e-05
988 986 1.0850694444444445e-05
990 986 1.0850694444444445e-05
987 987 4.3402777777777779e-05
988 987 1.0850694444444445e-05
1033 987 1.0850694444444445e-05
988 988 4.3402777777777779e-05
990 988 1.0850694444444445e-05
1033 988 1.0850694444444445e-05
989 989 4.3402777777777779e-05
991 989 1.0850694444444445e-05
993 989 1.0850694444444445e-05
990 990 4.3402777777777779e-05
991 990 1.0850694444444445e-05
1036 990 1.0850694444444445e-05
991 991 4.3402777777777779e-05
993 991 1.0850694444444445e-05
1036 991 1.0850694444444445e-05
992 992 4.3402777777777779e-05
994 992 1.0850694444444445e-05
996 992 1.0850694444444445e-05
993 993 4.3402777777777779e-05
994 993 1.0850694444444445e-05
1039 993 1.0850694444444445e-05
994 994 4.3402777777777779e-05
996 994 1.0850694444444445e-05
1039 994 1.0850694444444445e-05
995 995 4.3402777777777779e-05
997 995 1.0850694444444445e-05
999 995 1.0850694444444445e-05
996 996 4.3402777777777779e-05
997 996 1.0850694444444445e-05
1042 996 1.0850694444444445e-05
997 997 4.3402777777777779e-05
999 997 1.0850694444444445e-05
1042 997 1.0850694444444445e-05
998 998 4.3402777777777779e-05
1000 998 1.0850694444444445e-05
1002 998 1.0850694444444445e-05
999 999 4.3402777777777779e-05
1000 999 1.0850694444444445e-05
1045 999 1.0850694444444445e-05
1000 1000 4.3402777777777779e-05
1002 1000 1.0850694444444445e-05
1045 1000 1.0850694444444445e-05
1001 1001 4.3402777777777779e-05
1003 1001 1.0850694444444445e-05
1005 1001 1.0850694444444445e-05
1002 1002 4.3402777777777779e-05
1003 1002 1.0850694444444445e-05
1048 1002 1.0850694444444445e-05
1003 1003 4.3402777777777779e-05
1005 1003 1.0850694444444445e-05
1048 1003 1.0850694444444445e-05
1004 1004 4.3402777777777779e-05
1006 1004 1.0850694444444445e-05
1008 1004 1.0850694444444445e-05
1005 1005 4.3402777777777779e-05
1006 1005 1.0850694444444445e-05
1051 1005 1.0850694444444445e-05
1006 1006 4.3402777777777779e-05
1008 1006 1.0850694444444445e-05
1051 1006 1.0850694444444445e-05
1007 1007 4.3402777777777779e-05
1009 1007 1.0850694444444445e-05
1011 1007 1.0850694444444445e-05
1008 1008 4.3402777777777779e-05
1009 1008 1.0850694444444445e-05
1054 1008 1.0850694444444445e-05
1009 1009 4.3402777777777779e-05
1011 1009 1.0850694444444445e-05
1054 1009 1.0850694444444445e-05
1010 1010 4.3402777777777779e-05
1012 1010 1.0850694444444445e-05
1014 1010 1.0850694444444445e-05
1011 1011 4.3402777777777779e-05
1012 1011 1.0850694444444445e-05
1057 1011 1.0850694444444445e-05
1012 1012 4.3402777777777779e-05
1014 1012 1.0850694444444445e-05
1057 1012 1.0850694444444445e-05
1013 1013 4.3402777777777779e-05
1015 1013 1.0850694444444445e-05
1017 1013 1.0850694444444445e-05
1014 1014 4.3402777777777779e-05
1015 1014 1.0850694444444445e-05
1060 1014 1.0850694444444445e-05
1015 1015 4.3402777777777779e-05
1017 1015 1.0850694444444445e-05
1060 1015 1.0850694444444445e-05
1016 1016 4.3402777777777779e-05
1018 1016 1.0850694444444445e-05
1017 1017 4.3402777777777779e-05
1018 1017 1.0850694444444445e-05
1063 1017 1.0850694444444445e-05
1018 1018 4.3402777777777779e-05
1063 1018 1.0850694444444445e-05
1019 1019 4.3402777777777779e-05
1020 1019 1.0850694444444445e-05
1022 1019 1.0850694444444445e-05
1020 1020 4.3402777777777779e-05
1022 1020 1.0850694444444445e-05
1066 1020 1.0850694444444445e-05
1021 1021 4.3402777777777779e-05
1023 1021 1.0850694444444445e-05
1025 1021 1.0850694444444445e-05
1022 1022 4.3402777777777779e-05
1023 1022 1.0850694444444445e-05
1068 1022 1.0850694444444445e-05
1023 1023 4.3402777777777779e-05
1025 1023 1.0850694444444445e-05
1068 1023 1.0850694444444445e-05
1024 1024 4.3402777777777779e-05
1026 1024 1.0850694444444445e-05
1028 1024 1.0850694444444445e-05
1025 1025 4.3402777777777779e-05
1026 1025 1.0850694444444445e-05
1071 1025 1.0850694444444445e-05
1026 1026 4.3402777777777779e-05
1028 1026 1.0850694444444445e-05
1071 1026 1.0850694444444445e-05
1027 1027 4.3402777777777779e-05
1029 1027 1.0850694444444445e-05
1031 1027 1.0850694444444445e-05
1028 1028 4.3402777777777779e-05
1029 1028 1.0850694444444445e-05
1074 1028 1.0850694444444445e-05
1029 1029 4.3402777777777779e-05
1031 1029 1.0850694444444445e-05
1074 1029 1.0850694444444445e-05
1030 1030 4.3402777777777779e-05
1032 1030 1.0850694444444445e-05
1034 1030 1.0850694444444445e-05
1031 1031 4.3402777777777779e-05
1032 1031 1.0850694444444445e-05
1077 1031 1.0850694444444445e-05
1032 1032 4.3402777777777779e-05
1034 1032 1.0850694444444445e-05
1077 1032 1.0850694444444445e-05
1033 1033 4.3402777777777779e-05
1035 1033 1.0850694444444445e-05
1037 1033 1.0850694444444445e-05
1034 1034 4.3402777777777779e-05
1035 1034 1.0850694444444445e-05
1080 1034 1.0850694444444445e-05
1035 1035 4.3402777777777779e-05
1037 1035 1.0850694444444445e-05
1080 1035 1.0850694444444445e-05
1036 1036 4.3402777777777779e-05
1038 1036 1.0850694444444445e-05
1040 1036 1.0850694444444445e-05
1037 1037 4.3402777777777779e-05
1038 1037 1.0850694444444445e-05
1083 1037 1.0850694444444445e-05
1038 1038 4.3402777777777779e-05
1040 1038 1.0850694444444445e-05
1083 1038 1.0850694444444445e-05
1039 1039 4.3402777777777779e-05
1041 1039 1.0850694444444445e-05
1043 1039 1.0850694444444445e-05
1040 1040 4.3402777777777779e-05
1041 1040 1.0850694444444445e-05
1086 1040 1.0850694444444445e-05
1041 1041 4.3402777777777779e-05
1043 1041 1.0850694444444445e-05
1086 1041 1.0850694444444445e-05
1042 1042 4.3402777777777779e-05
1044 1042 1.0850694444444445e-05
1046 1042 1.0850694444444445e-05
1043 1043 4.3402777777777779e-05
1044 1043 1.0850694444444445e-05
1089 1043 1.0850694444444445e-05
1044 1044 4.3402777777777779e-05
1046 1044 1.0850694444444445e-05
1089 1044 1.0850694444444445e-05
1045 1045 4.3402777777777779e-05
1047 1045 1.0850694444444445e-05
1049 1045 1.0850694444444445e-05
1046 1046 4.3402777777777779e-05
1047 1046 1.0850694444444445e-05
1092 1046 1.0850694444444445e-05
1047 1047 4.3402777777777779e-05
1049 1047 1.0850694444444445e-05
1092 1047 1.0850694444444445e-05
1048 1048 4.3402777777777779e-05
1050 1048 1.0850694444444445e-05
1052 1048 1.0850694444444445e-05
1049 1049 4.3402777777777779e-05
1050 1049 1.0850694444444445e-05
1095 1049 1.0850694444444445e-05
1050 1050 4.3402777777777779e-05
1052 1050 1.0850694444444445e-05
1095 1050 1.0850694444444445e-05
1051 1051 4.3402777777777779e-05
1053 1051 1.0850694444444445e-05
1055 1051 1.0850694444444445e-05
1052 1052 4.3402777777777779e-05
1053 1052 1.0850694444444445e-05
1098 1052 1.0850694444444445e-05
1053 1053 4.3402777777777779e-05
1055 1053 1.0850694444444445e-05
1098 1053 1.0850694444444445e-05
1054 1054 4.3402777777777779e-05
1056 1054 1.0850694444444445e-05
1058 1054 1.0850694444444445e-05
1055 1055 4.3402777777777779e-05
1056 1055 1.0850694444444445e-05
1101 1055 1.0850694444444445e-05
1056 1056 4.3402777777777779e-05
1058 1056 1.0850694444444445e-05
1101 1056 1.0850694444444445e-05
1057 1057 4.3402777777777779e-05
1059 1057 1.0850694444444445e-05
1061 1057 1.0850694444444445e-05
1058 1058 4.3402777777777779e-05
1059 1058 1.0850694444444445e-05
1104 1058 1.0850694444444445e-05
1059 1059 4.3402777777777779e-05
1061 1059 1.0850694444444445e-05
1104 1059 1.0850694444444445e-05
1060 1060 4.3402777777777779e-05
1062 1060 1.0850694444444445e-05
1064 1060 1.0850694444444445e-05
1061 1061 4.3402777777777779e-05
1062 1061 1.0850694444444445e-05
1107 1061 1.0850694444444445e-05
1062 1062 4.3402777777777779e-05
1064 1062 1.0850694444444445e-05
1107 1062 1.0850694444444445e-05
1063 1063 4.3402777777777779e-05
1065 1063 1.0850694444444445e-05
1064 1064 4.3402777777777779e-05
1065 1064 1.0850694444444445e-05
1110 1064 1.0850694444444445e-05
1065 1065 4.3402777777777779e-05
1110 1065 1.0850694444444445e-05
1066 1066 4.3402777777777779e-05
1067 1066 1.0850694444444445e-05
1069 1066 1.0850694444444445e-05
1067 1067 4.3402777777777779e-05
1069 1067 1.0850694444444445e-05
1113 1067 1.0850694444444445e-05
1068 1068 4.3402777777777779e-05
1070 1068 1.0850694444444445e-05
1072 1068 1.0850694444444445e-05
1069 1069 4.3402777777777779e-05
1070 1069 1.0850694444444445e-05
1115 1069 1.0850694444444445e-05
1070 1070 4.3402777777777779e-05
1072 1070 1.0850694444444445e-05
1115 1070 1.0850694444444445e-05
1071 1071 4.3402777777777779e-05
1073 1071 1.0850694444444445e-05
1075 1071 1.0850694444444445e-05
1072 1072 4.3402777777777779e-05
1073 1072 1.0850694444444445e-05
1118 1072 1.0850694444444445e-05
1073 1073 4.3402777777777779e-05
1075 1073 1.0850694444444445e-05
1118 1073 1.0850694444444445e-05
1074 1074 4.3402777777777779e-05
1076 1074 1.0850694444444445e-05
1078 1074 1.0850694444444445e-05
1075 1075 4.3402777777777779e-05
1076 1075 1.0850694444444445e-05
1121 1075 1.0850694444444445e-05
1076 1076 4.3402777777777779e-05
1078 1076 1.0850694444444445e-05
1121 1076 1.0850694444444445e-05
1077 1077 4.3402777777777779e-05
1079 1077 1.0850694444444445e-05
1081 1077 1.0850694444444445e-05
1078 1078 4.3402777777777779e-05
1079 1078 1.0850694444444445e-05
1124 1078 1.0850694444444445e-05
1079 1079 4.3402777777777779e-05
1081 1079 1.0850694444444445e-05
1124 1079 1.0850694444444445e-05
1080 1080 4.3402777777777779e-05
1082 1080 1.0850694444444445e-05
1084 1080 1.0850694444444445e-05
1081 1081 4.3402777777777779e-05
1082 1081 1.0850694444444445e-05
1127 1081 1.0850694444444445e-05
1082 1082 4.3402777777777779e-05
1084 1082 1.0850694444444445e-05
1127 1082 1.0850694444444445e-05
1083 1083 4.3402777777777779e-05
1085 1083 1.0850694444444445e-05
1087 1083 1.0850694444444445e-05
1084 1084 4.3402777777777779e-05
1085 1084 1.0850694444444445e-05
1130 1084 1.0850694444444445e-05
1085 1085 4.3402777777777779e-05
1087 1085 1.0850694444444445e-05
1130 1085 1.0850694444444445e-05
1086 1086 4.3402777777777779e-05
1088 1086 1.0850694444444445e-05
1090 1086 1.0850694444444445e-05
1087 1087 4.3402777777777779e-05
1088 1087 1.0850694444444445e-05
1133 1087 1.0850694444444445e-05
1088 1088 4.3402777777777779e-05
1090 1088 1.0850694444444445e-05
1133 1088 1.0850694444444445e-05
1089 1089 4.3402777777777779e-05
1091 1089 1.0850694444444445e-05
1093 1089 1.0850694444444445e-05
1090 1090 4.3402777777777779e-05
1091 1090 1.0850694444444445e-05
1136 1090 1.0850694444444445e-05
1091 1091 4.3402777777777779e-05
1093 1091 1.0850694444444445e-05
1136 1091 1.0850694444444445e-05
1092 1092 4.3402777777777779e-05
1094 1092 1.0850694444444445e-05
1096 1092 1.0850694444444445e-05
1093 1093 4.3402777777777779e-05
1094 1093 1.0850694444444445e-05
1139 1093 1.0850694444444445e-05
1094 1094 4.3402777777777779e-05
1096 1094 1.0850694444444445e-05
1139 1094 1.0850694444444445e-05
1095 1095 4.3402777777777779e-05
1097 1095 1.0850694444444445e-05
1099 1095 1.0850694444444445e-05
1096 1096 4.3402777777777779e-05
1097 1096 1.0850694444444445e-05
1142 1096 1.0850694444444445e-05
1097 1097 4.3402777777777779e-05
1099 1097 1.0850694444444445e-05
1142 1097 1.0850694444444445e-05
1098 1098 4.3402777777777779e-05
1100 1098 1.0850694444444445e-05
1102 1098 1.0850694444444445e-05
1099 1099 4.3402777777777779e-05
1100 1099 1.0850694444444445e-05
1145 1099 1.0850694444444445e-05
1100 1100 4.3402777777777779e-05
1102 1100 1.0850694444444445e-05
1145 1100 1.0850694444444445e-05
1101 1101 4.3402777777777779e-05
1103 1101 1.0850694444444445e-05
1105 1101 1.0850694444444445e-05
1102 1102 4.3402777777777779e-05
1103 1102 1.0850694444444445e-05
1148 1102 1.0850694444444445e-05
1103 1103 4.3402777777777779e-05
1105 1103 1.0850694444444445e-05
1148 1103 1.0850694444444445e-05
1104 1104 4.3402777777777779e-05
1106 1104 1.0850694444444445e-05
1108 1104 1.0850694444444445e-05
1105 1105 4.3402777777777779e-05
1106 1105 1.0850694444444445e-05
1151 1105 1.0850694444444445e-05
1106 1106 4.3402777777777779e-05
1108 1106 1.0850694444444445e-05
1151 1106 1.0850694444444445e-05
1107 1107 4.3402777777777779e-05
1109 1107 1.0850694444444445e-05
1111 1107 1.0850694444444445e-05
1108 1108 4.3402777777777779e-05
1109 1108 1.0850694444444445e-05
1154 1108 1.0850694444444445e-05
1109 1109 4.3402777777777779e-05
1111 1109 1.0850694444444445e-05
1154 1109 1.0850694444444445e-05
1110 1110 4.3402777777777779e-05
1112 1110 1.0850694444444445e-05
1111 1111 4.3402777777777779e-05
1112 1111 1.0850694444444445e-05
1157 1111 1.0850694444444445e-05
1112 1112 4.3402777777777779e-05
1157 1112 1.0850694444444445e-05
1113 1113 4.3402777777777779e-05
1114 1113 1.0850694444444445e-05
1116 1113 1.0850694444444445e-05
1114 1114 4.3402777777777779e-05
1116 1114 1.0850694444444445e-05
1160 1114 1.0850694444444445e-05
1115 1115 4.3402777777777779e-05
1117 1115 1.0850694444444445e-05
1119 1115 1.0850694444444445e-05
1116 1116 4.3402777777777779e-05
1117 1116 1.0850694444444445e-05
1162 1116 1.0850694444444445e-05
1117 1117 4.3402777777777779e-05
1119 1117 1.0850694444444445e-05
1162 1117 1.0850694444444445e-05
1118 1118 4.3402777777777779e-05
1120 1118 1.0850694444444445e-05
1122 1118 1.0850694444444445e-05
1119 1119 4.3402777777777779e-05
1120 1119 1.0850694444444445e-05
1165 1119 1.0850694444444445e-05
1120 1120 4.3402777777777779e-05
1122 1120 1.0850694444444445e-05
1165 1120 1.0850694444444445e-05
1121 1121 4.3402777777777779e-05
1123 1121 1.0850694444444445e-05
1125 1121 1.0850694444444445e-05
1122 1122 4.3402777777777779e-05
1123 1122 1.0850694444444445e-05
1168 1122 1.0850694444444445e-05
1123 1123 4.3402777777777779e-05
1125 1123 1.0850694444444445e-05
1168 1123 1.0850694444444445e-05
1124 1124 4.3402777777777779e-05
1126 1124 1.0850694444444445e-05
1128 1124 1.0850694444444445e-05
1125 1125 4.3402777777777779e-05
1126 1125 1.0850694444444445e-05
1171 1125 1.0850694444444445e-05
1126 1126 4.3402777777777779e-05
1128 1126 1.0850694444444445e-05
1171 1126 1.0850694444444445e-05
1127 1127 4.3402777777777779e-05
1129 1127 1.0850694444444445e-05
1131 1127 1.0850694444444445e-05
1128 1128 4.3402777777777779e-05
1129 1128 1.0850694444444445e-05
1174 1128 1.0850694444444445e-05
1129 1129 4.3402777777777779e-05
1131 1129 1.0850694444444445e-05
1174 1129 1.0850694444444445e-05
1130 1130 4.3402777777777779e-05
1132 1130 1.0850694444444445e-05
1134 1130 1.0850694444444445e-05
1131 1131 4.3402777777777779e-05
1132 1131 1.0850694444444445e-05
1177 1131 1.0850694444444445e-05
1132 1132 4.3402777777777779e-05
1134 1132 1.0850694444444445e-05
1177 1132 1.0850694444444445e-05
1133 1133 4.3402777777777779e-05
1135 1133 1.0850694444444445e-05
1137 1133 1.0850694444444445e-05
1134 1134 4.3402777777777779e-05
1135 1134 1.0850694444444445e-05
1180 1134 1.0850694444444445e-05
1135 1135 4.3402777777777779e-05
1137 1135 1.0850694444444445e-05
1180 1135 1.0850694444444445e-05
1136 1136 4.3402777777777779e-05
1138 1136 1.0850694444444445e-05
1140 1136 1.0850694444444445e-05
1137 1137 4.3402777777777779e-05
1138 1137 1.0850694444444445e-05
1183 1137 1.0850694444444445e-05
1138 1138 4.3402777777777779e-05
1140 1138 1.0850694444444445e-05
1183 1138 1.0850694444444445e-05
1139 1139 4.3402777777777779e-05
1141 1139 1.0850694444444445e-05
1143 1139 1.0850694444444445e-05
1140 1140 4.3402777777777779e-05
1141 1140 1.0850694444444445e-05
1186 1140 1.0850694444444445e-05
1141 1141 4.3402777777777779e-05
1143 1141 1.0850694444444445e-05
1186 1141 1.0850694444444445e-05
1142 1142 4.3402777777777779e-05
1144 1142 1.0850694444444445e-05
1146 1142 1.0850694444444445e-05
1143 1143 4.3402777777777779e-05
1144 1143 1.0850694444444445e-05
1189 1143 1.0850694444444445e-05
1144 1144 4.3402777777777779e-05
1146 1144 1.0850694444444445e-05
1189 1144 1.0850694444444445e-05
1145 1145 4.3402777777777779e-05
1147 1145 1.0850694444444445e-05
1149 1145 1.0850694444444445e-05
1146 1146 4.3402777777777779e-05
1147 1146 1.0850694444444445e-05
1192 1146 1.0850694444444445e-05
1147 1147 4.3402777777777779e-05
1149 1147 1.0850694444444445e-05
1192 1147 1.0850694444444445e-05
1148 1148 4.3402777777777779e-05
1150 1148 1.0850694444444445e-05
1152 1148 1.0850694444444445e-05
1149 1149 4.3402777777777779e-05
1150 1149 1.0850694444444445e-05
1195 1149 1.0850694444444445e-05
1150 1150 4.3402777777777779e-05
1152 1150 1.0850694444444445e-05
1195 1150 1.0850694444444445e-05
1151 1151 4.3402777777777779e-05
1153 1151 1.0850694444444445e-05
1155 1151 1.0850694444444445e-05
1152 1152 4.3402777777777779e-05
1153 1152 1.0850694444444445e-05
1198 1152 1.0850694444444445e-05
1153 1153 4.3402777777777779e-05
1155 1153 1.0850694444444445e-05
1198 1153 1.0850694444444445e-05
1154 1154 4.3402777777777779e-05
1156 1154 1.0850694444444445e-05
1158 1154 1.0850694444444445e-05
1155 1155 4.3402777777777779e-05
1156 1155 1.0850694444444445e-05
1201 1155 1.0850694444444445e-05
1156 1156 4.3402777777777779e-05
1158 1156 1.0850694444444445e-05
1201 1156 1.0850694444444445e-05
1157 1157 4.3402777777777779e-05
1159 1157 1.0850694444444445e-05
1158 1158 4.3402777777777779e-05
1159 1158 1.0850694444444445e-05
1204 1158 1.0850694444444445e-05
1159 1159 4.3402777777777779e-05
1204 1159 1.0850694444444445e-05
1160 1160 4.3402777777777779e-05
1161 1160 1.0850694444444445e-05
1163 1160 1.0850694444444445e-05
1161 1161 4.3402777777777779e-05
1163 1161 1.0850694444444445e-05
1207 1161 1.0850694444444445e-05
1162 1162 4.3402777777777779e-05
1164 1162 1.0850694444444445e-05
1166 1162 1.0850694444444445e-05
1163 1163 4.3402777777777779e-05
1164 1163 1.0850694444444445e-05
1209 1163 1.0850694444444445e-05
1164 1164 4.3402777777777779e-05
1166 1164 1.0850694444444445e-05
1209 1164 1.0850694444444445e-05
1165 1165 4.3402777777777779e-05
1167 1165 1.0850694444444445e-05
1169 1165 1.0850694444444445e-05
1166 1166 4.3402777777777779e-05
1167 1166 1.0850694444444445e-05
1212 1166 1.0850694444444445e-05
1167 1167 4.3402777777777779e-05
1169 1167 1.0850694444444445e-05
1212 1167 1.0850694444444445e-05
1168 1168 4.3402777777777779e-05
1170 1168 1.0850694444444445e-05
1172 1168 1.0850694444444445e-05
1169 1169 4.3402777777777779e-05
1170 1169 1.0850694444444445e-05
1215 1169 1.0850694444444445e-05
1170 1170 4.3402777777777779e-05
1172 1170 1.0850694444444445e-05
1215 1170 1.0850694444444445e-05
1171 1171 4.3402777777777779e-05
1173 1171 1.0850694444444445e-05
1175 1171 1.0850694444444445e-05
1172 1172 4.3402777777777779e-05
1173 1172 1.0850694444444445e-05
1218 1172 1.0850694444444445e-05
1173 1173 4.3402777777777779e-05
1175 1173 1.0850694444444445e-05
1218 1173 1.0850694444444445e-05
1174 1174 4.3402777777777779e-05
1176 1174 1.0850694444444445e-05
1178 1174 1.0850694444444445e-05
1175 1175 4.3402777777777779e-05
1176 1175 1.0850694444444445e-05
1221 1175 1.0850694444444445e-05
1176 1176 4.3402777777777779e-05
1178 1176 1.0850694444444445e-05
1221 1176 1.0850694444444445e-05
1177 1177 4.3402777777777779e-05
1179 1177 1.0850694444444445e-05
1181 1177 1.0850694444444445e-05
1178 1178 4.3402777777777779e-05
1179 1178 1.0850694444444445e-05
1224 1178 1.0850694444444445e-05
1179 1179 4.3402777777777779e-05
1181 1179 1.0850694444444445e-05
1224 1179 1.0850694444444445e-05
1180 1180 4.3402777777777779e-05
1182 1180 1.0850694444444445e-05
1184 1180 1.0850694444444445e-05
1181 1181 4.3402777777777779e-05
1182 1181 1.0850694444444445e-05
1227 1181 1.0850694444444445e-05
1182 1182 4.3402777777777779e-05
1184 1182 1.0850694444444445e-05
1227 1182 1.0850694444444445e-05
1183 1183 4.3402777777777779e-05
1185 1183 1.0850694444444445e-05
1187 1183 1.0850694444444445e-05
1184 1184 4.3402777777777779e-05
1185 1184 1.0850694444444445e-05
1230 1184 1.0850694444444445e-05
1185 1185 4.3402777777777779e-05
1187 1185 1.0850694444444445e-05
1230 1185 1.0850694444444445e-05
1186 1186 4.3402777777777779e-05
1188 1186 1.0850694444444445e-05
1190 1186 1.0850694444444445e-05
1187 1187 4.3402777777777779e-05
1188 1187 1.0850694444444445e-05
1233 1187 1.0850694444444445e-05
1188 1188 4.3402777777777779e-05
1190 1188 1.0850694444444445e-05
1233 1188 1.0850694444444445e-05
1189 1189 4.3402777777777779e-05
1191 1189 1.0850694444444445e-05
1193 1189 1.0850694444444445e-05
1190 1190 4.3402777777777779e-05
1191 1190 1.0850694444444445e-05
1236 1190 1.0850694444444445e-05
1191 1191 4.3402777777777779e-05
1193 1191 1.0850694444444445e-05
1236 1191 1.0850694444444445e-05
1192 1192 4.3402777777777779e-05
1194 1192 1.0850694444444445e-05
1196 1192 1.0850694444444445e-05
1193 1193 4.3402777777777779e-05
1194 1193 1.0850694444444445e-05
1239 1193 1.0850694444444445e-05
1194 1194 4.3402777777777779e-05
1196 1194 1.0850694444444445e-05
1239 1194 1.0850694444444445e-05
1195 1195 4.3402777777777779e-05
1197 1195 1.0850694444444445e-05
1199 1195 1.0850694444444445e-05
1196 1196 4.3402777777777779e-05
1197 1196 1.0850694444444445e-05
1242 1196 1.0850694444444445e-05
1197 1197 4.3402777777777779e-05
1199 1197 1.0850694444444445e-05
1242 1197 1.0850694444444445e-05
1198 1198 4.3402777777777779e-05
1200 1198 1.0850694444444445e-05
1202 1198 1.0850694444444445e-05
1199 1199 4.3402777777777779e-05
1200 1199 1.0850694444444445e-05
1245 1199 1.0850694444444445e-05
1200 1200 4.3402777777777779e-05
1202 1200 1.0850694444444445e-05
1245 1200 1.0850694444444445e-05
1201 1201 4.3402777777777779e-05
1203 1201 1.0850694444444445e-05
1205 1201 1.0850694444444445e-05
1202 1202 4.3402777777777779e-05
1203 1202 1.0850694444444445e-05
1248 1202 1.0850694444444445e-05
1203 1203 4.3402777777777779e-05
1205 1203 1.0850694444444445e-05
1248 1203 1.0850694444444445e-05
1204 1204 4.3402777777777779e-05
1206 1204 1.0850694444444445e-05
1205 1205 4.3402777777777779e-05
1206 1205 1.0850694444444445e-05
1251 1205 1.0850694444444445e-05
1206 1206 4.3402777777777779e-05
1251 1206 1.0850694444444445e-05
1207 1207 4.3402777777777779e-05
1208 1207 1.0850694444444445e-05
1210 1207 1.0850694444444445e-05
1208 1208 4.3402777777777779e-05
1210 1208 1.0850694444444445e-05
1254 1208 1.0850694444444445e-05
1209 1209 4.3402777777777779e-05
1211 1209 1.0850694444444445e-05
1213 1209 1.0850694444444445e-05
1210 1210 4.3402777777777779e-05
1211 1210 1.0850694444444445e-05
1256 1210 1.0850694444444445e-05
1211 1211 4.3402777777777779e-05
1213 1211 1.0850694444444445e-05
1256 1211 1.0850694444444445e-05
1212 1212 4.3402777777777779e-05
1214 1212 1.0850694444444445e-05
1216 1212 1.0850694444444445e-05
1213 1213 4.3402777777777779e-05
1214 1213 1.0850694444444445e-05
1259 1213 1.0850694444444445e-05
1214 1214 4.3402777777777779e-05
1216 1214 1.0850694444444445e-05
1259 1214 1.0850694444444445e-05
1215 1215 4.3402777777777779e-05
1217 1215 1.0850694444444445e-05
1219 1215 1.0850694444444445e-05
1216 1216 4.3402777777777779e-05
1217 1216 1.0850694444444445e-05
1262 1216 1.0850694444444445e-05
1217 1217 4.3402777777777779e-05
1219 1217 1.0850694444444445e-05
1262 1217 1.0850694444444445e-05
1218 1218 4.3402777777777779e-05
1220 1218 1.0850694444444445e-05
1222 1218 1.0850694444444445e-05
1219 1219 4.3402777777777779e-05
1220 1219 1.0850694444444445e-05
1265 1219 1.0850694444444445e-05
1220 1220 4.3402777777777779e-05
1222 1220 1.0850694444444445e-05
1265 1220 1.0850694444444445e-05
1221 1221 4.3402777777777779e-05
1223 1221 1.0850694444444445e-05
1225 1221 1.0850694444444445e-05
1222 1222 4.3402777777777779e-05
1223 1222 1.0850694444444445e-05
1268 1222 1.0850694444444445e-05
1223 1223 4.3402777777777779e-05
1225 1223 1.0850694444444445e-05
1268 1223 1.0850694444444445e-05
1224 1224 4.3402777777777779e-05
1226 1224 1.0850694444444445e-05
1228 1224 1.0850694444444445e-05
1225 1225 4.3402777777777779e-05
1226 1225 1.0850694444444445e-05
1271 1225 1.0850694444444445e-05
1226 1226 4.3402777777777779e-05
1228 1226 1.0850694444444445e-05
1271 1226 1.0850694444444445e-05
1227 1227 4.3402777777777779e-05
1229 1227 1.0850694444444445e-05
1231 1227 1.0850694444444445e-05
1228 1228 4.3402777777777779e-05
1229 1228 1.0850694444444445e-05
1274 1228 1.0850694444444445e-05
1229 1229 4.3402777777777779e-05
1231 1229 1.0850694444444445e-05
1274 1229 1.0850694444444445e-05
1230 1230 4.3402777777777779e-05
1232 1230 1.0850694444444445e-05
1234 1230 1.0850694444444445e-05
1231 1231 4.3402777777777779e-05
1232 1231 1.0850694444444445e-05
1277 1231 1.0850694444444445e-05
1232 1232 4.3402777777777779e-05
1234 1232 1.0850694444444445e-05
1277 1232 1.0850694444444445e-05
1233 1233 4.3402777777777779e-05
1235 1233 1.0850694444444445e-05
1237 1233 1.0850694444444445e-05
1234 1234 4.3402777777777779e-05
1235 1234 1.0850694444444445e-05
1280 1234 1.0850694444444445e-05
1235 1235 4.3402777777777779e-05
1237 1235 1.0850694444444445e-05
1280 1235 1.0850694444444445e-05
1236 1236 4.3402777777777779e-05
1238 1236 1.0850694444444445e-05
1240 1236 1.0850694444444445e-05
1237 1237 4.3402777777777779e-05
1238 1237 1.0850694444444445e-05
1283 1237 1.0850694444444445e-05
1238 1238 4.3402777777777779e-05
1240 1238 1.0850694444444445e-05
1283 1238 1.0850694444444445e-05
1239 1239 4.3402777777777779e-05
1241 1239 1.0850694444444445e-05
1243 1239 1.0850694444444445e-05
1240 1240 4.3402777777777779e-05
1241 1240 1.0850694444444445e-05
1286 1240 1.0850694444444445e-05
1241 1241 4.3402777777777779e-05
1243 1241 1.0850694444444445e-05
1286 1241 1.0850694444444445e-05
1242 1242 4.3402777777777779e-05
1244 1242 1.0850694444444445e-05
1246 1242 1.0850694444444445e-05
1243 1243 4.3402777777777779e-05
1244 1243 1.0850694444444445e-05
1289 1243 1.0850694444444445e-05
1244 1244 4.3402777777777779e-05
1246 1244 1.0850694444444445e-05
1289 1244 1.0850694444444445e-05
1245 1245 4.3402777777777779e-05
1247 1245 1.0850694444444445e-05
1249 1245 1.0850694444444445e-05
1246 1246 4.3402777777777779e-05
1247 1246 1.0850694444444445e-05
1292 1246 1.0850694444444445e-05
1247 1247 4.3402777777777779e-05
1249 1247 1.0850694444444445e-05
1292 1247 1.0850694444444445e-05
1248 1248 4.3402777777777779e-05
1250 1248 1.0850694444444445e-05
1252 1248 1.0850694444444445e-05
1249 1249 4.3402777777777779e-05
1250 1249 1.0850694444444445e-05
1295 1249 1.0850694444444445e-05
1250 1250 4.3402777777777779e-05
1252 1250 1.0850694444444445e-05
1295 1250 1.0850694444444445e-05
1251 1251 4.3402777777777779e-05
1253 1251 1.0850694444444445e-05
1252 1252 4.3402777777777779e-05
1253 1252 1.0850694444444445e-05
1298 1252 1.0850694444444445e-05
1253 1253 4.3402777777777779e-05
1298 1253 1.0850694444444445e-05
1254 1254 4.3402777777777779e-05
1255 1254 1.0850694444444445e-05
1257 1254 1.0850694444444445e-05
1255 1255 4.3402777777777779e-05
1257 1255 1.0850694444444445e-05
1301 1255 1.0850694444444445e-05
1256 1256 4.3402777777777779e-05
1258 1256 1.0850694444444445e-05
1260 1256 1.0850694444444445e-05
1257 1257 4.3402777777777779e-05
1258 1257 1.0850694444444445e-05
1303 1257 1.0850694444444445e-05
1258 1258 4.3402777777777779e-05
1260 1258 1.0850694444444445e-05
1303 1258 1.0850694444444445e-05
1259 1259 4.3402777777777779e-05
1261 1259 1.0850694444444445e-05
1263 1259 1.0850694444444445e-05
1260 1260 4.3402777777777779e-05
1261 1260 1.0850694444444445e-05
1306 1260 1.0850694444444445e-05
1261 1261 4.3402777777777779e-05
1263 1261 1.0850694444444445e-05
1306 1261 1.0850694444444445e-05
1262 1262 4.3402777777777779e-05
1264 1262 1.0850694444444445e-05
1266 1262 1.0850694444444445e-05
1263 1263 4.3402777777777779e-05
1264 1263 1.0850694444444445e-05
1309 1263 1.0850694444444445e-05
1264 1264 4.3402777777777779e-05
1266 1264 1.0850694444444445e-05
1309 1264 1.0850694444444445e-05
1265 1265 4.3402777777777779e-05
1267 1265 1.0850694444444445e-05
1269 1265 1.0850694444444445e-05
1266 1266 4.3402777777777779e-05
1267 1266 1.0850694444444445e-05
1312 1266 1.0850694444444445e-05
1267 1267 4.3402777777777779e-05
1269 1267 1.0850694444444445e-05
1312 1267 1.0850694444444445e-05
1268 1268 4.3402777777777779e-05
1270 1268 1.0850694444444445e-05
1272 1268 1.0850694444444445e-05
1269 1269 4.3402777777777779e-05
1270 1269 1.0850694444444445e-05
1315 1269 1.0850694444444445e-05
1270 1270 4.3402777777777779e-05
1272 1270 1.0850694444444445e-05
1315 1270 1.0850694444444445e-05
1271 1271 4.3402777777777779e-05
1273 1271 1.0850694444444445e-05
1275 1271 1.0850694444444445e-05
1272 1272 4.3402777777777779e-05
1273 1272 1.0850694444444445e-05
1318 1272 1.0850694444444445e-05
1273 1273 4.3402777777777779e-05
1275 1273 1.0850694444444445e-05
1318 1273 1.0850694444444445e-05
1274 1274 4.3402777777777779e-05
1276 1274 1.0850694444444445e-05
1278 1274 1.0850694444444445e-05
1275 1275 4.3402777777777779e-05
1276 1275 1.0850694444444445e-05
1321 1275 1.0850694444444445e-05
1276 1276 4.3402777777777779e-05
1278 1276 1.0850694444444445e-05
1321 1276 1.0850694444444445e-05
1277 1277 4.3402777777777779e-05
1279 1277 1.0850694444444445e-05
1281 1277 1.0850694444444445e-05
1278 1278 4.3402777777777779e-05
1279 1278 1.0850694444444445e-05
1324 1278 1.0850694444444445e-05
1279 1279 4.3402777777777779e-05
1281 1279 1.0850694444444445e-05
1324 1279 1.0850694444444445e-05
1280 1280 4.3402777777777779e-05
1282 1280 1.0850694444444445e-05
1284 1280 1.0850694444444445e-05
1281 1281 4.3402777777777779e-05
1282 1281 1.0850694444444445e-05
1327 1281 1.0850694444444445e-05
1282 1282 4.3402777777777779e-05
1284 1282 1.0850694444444445e-05
1327 1282 1.0850694444444445e-05
1283 1283 4.3402777777777779e-05
1285 1283 1.0850694444444445e-05
1287 1283 1.0850694444444445e-05
1284 1284 4.3402777777777779e-05
1285 1284 1.0850694444444445e-05
1330 1284 1.0850694444444445e-05
1285 1285 4.3402777777777779e-05
1287 1285 1.0850694444444445e-05
1330 1285 1.0850694444444445e-05
1286 1286 4.3402777777777779e-05
1288 1286 1.0850694444444445e-05
1290 1286 1.0850694444444445e-05
1287 1287 4.3402777777777779e-05
1288 1287 1.0850694444444445e-05
1333 1287 1.0850694444444445e-05
1288 1288 4.3402777777777779e-05
1290 1288 1.0850694444444445e-05
1333 1288 1.0850694444444445e-05
1289 1289 4.3402777777777779e-05
1291 1289 1.0850694444444445e-05
1293 1289 1.0850694444444445e-05
1290 1290 4.3402777777777779e-05
1291 1290 1.0850694444444445e-05
1336 1290 1.0850694444444445e-05
1291 1291 4.3402777777777779e-05
1293 1291 1.0850694444444445e-05
1336 1291 1.0850694444444445e-05
1292 1292 4.3402777777777779e-05
1294 1292 1.0850694444444445e-05
1296 1292 1.0850694444444445e-05
1293 1293 4.3402777777777779e-05
1294 1293 1.0850694444444445e-05
1339 1293 1.0850694444444445e-05
1294 1294 4.3402777777777779e-05
1296 1294 1.0850694444444445e-05
1339 1294 1.0850694444444445e-05
1295 1295 4.3402777777777779e-05
1297 1295 1.0850694444444445e-05
1299 1295 1.0850694444444445e-05
1296 1296 4.3402777777777779e-05
1297 1296 1.0850694444444445e-05
1342 1296 1.0850694444444445e-05
1297 1297 4.3402777777777779e-05
1299 1297 1.0850694444444445e-05
1342 1297 1.0850694444444445e-05
1298 1298 4.3402777777777779e-05
1300 1298 1.0850694444444445e-05
1299 1299 4.3402777777777779e-05
1300 1299 1.0850694444444445e-05
1345 1299 1.0850694444444445e-05
1300 1300 4.3402777777777779e-05
1345 1300 1.0850694444444445e-05
1301 1301 4.3402777777777779e-05
1302 1301 1.0850694444444445e-05
1304 1301 1.0850694444444445e-05
1302 1302 4.3402777777777779e-05
1304 1302 1.0850694444444445e-05
1348 1302 1.0850694444444445e-05
1303 1303 4.3402777777777779e-05
1305 1303 1.0850694444444445e-05
1307 1303 1.0850694444444445e-05
1304 1304 4.3402777777777779e-05
1305 1304 1.0850694444444445e-05
1350 1304 1.0850694444444445e-05
1305 1305 4.3402777777777779e-05
1307 1305 1.0850694444444445e-05
1350 1305 1.0850694444444445e-05
1306 1306 4.3402777777777779e-05
1308 1306 1.0850694444444445e-05
1310 1306 1.0850694444444445e-05
1307 1307 4.3402777777777779e-05
1308 1307 1.0850694444444445e-05
1353 1307 1.0850694444444445e-05
1308 1308 4.3402777777777779e-05
1310 1308 1.0850694444444445e-05
1353 1308 1.0850694444444445e-05
1309 1309 4.3402777777777779e-05
1311 1309 1.0850694444444445e-05
1313 1309 1.0850694444444445e-05
1310 1310 4.3402777777777779e-05
1311 1310 1.0850694444444445e-05
1356 1310 1.0850694444444445e-05
1311 1311 4.3402777777777779e-05
1313 1311 1.0850694444444445e-05
1356 1311 1.0850694444444445e-05
1312 1312 4.3402777777777779e-05
1314 1312 1.0850694444444445e-05
1316 1312 1.0850694444444445e-05
1313 1313 4.3402777777777779e-05
1314 1313 1.0850694444444445e-05
1359 1313 1.0850694444444445e-05
1314 1314 4.3402777777777779e-05
1316 1314 1.0850694444444445e-05
1359 1314 1.0850694444444445e-05
1315 1315 4.3402777777777779e-05
1317 1315 1.0850694444444445e-05
1319 1315 1.0850694444444445e-05
1316 1316 4.3402777777777779e-05
1317 1316 1.0850694444444445e-05
1362 1316 1.0850694444444445e-05
1317 1317 4.3402777777777779e-05
1319 1317 1.0850694444444445e-05
1362 1317 1.0850694444444445e-05
1318 1318 4.3402777777777779e-05
1320 1318 1.0850694444444445e-05
1322 1318 1.0850694444444445e-05
1319 1319 4.3402777777777779e-05
1320 1319 1.0850694444444445e-05
1365 1319 1.0850694444444445e-05
1320 1320 4.3402777777777779e-05
1322 1320 1.0850694444444445e-05
1365 1320 1.0850694444444445e-05
1321 1321 4.3402777777777779e-05
1323 1321 1.0850694444444445e-05
1325 1321 1.0850694444444445e-05
1322 1322 4.3402777777777779e-05
1323 1322 1.0850694444444445e-05
1368 1322 1.0850694444444445e-05
1323 1323 4.3402777777777779e-05
1325 1323 1.0850694444444445e-05
1368 1323 1.0850694444444445e-05
1324 1324 4.3402777777777779e-05
1326 1324 1.0850694444444445e-05
1328 1324 1.0850694444444445e-05
1325 1325 4.3402777777777779e-05
1326 1325 1.0850694444444445e-05
1371 1325 1.0850694444444445e-05
1326 1326 4.3402777777777779e-05
1328 1326 1.0850694444444445e-05
1371 1326 1.0850694444444445e-05
1327 1327 4.3402777777777779e-05
1329 1327 1.0850694444444445e-05
1331 1327 1.0850694444444445e-05
1328 1328 4.3402777777777779e-05
1329 1328 1.0850694444444445e-05
1374 1328 1.0850694444444445e-05
1329 1329 4.3402777777777779e-05
1331 1329 1.0850694444444445e-05
1374 1329 1.0850694444444445e-05
1330 1330 4.3402777777777779e-05
1332 1330 1.0850694444444445e-05
1334 1330 1.0850694444444445e-05
1331 1331 4.3402777777777779e-05
1332 1331 1.0850694444444445e-05
1377 1331 1.0850694444444445e-05
1332 1332 4.3402777777777779e-05
1334 1332 1.0850694444444445e-05
1377 1332 1.0850694444444445e-05
1333 1333 4.3402777777777779e-05
1335 1333 1.0850694444444445e-05
1337 1333 1.0850694444444445e-05
1334 1334 4.3402777777777779e-05
1335 1334 1.0850694444444445e-05
1380 1334 1.0850694444444445e-05
1335 1335 4.3402777777777779e-05
1337 1335 1.0850694444444445e-05
1380 1335 1.0850694444444445e-05
1336 1336 4.3402777777777779e-05
1338 1336 1.0850694444444445e-05
1340 1336 1.0850694444444445e-05
1337 1337 4.3402777777777779e-05
1338 1337 1.0850694444444445e-05
1383 1337 1.0850694444444445e-05
1338 1338 4.3402777777777779e-05
1340 1338 1.0850694444444445e-05
1383 1338 1.0850694444444445e-05
1339 1339 4.3402777777777779e-05
1341 1339 1.0850694444444445e-05
1343 1339 1.0850694444444445e-05
1340 1340 4.3402777777777779e-05
1341 1340 1.0850694444444445e-05
1386 1340 1.0850694444444445e-05
1341 1341 4.3402777777777779e-05
1343 1341 1.0850694444444445e-05
1386 1341 1.0850694444444445e-05
1342 1342 4.3402777777777779e-05
1344 1342 1.0850694444444445e-05
1346 1342 1.0850694444444445e-05
1343 1343 4.3402777777777779e-05
1344 1343 1.0850694444444445e-05
1389 1343 1.0850694444444445e-05
1344 1344 4.3402777777777779e-05
1346 1344 1.0850694444444445e-05
1389 1344 1.0850694444444445e-05
1345 1345 4.3402777777777779e-05
1347 1345 1.0850694444444445e-05
1346 1346 4.3402777777777779e-05
1347 1346 1.0850694444444445e-05
1392 1346 1.0850694444444445e-05
1347 1347 4.3402777777777779e-05
1392 1347 1.0850694444444445e-05
1348 1348 4.3402777777777779e-05
1349 1348 1.0850694444444445e-05
1351 1348 1.0850694444444445e-05
1349 1349 4.3402777777777779e-05
1351 1349 1.0850694444444445e-05
1395 1349 1.0850694444444445e-05
1350 1350 4.3402777777777779e-05
1352 1350 1.0850694444444445e-05
1354 1350 1.0850694444444445e-05
1351 1351 4.3402777777777779e-05
1352 1351 1.0850694444444445e-05
1397 1351 1.0850694444444445e-05
1352 1352 4.3402777777777779e-05
1354 1352 1.0850694444444445e-05
1397 1352 1.0850694444444445e-05
1353 1353 4.3402777777777779e-05
1355 1353 1.0850694444444445e-05
1357 1353 1.0850694444444445e-05
1354 1354 4.3402777777777779e-05
1355 1354 1.0850694444444445e-05
1400 1354 1.0850694444444445e-05
1355 1355 4.3402777777777779e-05
1357 1355 1.0850694444444445e-05
1400 1355 1.0850694444444445e-05
1356 1356 4.3402777777777779e-05
1358 1356 1.0850694444444445e-05
1360 1356 1.0850694444444445e-05
1357 1357 4.3402777777777779e-05
1358 1357 1.0850694444444445e-05
1403 1357 1.0850694444444445e-05
1358 1358 4.3402777777777779e-05
1360 1358 1.0850694444444445e-05
1403 1358 1.0850694444444445e-05
1359 1359 4.3402777777777779e-05
1361 1359 1.0850694444444445e-05
1363 1359 1.0850694444444445e-05
1360 1360 4.3402777777777779e-05
1361 1360 1.0850694444444445e-05
1406 1360 1.0850694444444445e-05
1361 1361 4.3402777777777779e-05
1363 1361 1.0850694444444445e-05
1406 1361 1.0850694444444445e-05
1362 1362 4.3402777777777779e-05
1364 1362 1.0850694444444445e-05
1366 1362 1.0850694444444445e-05
1363 1363 4.3402777777777779e-05
1364 1363 1.0850694444444445e-05
1409 1363 1.0850694444444445e-05
1364 1364 4.3402777777777779e-05
1366 1364 1.0850694444444445e-05
1409 1364 1.0850694444444445e-05
1365 1365 4.3402777777777779e-05
1367 1365 1.0850694444444445e-05
1369 1365 1.0850694444444445e-05
1366 1366 4.3402777777777779e-05
1367 1366 1.0850694444444445e-05
1412 1366 1.0850694444444445e-05
1367 1367 4.3402777777777779e-05
1369 1367 1.0850694444444445e-05
1412 1367 1.0850694444444445e-05
1368 1368 4.3402777777777779e-05
1370 1368 1.0850694444444445e-05
1372 1368 1.0850694444444445e-05
1369 1369 4.3402777777777779e-05
1370 1369 1.0850694444444445e-05
1415 1369 1.0850694444444445e-05
1370 1370 4.3402777777777779e-05
1372 1370 1.0850694444444445e-05
1415 1370 1.0850694444444445e-05
1371 1371 4.3402777777777779e-05
1373 1371 1.0850694444444445e-05
1375 1371 1.0850694444444445e-05
1372 1372 4.3402777777777779e-05
1373 1372 1.0850694444444445e-05
1418 1372 1.0850694444444445e-05
1373 1373 4.3402777777777779e-05
1375 1373 1.0850694444444445e-05
1418 1373 1.0850694444444445e-05
1374 1374 4.3402777777777779e-05
1376 1374 1.0850694444444445e-05
1378 1374 1.0850694444444445e-05
1375 1375 4.3402777777777779e-05
1376 1375 1.0850694444444445e-05
1421 1375 1.0850694444444445e-05
1376 1376 4.3402777777777779e-05
1378 1376 1.0850694444444445e-05
1421 1376 1.0850694444444445e-05
1377 1377 4.3402777777777779e-05
1379 1377 1.0850694444444445e-05
1381 1377 1.0850694444444445e-05
1378 1378 4.3402777777777779e-05
1379 1378 1.0850694444444445e-05
1424 1378 1.0850694444444445e-05
1379 1379 4.3402777777777779e-05
1381 1379 1.0850694444444445e-05
1424 1379 1.0850694444444445e-05
1380 1380 4.3402777777777779e-05
1382 1380 1.0850694444444445e-05
1384 1380 1.0850694444444445e-05
1381 1381 4.3402777777777779e-05
1382 1381 1.0850694444444445e-05
1427 1381 1.0850694444444445e-05
1382 1382 4.3402777777777779e-05
1384 1382 1.0850694444444445e-05
1427 1382 1.0850694444444445e-05
1383 1383 4.3402777777777779e-05
1385 1383 1.0850694444444445e-05
1387 1383 1.0850694444444445e-05
1384 1384 4.3402777777777779e-05
1385 1384 1.0850694444444445e-05
1430 1384 1.0850694444444445e-05
1385 1385 4.3402777777777779e-05
1387 1385 1.0850694444444445e-05
1430 1385 1.0850694444444445e-05
1386 1386 4.3402777777777779e-05
1388 1386 1.0850694444444445e-05
1390 1386 1.0850694444444445e-05
1387 1387 4.3402777777777779e-05
1388 1387 1.0850694444444445e-05
1433 1387 1.0850694444444445e-05
1388 1388 4.3402777777777779e-05
1390 1388 1.0850694444444445e-05
1433 1388 1.0850694444444445e-05
1389 1389 4.3402777777777779e-05
1391 1389 1.0850694444444445e-05
1393 1389 1.0850694444444445e-05
1390 1390 4.3402777777777779e-05
1391 1390 1.0850694444444445e-05
1436 1390 1.0850694444444445e-05
1391 1391 4.3402777777777779e-05
1393 1391 1.0850694444444445e-05
1436 1391 1.0850694444444445e-05
1392 1392 4.3402777777777779e-05
1394 1392 1.0850694444444445e-05
1393 1393 4.3402777777777779e-05
1394 1393 1.0850694444444445e-05
1439 1393 1.0850694444444445e-05
1394 1394 4.3402777777777779e-05
1439 1394 1.0850694444444445e-05
1395 1395 4.3402777777777779e-05
1396 1395 1.0850694444444445e-05
1398 1395 1.0850694444444445e-05
1396 1396 4.3402777777777779e-05
1398 1396 1.0850694444444445e-05
1442 1396 1.0850694444444445e-05
1397 1397 4.3402777777777779e-05
1399 1397 1.0850694444444445e-05
1401 1397 1.0850694444444445e-05
1398 1398 4.3402777777777779e-05
1399 1398 1.0850694444444445e-05
1444 1398 1.0850694444444445e-05
1399 1399 4.3402777777777779e-05
1401 1399 1.0850694444444445e-05
1444 1399 1.0850694444444445e-05
1400 1400 4.3402777777777779e-05
1402 1400 1.0850694444444445e-05
1404 1400 1.0850694444444445e-05
1401 1401 4.3402777777777779e-05
1402 1401 1.0850694444444445e-05
1447 1401 1.0850694444444445e-05
1402 1402 4.3402777777777779e-05
1404 1402 1.0850694444444445e-05
1447 1402 1.0850694444444445e-05
1403 1403 4.3402777777777779e-05
1405 1403 1.0850694444444445e-05
1407 1403 1.0850694444444445e-05
1404 1404 4.3402777777777779e-05
1405 1404 1.0850694444444445e-05
1450 1404 1.0850694444444445e-05
1405 1405 4.3402777777777779e-05
1407 1405 1.0850694444444445e-05
1450 1405 1.0850694444444445e-05
1406 1406 4.3402777777777779e-05
1408 1406 1.0850694444444445e-05
1410 1406 1.0850694444444445e-05
1407 1407 4.3402777777777779e-05
1408 1407 1.0850694444444445e-05
1453 1407 1.0850694444444445e-05
1408 1408 4.3402777777777779e-05
1410 1408 1.0850694444444445e-05
1453 1408 1.0850694444444445e-05
1409 1409 4.3402777777777779e-05
1411 1409 1.0850694444444445e-05
1413 1409 1.0850694444444445e-05
1410 1410 4.3402777777777779e-05
1411 1410 1.0850694444444445e-05
1456 1410 1.0850694444444445e-05
1411 1411 4.3402777777777779e-05
1413 1411 1.0850694444444445e-05
1456 1411 1.0850694444444445e-05
1412 1412 4.3402777777777779e-05
1414 1412 1.0850694444444445e-05
1416 1412 1.0850694444444445e-05
1413 1413 4.3402777777777779e-05
1414 1413 1.0850694444444445e-05
1459 1413 1.0850694444444445e-05
1414 1414 4.3402777777777779e-05
1416 1414 1.0850694444444445e-05
1459 1414 1.0850694444444445e-05
1415 1415 4.3402777777777779e-05
1417 1415 1.0850694444444445e-05
1419 1415 1.0850694444444445e-05
1416 1416 4.3402777777777779e-05
1417 1416 1.0850694444444445e-05
1462 1416 1.0850694444444445e-05
1417 1417 4.3402777777777779e-05
1419 1417 1.0850694444444445e-05
1462 1417 1.0850694444444445e-05
1418 1418 4.3402777777777779e-05
1420 1418 1.0850694444444445e-05
1422 1418 1.0850694444444445e-05
1419 1419 4.3402777777777779e-05
1420 1419 1.0850694444444445e-05
1465 1419 1.0850694444444445e-05
1420 1420 4.3402777777777779e-05
1422 1420 1.0850694444444445e-05
1465 1420 1.0850694444444445e-05
1421 1421 4.3402777777777779e-05
1423 1421 1.0850694444444445e-05
1425 1421 1.0850694444444445e-05
1422 1422 4.3402777777777779e-05
1423 1422 1.0850694444444445e-05
1468 1422 1.0850694444444445e-05
1423 1423 4.3402777777777779e-05
1425 1423 1.0850694444444445e-05
1468 1423 1.0850694444444445e-05
1424 1424 4.3402777777777779e-05
1426 1424 1.0850694444444445e-05
1428 1424 1.0850694444444445e-05
1425 1425 4.3402777777777779e-05
1426 1425 1.0850694444444445e-05
1471 1425 1.0850694444444445e-05
1426 1426 4.3402777777777779e-05
1428 1426 1.0850694444444445e-05
1471 1426 1.0850694444444445e-05
1427 1427 4.3402777777777779e-05
1429 1427 1.0850694444444445e-05
1431 1427 1.0850694444444445e-05
1428 1428 4.3402777777777779e-05
1429 1428 1.0850694444444445e-05
1474 1428 1.0850694444444445e-05
1429 1429 4.3402777777777779e-05
1431 1429 1.0850694444444445e-05
1474 1429 1.0850694444444445e-05
1430 1430 4.3402777777777779e-05
1432 1430 1.0850694444444445e-05
1434 1430 1.0850694444444445e-05
1431 1431 4.3402777777777779e-05
1432 1431 1.0850694444444445e-05
1477 1431 1.0850694444444445e-05
1432 1432 4.3402777777777779e-05
1434 1432 1.0850694444444445e-05
1477 1432 1.0850694444444445e-05
1433 1433 4.3402777777777779e-05
1435 1433 1.0850694444444445e-05
1437 1433 1.0850694444444445e-05
1434 1434 4.3402777777777779e-05
1435 1434 1.0850694444444445e-05
1480 1434 1.0850694444444445e-05
1435 1435 4.3402777777777779e-05
1437 1435 1.0850694444444445e-05
1480 1435 1.0850694444444445e-05
1436 1436 4.3402777777777779e-05
1438 1436 1.0850694444444445e-05
1440 1436 1.0850694444444445e-05
1437 1437 4.3402777777777779e-05
1438 1437 1.0850694444444445e-05
1483 1437 1.0850694444444445e-05
1438 1438 4.3402777777777779e-05
1440 1438 1.0850694444444445e-05
1483 1438 1.0850694444444445e-05
1439 1439 4.3402777777777779e-05
1441 1439 1.0850694444444445e-05
1440 1440 4.3402777777777779e-05
1441 1440 1.0850694444444445e-05
1486 1440 1.0850694444444445e-05
1441 1441 4.3402777777777779e-05
1486 1441 1.0850694444444445e-05
1442 1442 4.3402777777777779e-05
1443 1442 1.0850694444444445e-05
1445 1442 1.0850694444444445e-05
1443 1443 4.3402777777777779e-05
1445 1443 1.0850694444444445e-05
1521 1443 1.0850694444444445e-05
1444 1444 4.3402777777777779e-05
1446 1444 1.0850694444444445e-05
1448 1444 1.0850694444444445e-05
1445 1445 4.3402777777777779e-05
1446 1445 1.0850694444444445e-05
1523 1445 1.0850694444444445e-05
1446 1446 4.3402777777777779e-05
1448 1446 1.0850694444444445e-05
1523 1446 1.0850694444444445e-05
1447 1447 4.3402777777777779e-05
1449 1447 1.0850694444444445e-05
1451 1447 1.0850694444444445e-05
1448 1448 4.3402777777777779e-05
1449 1448 1.0850694444444445e-05
1526 1448 1.0850694444444445e-05
1449 1449 4.3402777777777779e-05
1451 1449 1.0850694444444445e-05
1526 1449 1.0850694444444445e-05
1450 1450 4.3402777777777779e-05
1452 1450 1.0850694444444445e-05
1454 1450 1.0850694444444445e-05
1451 1451 4.3402777777777779e-05
1452 1451 1.0850694444444445e-05
1529 1451 1.0850694444444445e-05
1452 1452 4.3402777777777779e-05
1454 1452 1.0850694444444445e-05
1529 1452 1.0850694444444445e-05
1453 1453 4.3402777777777779e-05
1455 1453 1.0850694444444445e-05
1457 1453 1.0850694444444445e-05
1454 1454 4.3402777777777779e-05
1455 1454 1.0850694444444445e-05
1532 1454 1.0850694444444445e-05
1455 1455 4.3402777777777779e-05
1457 1455 1.0850694444444445e-05
1532 1455 1.0850694444444445e-05
1456 1456 4.3402777777777779e-05
1458 1456 1.0850694444444445e-05
1460 1456 1.0850694444444445e-05
1457 1457 4.3402777777777779e-05
1458 1457 1.0850694444444445e-05
1535 1457 1.0850694444444445e-05
1458 1458 4.3402777777777779e-05
1460 1458 1.0850694444444445e-05
1535 1458 1.0850694444444445e-05
1459 1459 4.3402777777777779e-05
1461 1459 1.0850694444444445e-05
1463 1459 1.0850694444444445e-05
1460 1460 4.3402777777777779e-05
1461 1460 1.0850694444444445e-05
1538 1460 1.0850694444444445e-05
1461 1461 4.3402777777777779e-05
1463 1461 1.0850694444444445e-05
1538 1461 1.0850694444444445e-05
1462 1462 4.3402777777777779e-05
1464 1462 1.0850694444444445e-05
1466 1462 1.0850694444444445e-05
1463 1463 4.3402777777777779e-05
1464 1463 1.0850694444444445e-05
1541 1463 1.0850694444444445e-05
1464 1464 4.3402777777777779e-05
1466 1464 1.0850694444444445e-05
1541 1464 1.0850694444444445e-05
1465 1465 4.3402777777777779e-05
1467 1465 1.0850694444444445e-05
1469 1465 1.0850694444444445e-05
1466 1466 4.3402777777777779e-05
1467 1466 1.0850694444444445e-05
1544 1466 1.0850694444444445e-05
1467 1467 4.3402777777777779e-05
1469 1467 1.0850694444444445e-05
1544 1467 1.0850694444444445e-05
1468 1468 4.3402777777777779e-05
1470 1468 1.0850694444444445e-05
1472 1468 1.0850694444444445e-05
1469 1469 4.3402777777777779e-05
1470 1469 1.0850694444444445e-05
1547 1469 1.0850694444444445e-05
1470 1470 4.3402777777777779e-05
1472 1470 1.0850694444444445e-05
1547 1470 1.0850694444444445e-05
1471 1471 4.3402777777777779e-05
1473 1471 1.0850694444444445e-05
1475 1471 1.0850694444444445e-05
1472 1472 4.3402777777777779e-05
1473 1472 1.0850694444444445e-05
1550 1472 1.0850694444444445e-05
1473 1473 4.3402777777777779e-05
1475 1473 1.0850694444444445e-05
1550 1473 1.0850694444444445e-05
1474 1474 4.3402777777777779e-05
1476 1474 1.0850694444444445e-05
1478 1474 1.0850694444444445e-05
1475 1475 4.3402777777777779e-05
1476 1475 1.0850694444444445e-05
1553 1475 1.0850694444444445e-05
1476 1476 4.3402777777777779e-05
1478 1476 1.0850694444444445e-05
1553 1476 1.0850694444444445e-05
1477 1477 4.3402777777777779e-05
1479 1477 1.0850694444444445e-05
1481 1477 1.0850694444444445e-05
1478 1478 4.3402777777777779e-05
1479 1478 1.0850694444444445e-05
1556 1478 1.0850694444444445e-05
1479 1479 4.3402777777777779e-05
1481 1479 1.0850694444444445e-05
1556 1479 1.0850694444444445e-05
1480 1480 4.3402777777777779e-05
1482 1480 1.0850694444444445e-05
1484 1480 1.0850694444444445e-05
1481 1481 4.3402777777777779e-05
1482 1481 1.0850694444444445e-05
1559 1481 1.0850694444444445e-05
1482 1482 4.3402777777777779e-05
1484 1482 1.0850694444444445e-05
1559 1482 1.0850694444444445e-05
1483 1483 4.3402777777777779e-05
1485 1483 1.0850694444444445e-05
1487 1483 1.0850694444444445e-05
1484 1484 4.3402777777777779e-05
1485 1484 1.0850694444444445e-05
1562 1484 1.0850694444444445e-05
1485 1485 4.3402777777777779e-05
1487 1485 1.0850694444444445e-05
1562 1485 1.0850694444444445e-05
1486 1486 4.3402777777777779e-05
1488 1486 1.0850694444444445e-05
1489 1486 1.0850694444444445e-05
1487 1487 4.3402777777777779e-05
1488 1487 1.0850694444444445e-05
1565 1487 1.0850694444444445e-05
1488 1488 4.3402777777777779e-05
1489 1488 1.0850694444444445e-05
1565 1488 1.0850694444444445e-05
1489 1489 4.3402777777777779e-05
1490 1489 1.0850694444444445e-05
1568 1489 1.0850694444444445e-05
1490 1490 4.3402777777777779e-05
1491 1490 1.0850694444444445e-05
1568 1490 1.0850694444444445e-05
1491 1491 4.3402777777777779e-05
1492 1491 1.0850694444444445e-05
1571 1491 1.0850694444444445e-05
1492 1492 4.3402777777777779e-05
1493 1492 1.0850694444444445e-05
1571 1492 1.0850694444444445e-05
1493 1493 4.3402777777777779e-05
1494 1493 1.0850694444444445e-05
1574 1493 1.0850694444444445e-05
1494 1494 4.3402777777777779e-05
1495 1494 1.0850694444444445e-05
1574 1494 1.0850694444444445e-05
1495 1495 4.3402777777777779e-05
1496 1495 1.0850694444444445e-05
1577 1495 1.0850694444444445e-05
1496 1496 4.3402777777777779e-05
1497 1496 1.0850694444444445e-05
1577 1496 1.0850694444444445e-05
1497 1497 4.3402777777777779e-05
1498 1497 1.0850694444444445e-05
1580 1497 1.0850694444444445e-05
1498 1498 4.3402777777777779e-05
1499 1498 1.0850694444444445e-05
1580 1498 1.0850694444444445e-05
1499 1499 4.3402777777777779e-05
1500 1499 1.0850694444444445e-05
1583 1499 1.0850694444444445e-05
1500 1500 4.3402777777777779e-05
1501 1500 1.0850694444444445e-05
1583 1500 1.0850694444444445e-05
1501 1501 4.3402777777777779e-05
1502 1501 1.0850694444444445e-05
1586 1501 1.0850694444444445e-05
1502 1502 4.3402777777777779e-05
1503 1502 1.0850694444444445e-05
1586 1502 1.0850694444444445e-05
1503 1503 4.3402777777777779e-05
1504 1503 1.0850694444444445e-05
1589 1503 1.0850694444444445e-05
1504 1504 4.3402777777777779e-05
1505 1504 1.0850694444444445e-05
1589 1504 1.0850694444444445e-05
1505 1505 4.3402777777777779e-05
1506 1505 1.0850694444444445e-05
1592 1505 1.0850694444444445e-05
1506 1506 4.3402777777777779e-05
1507 1506 1.0850694444444445e-05
1592 1506 1.0850694444444445e-05
1507 1507 4.3402777777777779e-05
1508 1507 1.0850694444444445e-05
1595 1507 1.0850694444444445e-05
1508 1508 4.3402777777777779e-05
1509 1508 1.0850694444444445e-05
1595 1508 1.0850694444444445e-05
1509 1509 4.3402777777777779e-05
1510 1509 1.0850694444444445e-05
1598 1509 1.0850694444444445e-05
1510 1510 4.3402777777777779e-05
1511 1510 1.0850694444444445e-05
1598 1510 1.0850694444444445e-05
1511 1511 4.3402777777777779e-05
1512 1511 1.0850694444444445e-05
1601 1511 1.0850694444444445e-05
1512 1512 4.3402777777777779e-05
1513 1512 1.0850694444444445e-05
1601 1512 1.0850694444444445e-05
1513 1513 4.3402777777777779e-05
1514 1513 1.0850694444444445e-05
1604 1513 1.0850694444444445e-05
1514 1514 4.3402777777777779e-05
1515 1514 1.0850694444444445e-05
1604 1514 1.0850694444444445e-05
1515 1515 4.3402777777777779e-05
1516 1515 1.0850694444444445e-05
1607 1515 1.0850694444444445e-05
1516 1516 4.3402777777777779e-05
1517 1516 1.0850694444444445e-05
1607 1516 1.0850694444444445e-05
1517 1517 4.3402777777777779e-05
1518 1517 1.0850694444444445e-05
1610 1517 1.0850694444444445e-05
1518 1518 4.3402777777777779e-05
1519 1518 1.0850694444444445e-05
1610 1518 1.0850694444444445e-05
1519 1519 4.3402777777777779e-05
1520 1519 1.0850694444444445e-05
1613 1519 1.0850694444444445e-05
1520 1520 4.3402777777777779e-05
1613 1520 1.0850694444444445e-05
1521 1521 4.3402777777777779e-05
1522 1521 1.0850694444444445e-05
1524 1521 1.0850694444444445e-05
1522 1522 4.3402777777777779e-05
1524 1522 1.0850694444444445e-05
1616 1522 1.0850694444444445e-05
1523 1523 4.3402777777777779e-05
1525 1523 1.0850694444444445e-05
1527 1523 1.0850694444444445e-05
1524 1524 4.3402777777777779e-05
1525 1524 1.0850694444444445e-05
1618 1524 1.0850694444444445e-05
1525 1525 4.3402777777777779e-05
1527 1525 1.0850694444444445e-05
1618 1525 1.0850694444444445e-05
1526 1526 4.3402777777777779e-05
1528 1526 1.0850694444444445e-05
1530 1526 1.0850694444444445e-05
1527 1527 4.3402777777777779e-05
1528 1527 1.0850694444444445e-05
1621 1527 1.0850694444444445e-05
1528 1528 4.3402777777777779e-05
1530 1528 1.0850694444444445e-05
1621 1528 1.0850694444444445e-05
1529 1529 4.3402777777777779e-05
1531 1529 1.0850694444444445e-05
1533 1529 1.0850694444444445e-05
1530 1530 4.3402777777777779e-05
1531 1530 1.0850694444444445e-05
1624 1530 1.0850694444444445e-05
1531 1531 4.3402777777777779e-05
1533 1531 1.0850694444444445e-05
1624 1531 1.0850694444444445e-05
1532 1532 4.3402777777777779e-05
1534 1532 1.0850694444444445e-05
1536 1532 1.0850694444444445e-05
1533 1533 4.3402777777777779e-05
1534 1533 1.0850694444444445e-05
1627 1533 1.0850694444444445e-05
1534 1534 4.3402777777777779e-05
1536 1534 1.0850694444444445e-05
1627 1534 1.0850694444444445e-05
1535 1535 4.3402777777777779e-05
1537 1535 1.0850694444444445e-05
1539 1535 1.0850694444444445e-05
1536 1536 4.3402777777777779e-05
1537 1536 1.0850694444444445e-05
1630 1536 1.0850694444444445e-05
1537 1537 4.3402777777777779e-05
1539 1537 1.0850694444444445e-05
1630 1537 1.0850694444444445e-05
1538 1538 4.3402777777777779e-05
1540 1538 1.0850694444444445e-05
1542 1538 1.0850694444444445e-05
1539 1539 4.3402777777777779e-05
1540 1539 1.0850694444444445e-05
1633 1539 1.0850694444444445e-05
1540 1540 4.3402777777777779e-05
1542 1540 1.0850694444444445e-05
1633 1540 1.0850694444444445e-05
1541 1541 4.3402777777777779e-05
1543 1541 1.0850694444444445e-05
1545 1541 1.0850694444444445e-05
1542 1542 4.3402777777777779e-05
1543 1542 1.0850694444444445e-05
1636 1542 1.0850694444444445e-05
1543 1543 4.3402777777777779e-05
1545 1543 1.0850694444444445e-05
1636 1543 1.0850694444444445e-05
1544 1544 4.3402777777777779e-05
1546 1544 1.0850694444444445e-05
1548 1544 1.0850694444444445e-05
1545 1545 4.3402777777777779e-05
1546 1545 1.0850694444444445e-05
1639 1545 1.0850694444444445e-05
1546 1546 4.3402777777777779e-05
1548 1546 1.0850694444444445e-05
1639 1546 1.0850694444444445e-05
1547 1547 4.3402777777777779e-05
1549 1547 1.0850694444444445e-05
1551 1547 1.0850694444444445e-05
1548 1548 4.3402777777777779e-05
1549 1548 1.0850694444444445e-05
1642 1548 1.0850694444444445e-05
1549 1549 4.3402777777777779e-05
1551 1549 1.0850694444444445e-05
1642 1549 1.0850694444444445e-05
1550 1550 4.3402777777777779e-05
1552 1550 1.0850694444444445e-05
1554 1550 1.0850694444444445e-05
1551 1551 4.3402777777777779e-05
1552 1551 1.0850694444444445e-05
1645 1551 1.0850694444444445e-05
1552 1552 4.3402777777777779e-05
1554 1552 1.0850694444444445e-05
1645 1552 1.0850694444444445e-05
1553 1553 4.3402777777777779e-05
1555 1553 1.0850694444444445e-05
1557 1553 1.0850694444444445e-05
1554 1554 4.3402777777777779e-05
1555 1554 1.0850694444444445e-05
1648 1554 1.0850694444444445e-05
1555 1555 4.3402777777777779e-05
1557 1555 1.0850694444444445e-05
1648 1555 1.0850694444444445e-05
1556 1556 4.3402777777777779e-05
1558 1556 1.0850694444444445e-05
1560 1556 1.0850694444444445e-05
1557 1557 4.3402777777777779e-05
1558 1557 1.0850694444444445e-05
1651 1557 1.0850694444444445e-05
1558 1558 4.3402777777777779e-05
1560 1558 1.0850694444444445e-05
1651 1558 1.0850694444444445e-05
1559 1559 4.3402777777777779e-05
1561 1559 1.0850694444444445e-05
1563 1559 1.0850694444444445e-05
1560 1560 4.3402777777777779e-05
1561 1560 1.0850694444444445e-05
1654 1560 1.0850694444444445e-05
1561 1561 4.3402777777777779e-05
1563 1561 1.0850694444444445e-05
1654 1561 1.0850694444444445e-05
1562 1562 4.3402777777777779e-05
1564 1562 1.0850694444444445e-05
1566 1562 1.0850694444444445e-05
1563 1563 4.3402777777777779e-05
1564 1563 1.0850694444444445e-05
1657 1563 1.0850694444444445e-05
1564 1564 4.3402777777777779e-05
1566 1564 1.0850694444444445e-05
1657 1564 1.0850694444444445e-05
1565 1565 4.3402777777777779e-05
1567 1565 1.0850694444444445e-05
1569 1565 1.0850694444444445e-05
1566 1566 4.3402777777777779e-05
1567 1566 1.0850694444444445e-05
1660 1566 1.0850694444444445e-05
1567 1567 4.3402777777777779e-05
1569 1567 1.0850694444444445e-05
1660 1567 1.0850694444444445e-05
1568 1568 4.3402777777777779e-05
1570 1568 1.0850694444444445e-05
1572 1568 1.0850694444444445e-05
1569 1569 4.3402777777777779e-05
1570 1569 1.0850694444444445e-05
1663 1569 1.0850694444444445e-05
1570 1570 4.3402777777777779e-05
1572 1570 1.0850694444444445e-05
1663 1570 1.0850694444444445e-05
1571 1571 4.3402777777777779e-05
1573 1571 1.0850694444444445e-05
1575 1571 1.0850694444444445e-05
1572 1572 4.3402777777777779e-05
1573 1572 1.0850694444444445e-05
1666 1572 1.0850694444444445e-05
1573 1573 4.3402777777777779e-05
1575 1573 1.0850694444444445e-05
1666 1573 1.0850694444444445e-05
1574 1574 4.3402777777777779e-05
1576 1574 1.0850694444444445e-05
1578 1574 1.0850694444444445e-05
1575 1575 4.3402777777777779e-05
1576 1575 1.0850694444444445e-05
1669 1575 1.0850694444444445e-05
1576 1576 4.3402777777777779e-05
1578 1576 1.0850694444444445e-05
1669 1576 1.0850694444444445e-05
1577 1577 4.3402777777777779e-05
1579 1577 1.0850694444444445e-05
1581 1577 1.0850694444444445e-05
1578 1578 4.3402777777777779e-05
1579 1578 1.0850694444444445e-05
1672 1578 1.0850694444444445e-05
1579 1579 4.3402777777777779e-05
1581 1579 1.0850694444444445e-05
1672 1579 1.0850694444444445e-05
1580 1580 4.3402777777777779e-05
1582 1580 1.0850694444444445e-05
1584 1580 1.0850694444444445e-05
1581 1581 4.3402777777777779e-05
1582 1581 1.0850694444444445e-05
1675 1581 1.0850694444444445e-05
1582 1582 4.3402777777777779e-05
1584 1582 1.0850694444444445e-05
1675 1582 1.0850694444444445e-05
1583 1583 4.3402777777777779e-05
1585 1583 1.0850694444444445e-05
1587 1583 1.0850694444444445e-05
1584 1584 4.3402777777777779e-05
1585 1584 1.0850694444444445e-05
1678 1584 1.0850694444444445e-05
1585 1585 4.3402777777777779e-05
1587 1585 1.0850694444444445e-05
1678 1585 1.0850694444444445e-05
1586 1586 4.3402777777777779e-05
1588 1586 1.0850694444444445e-05
1590 1586 1.0850694444444445e-05
1587 1587 4.3402777777777779e-05
1588 1587 1.0850694444444445e-05
1681 1587 1.0850694444444445e-05
1588 1588 4.3402777777777779e-05
1590 1588 1.0850694444444445e-05
1681 1588 1.0850694444444445e-05
1589 1589 4.3402777777777779e-05
1591 1589 1.0850694444444445e-05
1593 1589 1.0850694444444445e-05
1590 1590 4.3402777777777779e-05
1591 1590 1.0850694444444445e-05
1684 1590 1.0850694444444445e-05
1591 1591 4.3402777777777779e-05
1593 1591 1.0850694444444445e-05
1684 1591 1.0850694444444445e-05
1592 1592 4.3402777777777779e-05
1594 1592 1.0850694444444445e-05
1596 1592 1.0850694444444445e-05
1593 1593 4.3402777777777779e-05
1594 1593 1.0850694444444445e-05
1687 1593 1.0850694444444445e-05
1594 1594 4.3402777777777779e-05
1596 1594 1.0850694444444445e-05
1687 1594 1.0850694444444445e-05
1595 1595 4.3402777777777779e-05
1597 1595 1.0850694444444445e-05
1599 1595 1.0850694444444445e-05
1596 1596 4.3402777777777779e-05
1597 1596 1.0850694444444445e-05
1690 1596 1.0850694444444445e-05
1597 1597 4.3402777777777779e-05
1599 1597 1.0850694444444445e-05
1690 1597 1.0850694444444445e-05
1598 1598 4.3402777777777779e-05
1600 1598 1.0850694444444445e-05
1602 1598 1.0850694444444445e-05
1599 1599 4.3402777777777779e-05
1600 1599 1.0850694444444445e-05
1693 1599 1.0850694444444445e-05
1600 1600 4.3402777777777779e-05
1602 1600 1.0850694444444445e-05
1693 1600 1.0850694444444445e-05
1601 1601 4.3402777777777779e-05
1603 1601 1.0850694444444445e-05
1605 1601 1.0850694444444445e-05
1602 1602 4.3402777777777779e-05
1603 1602 1.0850694444444445e-05
1696 1602 1.0850694444444445e-05
1603 1603 4.3402777777777779e-05
1605 1603 1.0850694444444445e-05
1696 1603 1.0850694444444445e-05
1604 1604 4.3402777777777779e-05
1606 1604 1.0850694444444445e-05
1608 1604 1.0850694444444445e-05
1605 1605 4.3402777777777779e-05
1606 1605 1.0850694444444445e-05
1699 1605 1.0850694444444445e-05
1606 1606 4.3402777777777779e-05
1608 1606 1.0850694444444445e-05
1699 1606 1.0850694444444445e-05
1607 1607 4.3402777777777779e-05
1609 1607 1.0850694444444445e-05
1611 1607 1.0850694444444445e-05
1608 1608 4.3402777777777779e-05
1609 1608 1.0850694444444445e-05
1702 1608 1.0850694444444445e-05
1609 1609 4.3402777777777779e-05
1611 1609 1.0850694444444445e-05
1702 1609 1.0850694444444445e-05
1610 1610 4.3402777777777779e-05
1612 1610 1.0850694444444445e-05
1614 1610 1.0850694444444445e-05
1611 1611 4.3402777777777779e-05
1612 1611 1.0850694444444445e-05
1705 1611 1.0850694444444445e-05
1612 1612 4.3402777777777779e-05
1614 1612 1.0850694444444445e-05
1705 1612 1.0850694444444445e-05
1613 1613 4.3402777777777779e-05
1615 1613 1.0850694444444445e-05
1614 1614 4.3402777777777779e-05
1615 1614 1.0850694444444445e-05
1708 1614 1.0850694444444445e-05
1615 1615 4.3402777777777779e-05
1708 1615 1.0850694444444445e-05
1616 1616 4.3402777777777779e-05
1617 1616 1.0850694444444445e-05
1619 1616 1.0850694444444445e-05
1617 1617 4.3402777777777779e-05
1619 1617 1.0850694444444445e-05
1711 1617 1.0850694444444445e-05
1618 1618 4.3402777777777779e-05
1620 1618 1.0850694444444445e-05
1622 1618 1.0850694444444445e-05
1619 1619 4.3402777777777779e-05
1620 1619 1.0850694444444445e-05
1713 1619 1.0850694444444445e-05
1620 1620 4.3402777777777779e-05
1622 1620 1.0850694444444445e-05
1713 1620 1.0850694444444445e-05
1621 1621 4.3402777777777779e-05
1623 1621 1.0850694444444445e-05
1625 1621 1.0850694444444445e-05
1622 1622 4.3402777777777779e-05
1623 1622 1.0850694444444445e-05
1716 1622 1.0850694444444445e-05
1623 1623 4.3402777777777779e-05
1625 1623 1.0850694444444445e-05
1716 1623 1.0850694444444445e-05
1624 1624 4.3402777777777779e-05
1626 1624 1.0850694444444445e-05
1628 1624 1.0850694444444445e-05
1625 1625 4.3402777777777779e-05
1626 1625 1.0850694444444445e-05
1719 1625 1.0850694444444445e-05
1626 1626 4.3402777777777779e-05
1628 1626 1.0850694444444445e-05
1719 1626 1.0850694444444445e-05
1627 1627 4.3402777777777779e-05
1629 1627 1.0850694444444445e-05
1631 1627 1.0850694444444445e-05
1628 1628 4.3402777777777779e-05
1629 1628 1.0850694444444445e-05
1722 1628 1.0850694444444445e-05
1629 1629 4.3402777777777779e-05
1631 1629 1.0850694444444445e-05
1722 1629 1.0850694444444445e-05
1630 1630 4.3402777777777779e-05
1632 1630 1.0850694444444445e-05
1634 1630 1.0850694444444445e-05
1631 1631 4.3402777777777779e-05
1632 1631 1.0850694444444445e-05
1725 1631 1.0850694444444445e-05
1632 1632 4.3402777777777779e-05
1634 1632 1.0850694444444445e-05
1725 1632 1.0850694444444445e-05
1633 1633 4.3402777777777779e-05
1635 1633 1.0850694444444445e-05
1637 1633 1.0850694444444445e-05
1634 1634 4.3402777777777779e-05
1635 1634 1.0850694444444445e-05
1728 1634 1.0850694444444445e-05
1635 1635 4.3402777777777779e-05
1637 1635 1.0850694444444445e-05
1728 1635 1.0850694444444445e-05
1636 1636 4.3402777777777779e-05
1638 1636 1.0850694444444445e-05
1640 1636 1.0850694444444445e-05
1637 1637 4.3402777777777779e-05
1638 1637 1.0850694444444445e-05
1731 1637 1.0850694444444445e-05
1638 1638 4.3402777777777779e-05
1640 1638 1.0850694444444445e-05
1731 1638 1.0850694444444445e-05
1639 1639 4.3402777777777779e-05
1641 1639 1.0850694444444445e-05
1643 1639 1.0850694444444445e-05
1640 1640 4.3402777777777779e-05
1641 1640 1.0850694444444445e-05
1734 1640 1.0850694444444445e-05
1641 1641 4.3402777777777779e-05
1643 1641 1.0850694444444445e-05
1734 1641 1.0850694444444445e-05
1642 1642 4.3402777777777779e-05
1644 1642 1.0850694444444445e-05
1646 1642 1.0850694444444445e-05
1643 1643 4.3402777777777779e-05
1644 1643 1.0850694444444445e-05
1737 1643 1.0850694444444445e-05
1644 1644 4.3402777777777779e-05
1646 1644 1.0850694444444445e-05
1737 1644 1.0850694444444445e-05
1645 1645 4.3402777777777779e-05
1647 1645 1.0850694444444445e-05
1649 1645 1.0850694444444445e-05
1646 1646 4.3402777777777779e-05
1647 1646 1.0850694444444445e-05
1740 1646 1.0850694444444445e-05
1647 1647 4.3402777777777779e-05
1649 1647 1.0850694444444445e-05
1740 1647 1.0850694444444445e-05
1648 1648 4.3402777777777779e-05
1650 1648 1.0850694444444445e-05
1652 1648 1.0850694444444445e-05
1649 1649 4.3402777777777779e-05
1650 1649 1.0850694444444445e-05
1743 1649 1.0850694444444445e-05
1650 1650 4.3402777777777779e-05
1652 1650 1.0850694444444445e-05
1743 1650 1.0850694444444445e-05
1651 1651 4.3402777777777779e-05
1653 1651 1.0850694444444445e-05
1655 1651 1.0850694444444445e-05
1652 1652 4.3402777777777779e-05
1653 1652 1.0850694444444445e-05
1746 1652 1.0850694444444445e-05
1653 1653 4.3402777777777779e-05
1655 1653 1.0850694444444445e-05
1746 1653 1.0850694444444445e-05
1654 1654 4.3402777777777779e-05
1656 1654 1.0850694444444445e-05
1658 1654 1.0850694444444445e-05
1655 1655 4.3402777777777779e-05
1656 1655 1.0850694444444445e-05
1749 1655 1.0850694444444445e-05
1656 1656 4.3402777777777779e-05
1658 1656 1.0850694444444445e-05
1749 1656 1.0850694444444445e-05
1657 1657 4.3402777777777779e-05
1659 1657 1.0850694444444445e-05
1661 1657 1.0850694444444445e-05
1658 1658 4.3402777777777779e-05
1659 1658 1.0850694444444445e-05
1752 1658 1.0850694444444445e-05
1659 1659 4.3402777777777779e-05
1661 1659 1.0850694444444445e-05
1752 1659 1.0850694444444445e-05
1660 1660 4.3402777777777779e-05
1662 1660 1.0850694444444445e-05
1664 1660 1.0850694444444445e-05
1661 1661 4.3402777777777779e-05
1662 1661 1.0850694444444445e-05
1755 1661 1.0850694444444445e-05
1662 1662 4.3402777777777779e-05
1664 1662 1.0850694444444445e-05
1755 1662 1.0850694444444445e-05
1663 1663 4.3402777777777779e-05
1665 1663 1.0850694444444445e-05
1667 1663 1.0850694444444445e-05
1664 1664 4.3402777777777779e-05
1665 1664 1.0850694444444445e-05
1758 1664 1.0850694444444445e-05
1665 1665 4.3402777777777779e-05
1667 1665 1.0850694444444445e-05
1758 1665 1.0850694444444445e-05
1666 1666 4.3402777777777779e-05
1668 1666 1.0850694444444445e-05
1670 1666 1.0850694444444445e-05
1667 1667 4.3402777777777779e-05
1668 1667 1.0850694444444445e-05
1761 1667 1.0850694444444445e-05
1668 1668 4.3402777777777779e-05
1670 1668 1.0850694444444445e-05
1761 1668 1.0850694444444445e-05
1669 1669 4.3402777777777779e-05
1671 1669 1.0850694444444445e-05
1673 1669 1.0850694444444445e-05
1670 1670 4.3402777777777779e-05
1671 1670 1.0850694444444445e-05
1764 1670 1.0850694444444445e-05
1671 1671 4.3402777777777779e-05
1673 1671 1.0850694444444445e-05
1764 1671 1.0850694444444445e-05
1672 1672 4.3402777777777779e-05
1674 1672 1.0850694444444445e-05
1676 1672 1.0850694444444445e-05
1673 1673 4.3402777777777779e-05
1674 1673 1.0850694444444445e-05
1767 1673 1.0850694444444445e-05
1674 1674 4.3402777777777779e-05
1676 1674 1.0850694444444445e-05
1767 1674 1.0850694444444445e-05
1675 1675 4.3402777777777779e-05
1677 1675 1.0850694444444445e-05
1679 1675 1.0850694444444445e-05
1676 1676 4.3402777777777779e-05
1677 1676 1.0850694444444445e-05
1770 1676 1.0850694444444445e-05
1677 1677 4.3402777777777779e-05
1679 1677 1.0850694444444445e-05
1770 1677 1.0850694444444445e-05
1678 1678 4.3402777777777779e-05
1680 1678 1.0850694444444445e-05
1682 1678 1.0850694444444445e-05
1679 1679 4.3402777777777779e-05
1680 1679 1.0850694444444445e-05
1773 1679 1.0850694444444445e-05
1680 1680 4.3402777777777779e-05
1682 1680 1.0850694444444445e-05
1773 1680 1.0850694444444445e-05
1681 1681 4.3402777777777779e-05
1683 1681 1.0850694444444445e-05
1685 1681 1.0850694444444445e-05
1682 1682 4.3402777777777779e-05
1683 1682 1.0850694444444445e-05
1776 1682 1.0850694444444445e-05
1683 1683 4.3402777777777779e-05
1685 1683 1.0850694444444445e-05
1776 1683 1.0850694444444445e-05
1684 1684 4.3402777777777779e-05
1686 1684 1.0850694444444445e-05
1688 1684 1.0850694444444445e-05
1685 1685 4.3402777777777779e-05
1686 1685 1.0850694444444445e-05
1779 1685 1.0850694444444445e-05
1686 1686 4.3402777777777779e-05
1688 1686 1.0850694444444445e-05
1779 1686 1.0850694444444445e-05
1687 1687 4.3402777777777779e-05
1689 1687 1.0850694444444445e-05
1691 1687 1.0850694444444445e-05
1688 1688 4.3402777777777779e-05
1689 1688 1.0850694444444445e-05
1782 1688 1.0850694444444445e-05
1689 1689 4.3402777777777779e-05
1691 1689 1.0850694444444445e-05
1782 1689 1.0850694444444445e-05
1690 1690 4.3402777777777779e-05
1692 1690 1.0850694444444445e-05
1694 1690 1.0850694444444445e-05
1691 1691 4.3402777777777779e-05
1692 1691 1.0850694444444445e-05
1785 1691 1.0850694444444445e-05
1692 1692 4.3402777777777779e-05
1694 1692 1.0850694444444445e-05
1785 1692 1.0850694444444445e-05
1693 1693 4.3402777777777779e-05
1695 1693 1.0850694444444445e-05
1697 1693 1.0850694444444445e-05
1694 1694 4.3402777777777779e-05
1695 1694 1.0850694444444445e-05
1788 1694 1.0850694444444445e-05
1695 1695 4.3402777777777779e-05
1697 1695 1.0850694444444445e-05
1788 1695 1.0850694444444445e-05
1696 1696 4.3402777777777779e-05
1698 1696 1.0850694444444445e-05
1700 1696 1.0850694444444445e-05
1697 1697 4.3402777777777779e-05
1698 1697 1.0850694444444445e-05
1791 1697 1.0850694444444445e-05
1698 1698 4.3402777777777779e-05
1700 1698 1.0850694444444445e-05
1791 1698 1.0850694444444445e-05
1699 1699 4.3402777777777779e-05
1701 1699 1.0850694444444445e-05
1703 1699 1.0850694444444445e-05
1700 1700 4.3402777777777779e-05
1701 1700 1.0850694444444445e-05
1794 1700 1.0850694444444445e-05
1701 1701 4.3402777777777779e-05
1703 1701 1.0850694444444445e-05
1794 1701 1.0850694444444445e-05
1702 1702 4.3402777777777779e-05
1704 1702 1.0850694444444445e-05
1706 1702 1.0850694444444445e-05
1703 1703 4.3402777777777779e-05
1704 1703 1.0850694444444445e-05
1797 1703 1.0850694444444445e-05
1704 1704 4.3402777777777779e-05
1706 1704 1.0850694444444445e-05
1797 1704 1.0850694444444445e-05
1705 1705 4.3402777777777779e-05
1707 1705 1.0850694444444445e-05
1709 1705 1.0850694444444445e-05
1706 1706 4.3402777777777779e-05
1707 1706 1.0850694444444445e-05
1800 1706 1.0850694444444445e-05
1707 1707 4.3402777777777779e-05
1709 1707 1.0850694444444445e-05
1800 1707 1.0850694444444445e-05
1708 1708 4.3402777777777779e-05
1710 1708 1.0850694444444445e-05
1709 1709 4.3402777777777779e-05
1710 1709 1.0850694444444445e-05
1803 1709 1.0850694444444445e-05
1710 1710 4.3402777777777779e-05
1803 1710 1.0850694444444445e-05
1711 1711 4.3402777777777779e-05
1712 1711 1.0850694444444445e-05
1714 1711 1.0850694444444445e-05
1712 1712 4.3402777777777779e-05
1714 1712 1.0850694444444445e-05
1806 1712 1.0850694444444445e-05
1713 1713 4.3402777777777779e-05
1715 1713 1.0850694444444445e-05
1717 1713 1.0850694444444445e-05
1714 1714 4.3402777777777779e-05
1715 1714 1.0850694444444445e-05
1808 1714 1.0850694444444445e-05
1715 1715 4.3402777777777779e-05
1717 1715 1.0850694444444445e-05
1808 1715 1.0850694444444445e-05
1716 1716 4.3402777777777779e-05
1718 1716 1.0850694444444445e-05
1720 1716 1.0850694444444445e-05
1717 1717 4.3402777777777779e-05
1718 1717 1.0850694444444445e-05
1811 1717 1.0850694444444445e-05
1718 1718 4.3402777777777779e-05
1720 1718 1.0850694444444445e-05
1811 1718 1.0850694444444445e-05
1719 1719 4.3402777777777779e-05
1721 1719 1.0850694444444445e-05
1723 1719 1.0850694444444445e-05
1720 1720 4.3402777777777779e-05
1721 1720 1.0850694444444445e-05
1814 1720 1.0850694444444445e-05
1721 1721 4.3402777777777779e-05
1723 1721 1.0850694444444445e-05
1814 1721 1.0850694444444445e-05
1722 1722 4.3402777777777779e-05
1724 1722 1.0850694444444445e-05
1726 1722 1.0850694444444445e-05
1723 1723 4.3402777777777779e-05
1724 1723 1.0850694444444445e-05
1817 1723 1.0850694444444445e-05
1724 1724 4.3402777777777779e-05
1726 1724 1.0850694444444445e-05
1817 1724 1.0850694444444445e-05
1725 1725 4.3402777777777779e-05
1727 1725 1.0850694444444445e-05
1729 1725 1.0850694444444445e-05
1726 1726 4.3402777777777779e-05
1727 1726 1.0850694444444445e-05
1820 1726 1.0850694444444445e-05
1727 1727 4.3402777777777779e-05
1729 1727 1.0850694444444445e-05
1820 1727 1.0850694444444445e-05
1728 1728 4.3402777777777779e-05
1730 1728 1.0850694444444445e-05
1732 1728 1.0850694444444445e-05
1729 1729 4.3402777777777779e-05
1730 1729 1.0850694444444445e-05
1823 1729 1.0850694444444445e-05
1730 1730 4.3402777777777779e-05
1732 1730 1.0850694444444445e-05
1823 1730 1.0850694444444445e-05
1731 1731 4.3402777777777779e-05
1733 1731 1.0850694444444445e-05
1735 1731 1.0850694444444445e-05
1732 1732 4.3402777777777779e-05
1733 1732 1.0850694444444445e-05
1826 1732 1.0850694444444445e-05
1733 1733 4.3402777777777779e-05
1735 1733 1.0850694444444445e-05
1826 1733 1.0850694444444445e-05
1734 1734 4.3402777777777779e-05
1736 1734 1.0850694444444445e-05
1738 1734 1.0850694444444445e-05
1735 1735 4.3402777777777779e-05
1736 1735 1.0850694444444445e-05
1829 1735 1.0850694444444445e-05
1736 1736 4.3402777777777779e-05
1738 1736 1.0850694444444445e-05
1829 1736 1.0850694444444445e-05
1737 1737 4.3402777777777779e-05
1739 1737 1.0850694444444445e-05
1741 1737 1.0850694444444445e-05
1738 1738 4.3402777777777779e-05
1739 1738 1.0850694444444445e-05
1832 1738 1.0850694444444445e-05
1739 1739 4.3402777777777779e-05
1741 1739 1.0850694444444445e-05
1832 1739 1.0850694444444445e-05
1740 1740 4.3402777777777779e-05
1742 1740 1.0850694444444445e-05
1744 1740 1.0850694444444445e-05
1741 1741 4.3402777777777779e-05
1742 1741 1.0850694444444445e-05
1835 1741 1.0850694444444445e-05
1742 1742 4.3402777777777779e-05
1744 1742 1.0850694444444445e-05
1835 1742 1.0850694444444445e-05
1743 1743 4.3402777777777779e-05
1745 1743 1.0850694444444445e-05
1747 1743 1.0850694444444445e-05
1744 1744 4.3402777777777779e-05
1745 1744 1.0850694444444445e-05
1838 1744 1.0850694444444445e-05
1745 1745 4.3402777777777779e-05
1747 1745 1.0850694444444445e-05
1838 1745 1.0850694444444445e-05
1746 1746 4.3402777777777779e-05
1748 1746 1.0850694444444445e-05
1750 1746 1.0850694444444445e-05
1747 1747 4.3402777777777779e-05
1748 1747 1.0850694444444445e-05
1841 1747 1.0850694444444445e-05
1748 1748 4.3402777777777779e-05
1750 1748 1.0850694444444445e-05
1841 1748 1.0850694444444445e-05
1749 1749 4.3402777777777779e-05
1751 1749 1.0850694444444445e-05
1753 1749 1.0850694444444445e-05
1750 1750 4.3402777777777779e-05
1751 1750 1.0850694444444445e-05
1844 1750 1.0850694444444445e-05
1751 1751 4.3402777777777779e-05
1753 1751 1.0850694444444445e-05
1844 1751 1.0850694444444445e-05
1752 1752 4.3402777777777779e-05
1754 1752 1.0850694444444445e-05
1756 1752 1.0850694444444445e-05
1753 1753 4.3402777777777779e-05
1754 1753 1.0850694444444445e-05
1847 1753 1.0850694444444445e-05
1754 1754 4.3402777777777779e-05
1756 1754 1.0850694444444445e-05
1847 1754 1.0850694444444445e-05
1755 1755 4.3402777777777779e-05
1757 1755 1.0850694444444445e-05
1759 1755 1.0850694444444445e-05
1756 1756 4.3402777777777779e-05
1757 1756 1.0850694444444445e-05
1850 1756 1.0850694444444445e-05
1757 1757 4.3402777777777779e-05
1759 1757 1.0850694444444445e-05
1850 1757 1.0850694444444445e-05
1758 1758 4.3402777777777779e-05
1760 1758 1.0850694444444445e-05
1762 1758 1.0850694444444445e-05
1759 1759 4.3402777777777779e-05
1760 1759 1.0850694444444445e-05
1853 1759 1.0850694444444445e-05
1760 1760 4.3402777777777779e-05
1762 1760 1.0850694444444445e-05
1853 1760 1.0850694444444445e-05
1761 1761 4.3402777777777779e-05
1763 1761 1.0850694444444445e-05
1765 1761 1.0850694444444445e-05
1762 1762 4.3402777777777779e-05
1763 1762 1.0850694444444445e-05
1856 1762 1.0850694444444445e-05
1763 1763 4.3402777777777779e-05
1765 1763 1.0850694444444445e-05
1856 1763 1.0850694444444445e-05
1764 1764 4.3402777777777779e-05
1766 1764 1.0850694444444445e-05
1768 1764 1.0850694444444445e-05
1765 1765 4.3402777777777779e-05
1766 1765 1.0850694444444445e-05
1859 1765 1.0850694444444445e-05
1766 1766 4.3402777777777779e-05
1768 1766 1.0850694444444445e-05
1859 1766 1.0850694444444445e-05
1767 1767 4.3402777777777779e-05
1769 1767 1.0850694444444445e-05
1771 1767 1.0850694444444445e-05
1768 1768 4.3402777777777779e-05
1769 1768 1.0850694444444445e-05
1862 1768 1.0850694444444445e-05
1769 1769 4.3402777777777779e-05
1771 1769 1.0850694444444445e-05
1862 1769 1.0850694444444445e-05
1770 1770 4.3402777777777779e-05
1772 1770 1.0850694444444445e-05
1774 1770 1.0850694444444445e-05
1771 1771 4.3402777777777779e-05
1772 1771 1.0850694444444445e-05
1865 1771 1.0850694444444445e-05
1772 1772 4.3402777777777779e-05
1774 1772 1.0850694444444445e-05
1865 1772 1.0850694444444445e-05
1773 1773 4.3402777777777779e-05
1775 1773 1.0850694444444445e-05
1777 1773 1.0850694444444445e-05
1774 1774 4.3402777777777779e-05
1775 1774 1.0850694444444445e-05
1868 1774 1.0850694444444445e-05
1775 1775 4.3402777777777779e-05
1777 1775 1.0850694444444445e-05
1868 1775 1.0850694444444445e-05
1776 1776 4.3402777777777779e-05
1778 1776 1.0850694444444445e-05
1780 1776 1.0850694444444445e-05
1777 1777 4.3402777777777779e-05
1778 1777 1.0850694444444445e-05
1871 1777 1.0850694444444445e-05
1778 1778 4.3402777777777779e-05
1780 1778 1.0850694444444445e-05
1871 1778 1.0850694444444445e-05
1779 1779 4.3402777777777779e-05
1781 1779 1.0850694444444445e-05
1783 1779 1.0850694444444445e-05
1780 1780 4.3402777777777779e-05
1781 1780 1.0850694444444445e-05
1874 1780 1.0850694444444445e-05
1781 1781 4.3402777777777779e-05
1783 1781 1.0850694444444445e-05
1874 1781 1.0850694444444445e-05
1782 1782 4.3402777777777779e-05
1784 1782 1.0850694444444445e-05
1786 1782 1.0850694444444445e-05
1783 1783 4.3402777777777779e-05
1784 1783 1.0850694444444445e-05
1877 1783 1.0850694444444445e-05
1784 1784 4.3402777777777779e-05
1786 1784 1.0850694444444445e-05
1877 1784 1.0850694444444445e-05
1785 1785 4.3402777777777779e-05
1787 1785 1.0850694444444445e-05
1789 1785 1.0850694444444445e-05
1786 1786 4.3402777777777779e-05
1787 1786 1.0850694444444445e-05
1880 1786 1.0850694444444445e-05
1787 1787 4.3402777777777779e-05
1789 1787 1.0850694444444445e-05
1880 1787 1.0850694444444445e-05
1788 1788 4.3402777777777779e-05
1790 1788 1.0850694444444445e-05
1792 1788 1.0850694444444445e-05
1789 1789 4.3402777777777779e-05
1790 1789 1.0850694444444445e-05
1883 1789 1.0850694444444445e-05
1790 1790 4.3402777777777779e-05
1792 1790 1.0850694444444445e-05
1883 1790 1.0850694444444445e-05
1791 1791 4.3402777777777779e-05
1793 1791 1.0850694444444445e-05
1795 1791 1.0850694444444445e-05
1792 1792 4.3402777777777779e-05
1793 1792 1.0850694444444445e-05
1886 1792 1.0850694444444445e-05
1793 1793 4.3402777777777779e-05
1795 1793 1.0850694444444445e-05
1886 1793 1.0850694444444445e-05
1794 1794 4.3402777777777779e-05
1796 1794 1.0850694444444445e-05
1798 1794 1.0850694444444445e-05
1795 1795 4.3402777777777779e-05
1796 1795 1.0850694444444445e-05
1889 1795 1.0850694444444445e-05
1796 1796 4.3402777777777779e-05
1798 1796 1.0850694444444445e-05
1889 1796 1.0850694444444445e-05
1797 1797 4.3402777777777779e-05
1799 1797 1.0850694444444445e-05
1801 1797 1.0850694444444445e-05
1798 1798 4.3402777777777779e-05
1799 1798 1.0850694444444445e-05
1892 1798 1.0850694444444445e-05
1799 1799 4.3402777777777779e-05
1801 1799 1.0850694444444445e-05
1892 1799 1.0850694444444445e-05
1800 1800 4.3402777777777779e-05
1802 1800 1.0850694444444445e-05
1804 1800 1.0850694444444445e-05
1801 1801 4.3402777777777779e-05
1802 1801 1.0850694444444445e-05
1895 1801 1.0850694444444445e-05
1802 1802 4.3402777777777779e-05
1804 1802 1.0850694444444445e-05
1895 1802 1.0850694444444445e-05
1803 1803 4.3402777777777779e-05
1805 1803 1.0850694444444445e-05
1804 1804 4.3402777777777779e-05
1805 1804 1.0850694444444445e-05
1898 1804 1.0850694444444445e-05
1805 1805 4.3402777777777779e-05
1898 1805 1.0850694444444445e-05
1806 1806 4.3402777777777779e-05
1807 1806 1.0850694444444445e-05
1809 1806 1.0850694444444445e-05
1807 1807 4.3402777777777779e-05
1809 1807 1.0850694444444445e-05
1901 1807 1.0850694444444445e-05
1808 1808 4.3402777777777779e-05
1810 1808 1.0850694444444445e-05
1812 1808 1.0850694444444445e-05
1809 1809 4.3402777777777779e-05
1810 1809 1.0850694444444445e-05
1903 1809 1.0850694444444445e-05
1810 1810 4.3402777777777779e-05
1812 1810 1.0850694444444445e-05
1903 1810 1.0850694444444445e-05
1811 1811 4.3402777777777779e-05
1813 1811 1.0850694444444445e-05
1815 1811 1.0850694444444445e-05
1812 1812 4.3402777777777779e-05
1813 1812 1.0850694444444445e-05
1906 1812 1.0850694444444445e-05
1813 1813 4.3402777777777779e-05
1815 1813 1.0850694444444445e-05
1906 1813 1.0850694444444445e-05
1814 1814 4.3402777777777779e-05
1816 1814 1.0850694444444445e-05
1818 1814 1.0850694444444445e-05
1815 1815 4.3402777777777779e-05
1816 1815 1.0850694444444445e-05
1909 1815 1.0850694444444445e-05
1816 1816 4.3402777777777779e-05
1818 1816 1.0850694444444445e-05
1909 1816 1.0850694444444445e-05
1817 1817 4.3402777777777779e-05
1819 1817 1.0850694444444445e-05
1821 1817 1.0850694444444445e-05
1818 1818 4.3402777777777779e-05
1819 1818 1.0850694444444445e-05
1912 1818 1.0850694444444445e-05
1819 1819 4.3402777777777779e-05
1821 1819 1.0850694444444445e-05
1912 1819 1.0850694444444445e-05
1820 1820 4.3402777777777779e-05
1822 1820 1.0850694444444445e-05
1824 1820 1.0850694444444445e-05
1821 1821 4.3402777777777779e-05
1822 1821 1.0850694444444445e-05
1915 1821 1.0850694444444445e-05
1822 1822 4.3402777777777779e-05
1824 1822 1.0850694444444445e-05
1915 1822 1.0850694444444445e-05
1823 1823 4.3402777777777779e-05
1825 1823 1.0850694444444445e-05
1827 1823 1.0850694444444445e-05
1824 1824 4.3402777777777779e-05
1825 1824 1.0850694444444445e-05
1918 1824 1.0850694444444445e-05
1825 1825 4.3402777777777779e-05
1827 1825 1.0850694444444445e-05
1918 1825 1.0850694444444445e-05
1826 1826 4.3402777777777779e-05
1828 1826 1.0850694444444445e-05
1830 1826 1.0850694444444445e-05
1827 1827 4.3402777777777779e-05
1828 1827 1.0850694444444445e-05
1921 1827 1.0850694444444445e-05
1828 1828 4.3402777777777779e-05
1830 1828 1.0850694444444445e-05
1921 1828 1.0850694444444445e-05
1829 1829 4.3402777777777779e-05
1831 1829 1.0850694444444445e-05
1833 1829 1.0850694444444445e-05
1830 1830 4.3402777777777779e-05
1831 1830 1.0850694444444445e-05
1924 1830 1.0850694444444445e-05
1831 1831 4.3402777777777779e-05
1833 1831 1.0850694444444445e-05
1924 1831 1.0850694444444445e-05
1832 1832 4.3402777777777779e-05
1834 1832 1.0850694444444445e-05
1836 1832 1.0850694444444445e-05
1833 1833 4.3402777777777779e-05
1834 1833 1.0850694444444445e-05
1927 1833 1.0850694444444445e-05
1834 1834 4.3402777777777779e-05
1836 1834 1.0850694444444445e-05
1927 1834 1.0850694444444445e-05
1835 1835 4.3402777777777779e-05
1837 1835 1.0850694444444445e-05
1839 1835 1.0850694444444445e-05
1836 1836 4.3402777777777779e-05
1837 1836 1.0850694444444445e-05
1930 1836 1.0850694444444445e-05
1837 1837 4.3402777777777779e-05
1839 1837 1.0850694444444445e-05
1930 1837 1.0850694444444445e-05
1838 1838 4.3402777777777779e-05
1840 1838 1.0850694444444445e-05
1842 1838 1.0850694444444445e-05
1839 1839 4.3402777777777779e-05
1840 1839 1.0850694444444445e-05
1933 1839 1.0850694444444445e-05
1840 1840 4.3402777777777779e-05
1842 1840 1.0850694444444445e-05
1933 1840 1.0850694444444445e-05
1841 1841 4.3402777777777779e-05
1843 1841 1.0850694444444445e-05
1845 1841 1.0850694444444445e-05
1842 1842 4.3402777777777779e-05
1843 1842 1.0850694444444445e-05
1936 1842 1.0850694444444445e-05
1843 1843 4.3402777777777779e-05
1845 1843 1.0850694444444445e-05
1936 1843 1.0850694444444445e-05
1844 1844 4.3402777777777779e-05
1846 1844 1.0850694444444445e-05
1848 1844 1.0850694444444445e-05
1845 1845 4.3402777777777779e-05
1846 1845 1.0850694444444445e-05
1939 1845 1.0850694444444445e-05
1846 1846 4.3402777777777779e-05
1848 1846 1.0850694444444445e-05
1939 1846 1.0850694444444445e-05
1847 1847 4.3402777777777779e-05
1849 1847 1.0850694444444445e-05
1851 1847 1.0850694444444445e-05
1848 1848 4.3402777777777779e-05
1849 1848 1.0850694444444445e-05
1942 1848 1.0850694444444445e-05
1849 1849 4.3402777777777779e-05
1851 1849 1.0850694444444445e-05
1942 1849 1.0850694444444445e-05
1850 1850 4.3402777777777779e-05
1852 1850 1.0850694444444445e-05
1854 1850 1.0850694444444445e-05
1851 1851 4.3402777777777779e-05
1852 1851 1.0850694444444445e-05
1945 1851 1.0850694444444445e-05
1852 1852 4.3402777777777779e-05
1854 1852 1.0850694444444445e-05
1945 1852 1.0850694444444445e-05
1853 1853 4.3402777777777779e-05
1855 1853 1.0850694444444445e-05
1857 1853 1.0850694444444445e-05
1854 1854 4.3402777777777779e-05
1855 1854 1.0850694444444445e-05
1948 1854 1.0850694444444445e-05
1855 1855 4.3402777777777779e-05
1857 1855 1.0850694444444445e-05
1948 1855 1.0850694444444445e-05
1856 1856 4.3402777777777779e-05
1858 1856 1.0850694444444445e-05
1860 1856 1.0850694444444445e-05
1857 1857 4.3402777777777779e-05
1858 1857 1.0850694444444445e-05
1951 1857 1.0850694444444445e-05
1858 1858 4.3402777777777779e-05
1860 1858 1.0850694444444445e-05
1951 1858 1.0850694444444445e-05
1859 1859 4.3402777777777779e-05
1861 1859 1.0850694444444445e-05
1863 1859 1.0850694444444445e-05
1860 1860 4.3402777777777779e-05
1861 1860 1.0850694444444445e-05
1954 1860 1.0850694444444445e-05
1861 1861 4.3402777777777779e-05
1863 1861 1.0850694444444445e-05
1954 1861 1.0850694444444445e-05
1862 1862 4.3402777777777779e-05
1864 1862 1.0850694444444445e-05
1866 1862 1.0850694444444445e-05
1863 1863 4.3402777777777779e-05
1864 1863 1.0850694444444445e-05
1957 1863 1.0850694444444445e-05
1864 1864 4.3402777777777779e-05
1866 1864 1.0850694444444445e-05
1957 1864 1.0850694444444445e-05
1865 1865 4.3402777777777779e-05
1867 1865 1.0850694444444445e-05
1869 1865 1.0850694444444445e-05
1866 1866 4.3402777777777779e-05
1867 1866 1.0850694444444445e-05
1960 1866 1.0850694444444445e-05
1867 1867 4.3402777777777779e-05
1869 1867 1.0850694444444445e-05
1960 1867 1.0850694444444445e-05
1868 1868 4.3402777777777779e-05
1870 1868 1.0850694444444445e-05
1872 1868 1.0850694444444445e-05
1869 1869 4.3402777777777779e-05
1870 1869 1.0850694444444445e-05
1963 1869 1.0850694444444445e-05
1870 1870 4.3402777777777779e-05
1872 1870 1.0850694444444445e-05
1963 1870 1.0850694444444445e-05
1871 1871 4.3402777777777779e-05
1873 1871 1.0850694444444445e-05
1875 1871 1.0850694444444445e-05
1872 1872 4.3402777777777779e-05
1873 1872 1.0850694444444445e-05
1966 1872 1.0850694444444445e-05
1873 1873 4.3402777777777779e-05
1875 1873 1.0850694444444445e-05
1966 1873 1.0850694444444445e-05
1874 1874 4.3402777777777779e-05
1876 1874 1.0850694444444445e-05
1878 1874 1.0850694444444445e-05
1875 1875 4.3402777777777779e-05
1876 1875 1.0850694444444445e-05
1969 1875 1.0850694444444445e-05
1876 1876 4.3402777777777779e-05
1878 1876 1.0850694444444445e-05
1969 1876 1.0850694444444445e-05
1877 1877 4.3402777777777779e-05
1879 1877 1.0850694444444445e-05
1881 1877 1.0850694444444445e-05
1878 1878 4.3402777777777779e-05
1879 1878 1.0850694444444445e-05
1972 1878 1.0850694444444445e-05
1879 1879 4.3402777777777779e-05
1881 1879 1.0850694444444445e-05
1972 1879 1.0850694444444445e-05
1880 1880 4.3402777777777779e-05
1882 1880 1.0850694444444445e-05
1884 1880 1.0850694444444445e-05
1881 1881 4.3402777777777779e-05
1882 1881 1.0850694444444445e-05
1975 1881 1.0850694444444445e-05
1882 1882 4.3402777777777779e-05
1884 1882 1.0850694444444445e-05
1975 1882 1.0850694444444445e-05
1883 1883 4.3402777777777779e-05
1885 1883 1.0850694444444445e-05
1887 1883 1.0850694444444445e-05
1884 1884 4.3402777777777779e-05
1885 1884 1.0850694444444445e-05
1978 1884 1.0850694444444445e-05
1885 1885 4.3402777777777779e-05
1887 1885 1.0850694444444445e-05
1978 1885 1.0850694444444445e-05
1886 1886 4.3402777777777779e-05
1888 1886 1.0850694444444445e-05
1890 1886 1.0850694444444445e-05
1887 1887 4.3402777777777779e-05
1888 1887 1.0850694444444445e-05
1981 1887 1.0850694444444445e-05
1888 1888 4.3402777777777779e-05
1890 1888 1.0850694444444445e-05
1981 1888 1.0850694444444445e-05
1889 1889 4.3402777777777779e-05
1891 1889 1.0850694444444445e-05
1893 1889 1.0850694444444445e-05
1890 1890 4.3402777777777779e-05
1891 1890 1.0850694444444445e-05
1984 1890 1.0850694444444445e-05
1891 1891 4.3402777777777779e-05
1893 1891 1.0850694444444445e-05
1984 1891 1.0850694444444445e-05
1892 1892 4.3402777777777779e-05
1894 1892 1.0850694444444445e-05
1896 1892 1.0850694444444445e-05
1893 1893 4.3402777777777779e-05
1894 1893 1.0850694444444445e-05
1987 1893 1.0850694444444445e-05
1894 1894 4.3402777777777779e-05
1896 1894 1.0850694444444445e-05
1987 1894 1.0850694444444445e-05
1895 1895 4.3402777777777779e-05
1897 1895 1.0850694444444445e-05
1899 1895 1.0850694444444445e-05
1896 1896 4.3402777777777779e-05
1897 1896 1.0850694444444445e-05
1990 1896 1.0850694444444445e-05
1897 1897 4.3402777777777779e-05
1899 1897 1.0850694444444445e-05
1990 1897 1.0850694444444445e-05
1898 1898 4.3402777777777779e-05
1900 1898 1.0850694444444445e-05
1899 1899 4.3402777777777779e-05
1900 1899 1.0850694444444445e-05
1993 1899 1.0850694444444445e-05
1900 1900 4.3402777777777779e-05
1993 1900 1.0850694444444445e-05
1901 1901 4.3402777777777779e-05
1902 1901 1.0850694444444445e-05
1904 1901 1.0850694444444445e-05
1902 1902 4.3402777777777779e-05
1904 1902 1.0850694444444445e-05
1996 1902 1.0850694444444445e-05
1903 1903 4.3402777777777779e-05
1905 1903 1.0850694444444445e-05
1907 1903 1.0850694444444445e-05
1904 1904 4.3402777777777779e-05
1905 1904 1.0850694444444445e-05
1998 1904 1.0850694444444445e-05
1905 1905 4.3402777777777779e-05
1907 1905 1.0850694444444445e-05
1998 1905 1.0850694444444445e-05
1906 1906 4.3402777777777779e-05
1908 1906 1.0850694444444445e-05
1910 1906 1.0850694444444445e-05
1907 1907 4.3402777777777779e-05
1908 1907 1.0850694444444445e-05
2001 1907 1.0850694444444445e-05
1908 1908 4.3402777777777779e-05
1910 1908 1.0850694444444445e-05
2001 1908 1.0850694444444445e-05
1909 1909 4.3402777777777779e-05
1911 1909 1.0850694444444445e-05
1913 1909 1.0850694444444445e-05
1910 1910 4.3402777777777779e-05
1911 1910 1.0850694444444445e-05
2004 1910 1.0850694444444445e-05
1911 1911 4.3402777777777779e-05
1913 1911 1.0850694444444445e-05
2004 1911 1.0850694444444445e-05
1912 1912 4.3402777777777779e-05
1914 1912 1.0850694444444445e-05
1916 1912 1.0850694444444445e-05
1913 1913 4.3402777777777779e-05
1914 1913 1.0850694444444445e-05
2007 1913 1.0850694444444445e-05
1914 1914 4.3402777777777779e-05
1916 1914 1.0850694444444445e-05
2007 1914 1.0850694444444445e-05
1915 1915 4.3402777777777779e-05
1917 1915 1.0850694444444445e-05
1919 1915 1.0850694444444445e-05
1916 1916 4.3402777777777779e-05
1917 1916 1.0850694444444445e-05
2010 1916 1.0850694444444445e-05
1917 1917 4.3402777777777779e-05
1919 1917 1.0850694444444445e-05
2010 1917 1.0850694444444445e-05
1918 1918 4.3402777777777779e-05
1920 1918 1.0850694444444445e-05
1922 1918 1.0850694444444445e-05
1919 1919 4.3402777777777779e-05
1920 1919 1.0850694444444445e-05
2013 1919 1.0850694444444445e-05
1920 1920 4.3402777777777779e-05
1922 1920 1.0850694444444445e-05
2013 1920 1.0850694444444445e-05
1921 1921 4.3402777777777779e-05
1923 1921 1.0850694444444445e-05
1925 1921 1.0850694444444445e-05
1922 1922 4.3402777777777779e-05
1923 1922 1.0850694444444445e-05
2016 1922 1.0850694444444445e-05
1923 1923 4.3402777777777779e-05
1925 1923 1.0850694444444445e-05
2016 1923 1.0850694444444445e-05
1924 1924 4.3402777777777779e-05
1926 1924 1.0850694444444445e-05
1928 1924 1.0850694444444445e-05
1925 1925 4.3402777777777779e-05
1926 1925 1.0850694444444445e-05
2019 1925 1.0850694444444445e-05
1926 1926 4.3402777777777779e-05
1928 1926 1.0850694444444445e-05
2019 1926 1.0850694444444445e-05
1927 1927 4.3402777777777779e-05
1929 1927 1.0850694444444445e-05
1931 1927 1.0850694444444445e-05
1928 1928 4.3402777777777779e-05
1929 1928 1.0850694444444445e-05
2022 1928 1.0850694444444445e-05
1929 1929 4.3402777777777779e-05
1931 1929 1.0850694444444445e-05
2022 1929 1.0850694444444445e-05
1930 1930 4.3402777777777779e-05
1932 1930 1.0850694444444445e-05
1934 1930 1.0850694444444445e-05
1931 1931 4.3402777777777779e-05
1932 1931 1.0850694444444445e-05
2025 1931 1.0850694444444445e-05
1932 1932 4.3402777777777779e-05
1934 1932 1.0850694444444445e-05
2025 1932 1.0850694444444445e-05
1933 1933 4.3402777777777779e-05
1935 1933 1.0850694444444445e-05
1937 1933 1.0850694444444445e-05
1934 1934 4.3402777777777779e-05
1935 1934 1.0850694444444445e-05
2028 1934 1.0850694444444445e-05
1935 1935 4.3402777777777779e-05
1937 1935 1.0850694444444445e-05
2028 1935 1.0850694444444445e-05
1936 1936 4.3402777777777779e-05
1938 1936 1.0850694444444445e-05
1940 1936 1.0850694444444445e-05
1937 1937 4.3402777777777779e-05
1938 1937 1.0850694444444445e-05
2031 1937 1.0850694444444445e-05
1938 1938 4.3402777777777779e-05
1940 1938 1.0850694444444445e-05
2031 1938 1.0850694444444445e-05
1939 1939 4.3402777777777779e-05
1941 1939 1.0850694444444445e-05
1943 1939 1.0850694444444445e-05
1940 1940 4.3402777777777779e-05
1941 1940 1.0850694444444445e-05
2034 1940 1.0850694444444445e-05
1941 1941 4.3402777777777779e-05
1943 1941 1.0850694444444445e-05
2034 1941 1.0850694444444445e-05
1942 1942 4.3402777777777779e-05
1944 1942 1.0850694444444445e-05
1946 1942 1.0850694444444445e-05
1943 1943 4.3402777777777779e-05
1944 1943 1.0850694444444445e-05
2037 1943 1.0850694444444445e-05
1944 1944 4.3402777777777779e-05
1946 1944 1.0850694444444445e-05
2037 1944 1.0850694444444445e-05
1945 1945 4.3402777777777779e-05
1947 1945 1.0850694444444445e-05
1949 1945 1.0850694444444445e-05
1946 1946 4.3402777777777779e-05
1947 1946 1.0850694444444445e-05
2040 1946 1.0850694444444445e-05
1947 1947 4.3402777777777779e-05
1949 1947 1.0850694444444445e-05
2040 1947 1.0850694444444445e-05
1948 1948 4.3402777777777779e-05
1950 1948 1.0850694444444445e-05
1952 1948 1.0850694444444445e-05
1949 1949 4.3402777777777779e-05
1950 1949 1.0850694444444445e-05
2043 1949 1.0850694444444445e-05
1950 1950 4.3402777777777779e-05
1952 1950 1.0850694444444445e-05
2043 1950 1.0850694444444445e-05
1951 1951 4.3402777777777779e-05
1953 1951 1.0850694444444445e-05
1955 1951 1.0850694444444445e-05
1952 1952 4.3402777777777779e-05
1953 1952 1.0850694444444445e-05
2046 1952 1.0850694444444445e-05
1953 1953 4.3402777777777779e-05
1955 1953 1.0850694444444445e-05
2046 1953 1.0850694444444445e-05
1954 1954 4.3402777777777779e-05
1956 1954 1.0850694444444445e-05
1958 1954 1.0850694444444445e-05
1955 1955 4.3402777777777779e-05
1956 1955 1.0850694444444445e-05
2049 1955 1.0850694444444445e-05
1956 1956 4.3402777777777779e-05
1958 1956 1.0850694444444445e-05
2049 1956 1.0850694444444445e-05
1957 1957 4.3402777777777779e-05
1959 1957 1.0850694444444445e-05
1961 1957 1.0850694444444445e-05
1958 1958 4.3402777777777779e-05
1959 1958 1.0850694444444445e-05
2052 1958 1.0850694444444445e-05
1959 1959 4.3402777777777779e-05
1961 1959 1.0850694444444445e-05
2052 1959 1.0850694444444445e-05
1960 1960 4.3402777777777779e-05
1962 1960 1.0850694444444445e-05
1964 1960 1.0850694444444445e-05
1961 1961 4.3402777777777779e-05
1962 1961 1.0850694444444445e-05
2055 1961 1.0850694444444445e-05
1962 1962 4.3402777777777779e-05
1964 1962 1.0850694444444445e-05
2055 1962 1.0850694444444445e-05
1963 1963 4.3402777777777779e-05
1965 1963 1.0850694444444445e-05
1967 1963 1.0850694444444445e-05
1964 1964 4.3402777777777779e-05
1965 1964 1.0850694444444445e-05
2058 1964 1.0850694444444445e-05
1965 1965 4.3402777777777779e-05
1967 1965 1.0850694444444445e-05
2058 1965 1.0850694444444445e-05
1966 1966 4.3402777777777779e-05
1968 1966 1.0850694444444445e-05
1970 1966 1.0850694444444445e-05
1967 1967 4.3402777777777779e-05
1968 1967 1.0850694444444445e-05
2061 1967 1.0850694444444445e-05
1968 1968 4.3402777777777779e-05
1970 1968 1.0850694444444445e-05
2061 1968 1.0850694444444445e-05
1969 1969 4.3402777777777779e-05
1971 1969 1.0850694444444445e-05
1973 1969 1.0850694444444445e-05
1970 1970 4.3402777777777779e-05
1971 1970 1.0850694444444445e-05
2064 1970 1.0850694444444445e-05
1971 1971 4.3402777777777779e-05
1973 1971 1.0850694444444445e-05
2064 1971 1.0850694444444445e-05
1972 1972 4.3402777777777779e-05
1974 1972 1.0850694444444445e-05
1976 1972 1.0850694444444445e-05
1973 1973 4.3402777777777779e-05
1974 1973 1.0850694444444445e-05
2067 1973 1.0850694444444445e-05
1974 1974 4.3402777777777779e-05
1976 1974 1.0850694444444445e-05
2067 1974 1.0850694444444445e-05
1975 1975 4.3402777777777779e-05
1977 1975 1.0850694444444445e-05
1979 1975 1.0850694444444445e-05
1976 1976 4.3402777777777779e-05
1977 1976 1.0850694444444445e-05
2070 1976 1.0850694444444445e-05
1977 1977 4.3402777777777779e-05
1979 1977 1.0850694444444445e-05
2070 1977 1.0850694444444445e-05
1978 1978 4.3402777777777779e-05
1980 1978 1.0850694444444445e-05
1982 1978 1.0850694444444445e-05
1979 1979 4.3402777777777779e-05
1980 1979 1.0850694444444445e-05
2073 1979 1.0850694444444445e-05
1980 1980 4.3402777777777779e-05
1982 1980 1.0850694444444445e-05
2073 1980 1.0850694444444445e-05
1981 1981 4.3402777777777779e-05
1983 1981 1.0850694444444445e-05
1985 1981 1.0850694444444445e-05
1982 1982 4.3402777777777779e-05
1983 1982 1.0850694444444445e-05
2076 1982 1.0850694444444445e-05
1983 1983 4.3402777777777779e-05
1985 1983 1.0850694444444445e-05
2076 1983 1.0850694444444445e-05
1984 1984 4.3402777777777779e-05
1986 1984 1.0850694444444445e-05
1988 1984 1.0850694444444445e-05
1985 1985 4.3402777777777779e-05
1986 1985 1.0850694444444445e-05
2079 1985 1.0850694444444445e-05
1986 1986 4.3402777777777779e-05
1988 1986 1.0850694444444445e-05
2079 1986 1.0850694444444445e-05
1987 1987 4.3402777777777779e-05
1989 1987 1.0850694444444445e-05
1991 1987 1.0850694444444445e-05
1988 1988 4.3402777777777779e-05
1989 1988 1.0850694444444445e-05
2082 1988 1.0850694444444445e-05
1989 1989 4.3402777777777779e-05
1991 1989 1.0850694444444445e-05
2082 1989 1.0850694444444445e-05
1990 1990 4.3402777777777779e-05
1992 1990 1.0850694444444445e-05
1994 1990 1.0850694444444445e-05
1991 1991 4.3402777777777779e-05
1992 1991 1.0850694444444445e-05
2085 1991 1.0850694444444445e-05
1992 1992 4.3402777777777779e-05
1994 1992 1.0850694444444445e-05
2085 1992 1.0850694444444445e-05
1993 1993 4.3402777777777779e-05
1995 1993 1.0850694444444445e-05
1994 1994 4.3402777777777779e-05
1995 1994 1.0850694444444445e-05
2088 1994 1.0850694444444445e-05
1995 1995 4.3402777777777779e-05
2088 1995 1.0850694444444445e-05
1996 1996 4.3402777777777779e-05
1997 1996 1.0850694444444445e-05
1999 1996 1.0850694444444445e-05
1997 1997 4.3402777777777779e-05
1999 1997 1.0850694444444445e-05
2091 1997 1.0850694444444445e-05
1998 1998 4.3402777777777779e-05
2000 1998 1.0850694444444445e-05
2002 1998 1.0850694444444445e-05
1999 1999 4.3402777777777779e-05
2000 1999 1.0850694444444445e-05
2093 1999 1.0850694444444445e-05
2000 2000 4.3402777777777779e-05
2002 2000 1.0850694444444445e-05
2093 2000 1.0850694444444445e-05
2001 2001 4.3402777777777779e-05
2003 2001 1.0850694444444445e-05
2005 2001 1.0850694444444445e-05
2002 2002 4.3402777777777779e-05
2003 2002 1.0850694444444445e-05
2096 2002 1.0850694444444445e-05
2003 2003 4.3402777777777779e-05
2005 2003 1.0850694444444445e-05
2096 2003 1.0850694444444445e-05
2004 2004 4.3402777777777779e-05
2006 2004 1.0850694444444445e-05
2008 2004 1.0850694444444445e-05
2005 2005 4.3402777777777779e-05
2006 2005 1.0850694444444445e-05
2099 2005 1.0850694444444445e-05
2006 2006 4.3402777777777779e-05
2008 2006 1.0850694444444445e-05
2099 2006 1.0850694444444445e-05
2007 2007 4.3402777777777779e-05
2009 2007 1.0850694444444445e-05
2011 2007 1.0850694444444445e-05
2008 2008 4.3402777777777779e-05
2009 2008 1.0850694444444445e-05
2102 2008 1.0850694444444445e-05
2009 2009 4.3402777777777779e-05
2011 2009 1.0850694444444445e-05
2102 2009 1.0850694444444445e-05
2010 2010 4.3402777777777779e-05
2012 2010 1.0850694444444445e-05
2014 2010 1.0850694444444445e-05
2011 2011 4.3402777777777779e-05
2012 2011 1.0850694444444445e-05
2105 2011 1.0850694444444445e-05
2012 2012 4.3402777777777779e-05
2014 2012 1.0850694444444445e-05
2105 2012 1.0850694444444445e-05
2013 2013 4.3402777777777779e-05
2015 2013 1.0850694444444445e-05
2017 2013 1.0850694444444445e-05
2014 2014 4.3402777777777779e-05
2015 2014 1.0850694444444445e-05
2108 2014 1.0850694444444445e-05
2015 2015 4.3402777777777779e-05
2017 2015 1.0850694444444445e-05
2108 2015 1.0850694444444445e-05
2016 2016 4.3402777777777779e-05
2018 2016 1.0850694444444445e-05
2020 2016 1.0850694444444445e-05
2017 2017 4.3402777777777779e-05
2018 2017 1.0850694444444445e-05
2111 2017 1.0850694444444445e-05
2018 2018 4.3402777777777779e-05
2020 2018 1.0850694444444445e-05
2111 2018 1.0850694444444445e-05
2019 2019 4.3402777777777779e-05
2021 2019 1.0850694444444445e-05
2023 2019 1.0850694444444445e-05
2020 2020 4.3402777777777779e-05
2021 2020 1.0850694444444445e-05
2114 2020 1.0850694444444445e-05
2021 2021 4.3402777777777779e-05
2023 2021 1.0850694444444445e-05
2114 2021 1.0850694444444445e-05
2022 2022 4.3402777777777779e-05
2024 2022 1.0850694444444445e-05
2026 2022 1.0850694444444445e-05
2023 2023 4.3402777777777779e-05
2024 2023 1.0850694444444445e-05
2117 2023 1.0850694444444445e-05
2024 2024 4.3402777777777779e-05
2026 2024 1.0850694444444445e-05
2117 2024 1.0850694444444445e-05
2025 2025 4.3402777777777779e-05
2027 2025 1.0850694444444445e-05
2029 2025 1.0850694444444445e-05
2026 2026 4.3402777777777779e-05
2027 2026 1.0850694444444445e-05
2120 2026 1.0850694444444445e-05
2027 2027 4.3402777777777779e-05
2029 2027 1.0850694444444445e-05
2120 2027 1.0850694444444445e-05
2028 2028 4.3402777777777779e-05
2030 2028 1.0850694444444445e-05
2032 2028 1.0850694444444445e-05
2029 2029 4.3402777777777779e-05
2030 2029 1.0850694444444445e-05
2123 2029 1.0850694444444445e-05
2030 2030 4.3402777777777779e-05
2032 2030 1.0850694444444445e-05
2123 2030 1.0850694444444445e-05
2031 2031 4.3402777777777779e-05
2033 2031 1.0850694444444445e-05
2035 2031 1.0850694444444445e-05
2032 2032 4.3402777777777779e-05
2033 2032 1.0850694444444445e-05
2126 2032 1.0850694444444445e-05
2033 2033 4.3402777777777779e-05
2035 2033 1.0850694444444445e-05
2126 2033 1.0850694444444445e-05
2034 2034 4.3402777777777779e-05
2036 2034 1.0850694444444445e-05
2038 2034 1.0850694444444445e-05
2035 2035 4.3402777777777779e-05
2036 2035 1.0850694444444445e-05
2129 2035 1.0850694444444445e-05
2036 2036 4.3402777777777779e-05
2038 2036 1.0850694444444445e-05
2129 2036 1.0850694444444445e-05
2037 2037 4.3402777777777779e-05
2039 2037 1.0850694444444445e-05
2041 2037 1.0850694444444445e-05
2038 2038 4.3402777777777779e-05
2039 2038 1.0850694444444445e-05
2132 2038 1.0850694444444445e-05
2039 2039 4.3402777777777779e-05
2041 2039 1.0850694444444445e-05
2132 2039 1.0850694444444445e-05
2040 2040 4.3402777777777779e-05
2042 2040 1.0850694444444445e-05
2044 2040 1.0850694444444445e-05
2041 2041 4.3402777777777779e-05
2042 2041 1.0850694444444445e-05
2135 2041 1.0850694444444445e-05
2042 2042 4.3402777777777779e-05
2044 2042 1.0850694444444445e-05
2135 2042 1.0850694444444445e-05
2043 2043 4.3402777777777779e-05
2045 2043 1.0850694444444445e-05
2047 2043 1.0850694444444445e-05
2044 2044 4.3402777777777779e-05
2045 2044 1.0850694444444445e-05
2138 2044 1.0850694444444445e-05
2045 2045 4.3402777777777779e-05
2047 2045 1.0850694444444445e-05
2138 2045 1.0850694444444445e-05
2046 2046 4.3402777777777779e-05
2048 2046 1.0850694444444445e-05
2050 2046 1.0850694444444445e-05
2047 2047 4.3402777777777779e-05
2048 2047 1.0850694444444445e-05
2141 2047 1.0850694444444445e-05
2048 2048 4.3402777777777779e-05
2050 2048 1.0850694444444445e-05
2141 2048 1.0850694444444445e-05
2049 2049 4.3402777777777779e-05
2051 2049 1.0850694444444445e-05
2053 2049 1.0850694444444445e-05
2050 2050 4.3402777777777779e-05
2051 2050 1.0850694444444445e-05
2144 2050 1.0850694444444445e-05
2051 2051 4.3402777777777779e-05
2053 2051 1.0850694444444445e-05
2144 2051 1.0850694444444445e-05
2052 2052 4.3402777777777779e-05
2054 2052 1.0850694444444445e-05
2056 2052 1.0850694444444445e-05
2053 2053 4.3402777777777779e-05
2054 2053 1.0850694444444445e-05
2147 2053 1.0850694444444445e-05
2054 2054 4.3402777777777779e-05
2056 2054 1.0850694444444445e-05
2147 2054 1.0850694444444445e-05
2055 2055 4.3402777777777779e-05
2057 2055 1.0850694444444445e-05
2059 2055 1.0850694444444445e-05
2056 2056 4.3402777777777779e-05
2057 2056 1.0850694444444445e-05
2150 2056 1.0850694444444445e-05
2057 2057 4.3402777777777779e-05
2059 2057 1.0850694444444445e-05
2150 2057 1.0850694444444445e-05
2058 2058 4.3402777777777779e-05
2060 2058 1.0850694444444445e-05
2062 2058 1.0850694444444445e-05
2059 2059 4.3402777777777779e-05
2060 2059 1.0850694444444445e-05
2153 2059 1.0850694444444445e-05
2060 2060 4.3402777777777779e-05
2062 2060 1.0850694444444445e-05
2153 2060 1.0850694444444445e-05
2061 2061 4.3402777777777779e-05
2063 2061 1.0850694444444445e-05
2065 2061 1.0850694444444445e-05
2062 2062 4.3402777777777779e-05
2063 2062 1.0850694444444445e-05
2156 2062 1.0850694444444445e-05
2063 2063 4.3402777777777779e-05
2065 2063 1.0850694444444445e-05
2156 2063 1.0850694444444445e-05
2064 2064 4.3402777777777779e-05
2066 2064 1.0850694444444445e-05
2068 2064 1.0850694444444445e-05
2065 2065 4.3402777777777779e-05
2066 2065 1.0850694444444445e-05
2159 2065 1.0850694444444445e-05
2066 2066 4.3402777777777779e-05
2068 2066 1.0850694444444445e-05
2159 2066 1.0850694444444445e-05
2067 2067 4.3402777777777779e-05
2069 2067 1.0850694444444445e-05
2071 2067 1.0850694444444445e-05
2068 2068 4.3402777777777779e-05
2069 2068 1.0850694444444445e-05
2162 2068 1.0850694444444445e-05
2069 2069 4.3402777777777779e-05
2071 2069 1.0850694444444445e-05
2162 2069 1.0850694444444445e-05
2070 2070 4.3402777777777779e-05
2072 2070 1.0850694444444445e-05
2074 2070 1.0850694444444445e-05
2071 2071 4.3402777777777779e-05
2072 2071 1.0850694444444445e-05
2165 2071 1.0850694444444445e-05
2072 2072 4.3402777777777779e-05
2074 2072 1.0850694444444445e-05
2165 2072 1.0850694444444445e-05
2073 2073 4.3402777777777779e-05
2075 2073 1.0850694444444445e-05
2077 2073 1.0850694444444445e-05
2074 2074 4.3402777777777779e-05
2075 2074 1.0850694444444445e-05
2168 2074 1.0850694444444445e-05
2075 2075 4.3402777777777779e-05
2077 2075 1.0850694444444445e-05
2168 2075 1.0850694444444445e-05
2076 2076 4.3402777777777779e-05
2078 2076 1.0850694444444445e-05
2080 2076 1.0850694444444445e-05
2077 2077 4.3402777777777779e-05
2078 2077 1.0850694444444445e-05
2171 2077 1.0850694444444445e-05
2078 2078 4.3402777777777779e-05
2080 2078 1.0850694444444445e-05
2171 2078 1.0850694444444445e-05
2079 2079 4.3402777777777779e-05
2081 2079 1.0850694444444445e-05
2083 2079 1.0850694444444445e-05
2080 2080 4.3402777777777779e-05
2081 2080 1.0850694444444445e-05
2174 2080 1.0850694444444445e-05
2081 2081 4.3402777777777779e-05
2083 2081 1.0850694444444445e-05
2174 2081 1.0850694444444445e-05
2082 2082 4.3402777777777779e-05
2084 2082 1.0850694444444445e-05
2086 2082 1.0850694444444445e-05
2083 2083 4.3402777777777779e-05
2084 2083 1.0850694444444445e-05
2177 2083 1.0850694444444445e-05
2084 2084 4.3402777777777779e-05
2086 2084 1.0850694444444445e-05
2177 2084 1.0850694444444445e-05
2085 2085 4.3402777777777779e-05
2087 2085 1.0850694444444445e-05
2089 2085 1.0850694444444445e-05
2086 2086 4.3402777777777779e-05
2087 2086 1.0850694444444445e-05
2180 2086 1.0850694444444445e-05
2087 2087 4.3402777777777779e-05
2089 2087 1.0850694444444445e-05
2180 2087 1.0850694444444445e-05
2088 2088 4.3402777777777779e-05
2090 2088 1.0850694444444445e-05
2089 2089 4.3402777777777779e-05
2090 2089 1.0850694444444445e-05
2183 2089 1.0850694444444445e-05
2090 2090 4.3402777777777779e-05
2183 2090 1.0850694444444445e-05
2091 2091 4.3402777777777779e-05
2092 2091 1.0850694444444445e-05
2094 2091 1.0850694444444445e-05
2092 2092 4.3402777777777779e-05
2094 2092 1.0850694444444445e-05
2186 2092 1.0850694444444445e-05
2093 2093 4.3402777777777779e-05
2095 2093 1.0850694444444445e-05
2097 2093 1.0850694444444445e-05
2094 2094 4.3402777777777779e-05
2095 2094 1.0850694444444445e-05
2188 2094 1.0850694444444445e-05
2095 2095 4.3402777777777779e-05
2097 2095 1.0850694444444445e-05
2188 2095 1.0850694444444445e-05
2096 2096 4.3402777777777779e-05
2098 2096 1.0850694444444445e-05
2100 2096 1.0850694444444445e-05
2097 2097 4.3402777777777779e-05
2098 2097 1.0850694444444445e-05
2191 2097 1.0850694444444445e-05
2098 2098 4.3402777777777779e-05
2100 2098 1.0850694444444445e-05
2191 2098 1.0850694444444445e-05
2099 2099 4.3402777777777779e-05
2101 2099 1.0850694444444445e-05
2103 2099 1.0850694444444445e-05
2100 2100 4.3402777777777779e-05
2101 2100 1.0850694444444445e-05
2194 2100 1.0850694444444445e-05
2101 2101 4.3402777777777779e-05
2103 2101 1.0850694444444445e-05
2194 2101 1.0850694444444445e-05
2102 2102 4.3402777777777779e-05
2104 2102 1.0850694444444445e-05
2106 2102 1.0850694444444445e-05
2103 2103 4.3402777777777779e-05
2104 2103 1.0850694444444445e-05
2197 2103 1.0850694444444445e-05
2104 2104 4.3402777777777779e-05
2106 2104 1.0850694444444445e-05
2197 2104 1.0850694444444445e-05
2105 2105 4.3402777777777779e-05
2107 2105 1.0850694444444445e-05
2109 2105 1.0850694444444445e-05
2106 2106 4.3402777777777779e-05
2107 2106 1.0850694444444445e-05
2200 2106 1.0850694444444445e-05
2107 2107 4.3402777777777779e-05
2109 2107 1.0850694444444445e-05
2200 2107 1.0850694444444445e-05
2108 2108 4.3402777777777779e-05
2110 2108 1.0850694444444445e-05
2112 2108 1.0850694444444445e-05
2109 2109 4.3402777777777779e-05
2110 2109 1.0850694444444445e-05
2203 2109 1.0850694444444445e-05
2110 2110 4.3402777777777779e-05
2112 2110 1.0850694444444445e-05
2203 2110 1.0850694444444445e-05
2111 2111 4.3402777777777779e-05
2113 2111 1.0850694444444445e-05
2115 2111 1.0850694444444445e-05
2112 2112 4.3402777777777779e-05
2113 2112 1.0850694444444445e-05
2206 2112 1.0850694444444445e-05
2113 2113 4.3402777777777779e-05
2115 2113 1.0850694444444445e-05
2206 2113 1.0850694444444445e-05
2114 2114 4.3402777777777779e-05
2116 2114 1.0850694444444445e-05
2118 2114 1.0850694444444445e-05
2115 2115 4.3402777777777779e-05
2116 2115 1.0850694444444445e-05
2209 2115 1.0850694444444445e-05
2116 2116 4.3402777777777779e-05
2118 2116 1.0850694444444445e-05
2209 2116 1.0850694444444445e-05
2117 2117 4.3402777777777779e-05
2119 2117 1.0850694444444445e-05
2121 2117 1.0850694444444445e-05
2118 2118 4.3402777777777779e-05
2119 2118 1.0850694444444445e-05
2212 2118 1.0850694444444445e-05
2119 2119 4.3402777777777779e-05
2121 2119 1.0850694444444445e-05
2212 2119 1.0850694444444445e-05
2120 2120 4.3402777777777779e-05
2122 2120 1.0850694444444445e-05
2124 2120 1.0850694444444445e-05
2121 2121 4.3402777777777779e-05
2122 2121 1.0850694444444445e-05
2215 2121 1.0850694444444445e-05
2122 2122 4.3402777777777779e-05
2124 2122 1.0850694444444445e-05
2215 2122 1.0850694444444445e-05
2123 2123 4.3402777777777779e-05
2125 2123 1.0850694444444445e-05
2127 2123 1.0850694444444445e-05
2124 2124 4.3402777777777779e-05
2125 2124 1.0850694444444445e-05
2218 2124 1.0850694444444445e-05
2125 2125 4.3402777777777779e-05
2127 2125 1.0850694444444445e-05
2218 2125 1.0850694444444445e-05
2126 2126 4.3402777777777779e-05
2128 2126 1.0850694444444445e-05
2130 2126 1.0850694444444445e-05
2127 2127 4.3402777777777779e-05
2128 2127 1.0850694444444445e-05
2221 2127 1.0850694444444445e-05
2128 2128 4.3402777777777779e-05
2130 2128 1.0850694444444445e-05
2221 2128 1.0850694444444445e-05
2129 2129 4.3402777777777779e-05
2131 2129 1.0850694444444445e-05
2133 2129 1.0850694444444445e-05
2130 2130 4.3402777777777779e-05
2131 2130 1.0850694444444445e-05
2224 2130 1.0850694444444445e-05
2131 2131 4.3402777777777779e-05
2133 2131 1.0850694444444445e-05
2224 2131 1.0850694444444445e-05
2132 2132 4.3402777777777779e-05
2134 2132 1.0850694444444445e-05
2136 2132 1.0850694444444445e-05
2133 2133 4.3402777777777779e-05
2134 2133 1.0850694444444445e-05
2227 2133 1.0850694444444445e-05
2134 2134 4.3402777777777779e-05
2136 2134 1.0850694444444445e-05
2227 2134 1.0850694444444445e-05
2135 2135 4.3402777777777779e-05
2137 2135 1.0850694444444445e-05
2139 2135 1.0850694444444445e-05
2136 2136 4.3402777777777779e-05
2137 2136 1.0850694444444445e-05
2230 2136 1.0850694444444445e-05
2137 2137 4.3402777777777779e-05
2139 2137 1.0850694444444445e-05
2230 2137 1.0850694444444445e-05
2138 2138 4.3402777777777779e-05
2140 2138 1.0850694444444445e-05
2142 2138 1.0850694444444445e-05
2139 2139 4.3402777777777779e-05
2140 2139 1.0850694444444445e-05
2233 2139 1.0850694444444445e-05
2140 2140 4.3402777777777779e-05
2142 2140 1.0850694444444445e-05
2233 2140 1.0850694444444445e-05
2141 2141 4.3402777777777779e-05
2143 2141 1.0850694444444445e-05
2145 2141 1.0850694444444445e-05
2142 2142 4.3402777777777779e-05
2143 2142 1.0850694444444445e-05
2236 2142 1.0850694444444445e-05
2143 2143 4.3402777777777779e-05
2145 2143 1.0850694444444445e-05
2236 2143 1.0850694444444445e-05
2144 2144 4.3402777777777779e-05
2146 2144 1.0850694444444445e-05
2148 2144 1.0850694444444445e-05
2145 2145 4.3402777777777779e-05
2146 2145 1.0850694444444445e-05
2239 2145 1.0850694444444445e-05
2146 2146 4.3402777777777779e-05
2148 2146 1.0850694444444445e-05
2239 2146 1.0850694444444445e-05
2147 2147 4.3402777777777779e-05
2149 2147 1.0850694444444445e-05
2151 2147 1.0850694444444445e-05
2148 2148 4.3402777777777779e-05
2149 2148 1.0850694444444445e-05
2242 2148 1.0850694444444445e-05
2149 2149 4.3402777777777779e-05
2151 2149 1.0850694444444445e-05
2242 2149 1.0850694444444445e-05
2150 2150 4.3402777777777779e-05
2152 2150 1.0850694444444445e-05
2154 2150 1.0850694444444445e-05
2151 2151 4.3402777777777779e-05
2152 2151 1.0850694444444445e-05
2245 2151 1.0850694444444445e-05
2152 2152 4.3402777777777779e-05
2154 2152 1.0850694444444445e-05
2245 2152 1.0850694444444445e-05
2153 2153 4.3402777777777779e-05
2155 2153 1.0850694444444445e-05
2157 2153 1.0850694444444445e-05
2154 2154 4.3402777777777779e-05
2155 2154 1.0850694444444445e-05
2248 2154 1.0850694444444445e-05
2155 2155 4.3402777777777779e-05
2157 2155 1.0850694444444445e-05
2248 2155 1.0850694444444445e-05
2156 2156 4.3402777777777779e-05
2158 2156 1.0850694444444445e-05
2160 2156 1.0850694444444445e-05
2157 2157 4.3402777777777779e-05
2158 2157 1.0850694444444445e-05
2251 2157 1.0850694444444445e-05
2158 2158 4.3402777777777779e-05
2160 2158 1.0850694444444445e-05
2251 2158 1.0850694444444445e-05
2159 2159 4.3402777777777779e-05
2161 2159 1.0850694444444445e-05
2163 2159 1.0850694444444445e-05
2160 2160 4.3402777777777779e-05
2161 2160 1.0850694444444445e-05
2254 2160 1.0850694444444445e-05
2161 2161 4.3402777777777779e-05
2163 2161 1.0850694444444445e-05
2254 2161 1.0850694444444445e-05
2162 2162 4.3402777777777779e-05
2164 2162 1.0850694444444445e-05
2166 2162 1.0850694444444445e-05
2163 2163 4.3402777777777779e-05
2164 2163 1.0850694444444445e-05
2257 2163 1.0850694444444445e-05
2164 2164 4.3402777777777779e-05
2166 2164 1.0850694444444445e-05
2257 2164 1.0850694444444445e-05
2165 2165 4.3402777777777779e-05
2167 2165 1.0850694444444445e-05
2169 2165 1.0850694444444445e-05
2166 2166 4.3402777777777779e-05
2167 2166 1.0850694444444445e-05
2260 2166 1.0850694444444445e-05
2167 2167 4.3402777777777779e-05
2169 2167 1.0850694444444445e-05
2260 2167 1.0850694444444445e-05
2168 2168 4.3402777777777779e-05
2170 2168 1.0850694444444445e-05
2172 2168 1.0850694444444445e-05
2169 2169 4.3402777777777779e-05
2170 2169 1.0850694444444445e-05
2263 2169 1.0850694444444445e-05
2170 2170 4.3402777777777779e-05
2172 2170 1.0850694444444445e-05
2263 2170 1.0850694444444445e-05
2171 2171 4.3402777777777779e-05
2173 2171 1.0850694444444445e-05
2175 2171 1.0850694444444445e-05
2172 2172 4.3402777777777779e-05
2173 2172 1.0850694444444445e-05
2266 2172 1.0850694444444445e-05
2173 2173 4.3402777777777779e-05
2175 2173 1.0850694444444445e-05
2266 2173 1.0850694444444445e-05
2174 2174 4.3402777777777779e-05
2176 2174 1.0850694444444445e-05
2178 2174 1.0850694444444445e-05
2175 2175 4.3402777777777779e-05
2176 2175 1.0850694444444445e-05
2269 2175 1.0850694444444445e-05
2176 2176 4.3402777777777779e-05
2178 2176 1.0850694444444445e-05
2269 2176 1.0850694444444445e-05
2177 2177 4.3402777777777779e-05
2179 2177 1.0850694444444445e-05
2181 2177 1.0850694444444445e-05
2178 2178 4.3402777777777779e-05
2179 2178 1.0850694444444445e-05
2272 2178 1.0850694444444445e-05
2179 2179 4.3402777777777779e-05
2181 2179 1.0850694444444445e-05
2272 2179 1.0850694444444445e-05
2180 2180 4.3402777777777779e-05
2182 2180 1.0850694444444445e-05
2184 2180 1.0850694444444445e-05
2181 2181 4.3402777777777779e-05
2182 2181 1.0850694444444445e-05
2275 2181 1.0850694444444445e-05
2182 2182 4.3402777777777779e-05
2184 2182 1.0850694444444445e-05
2275 2182 1.0850694444444445e-05
2183 2183 4.3402777777777779e-05
2185 2183 1.0850694444444445e-05
2184 2184 4.3402777777777779e-05
2185 2184 1.0850694444444445e-05
2278 2184 1.0850694444444445e-05
2185 2185 4.3402777777777779e-05
2278 2185 1.0850694444444445e-05
2186 2186 4.3402777777777779e-05
2187 2186 1.0850694444444445e-05
2189 2186 1.0850694444444445e-05
2187 2187 4.3402777777777779e-05
2189 2187 1.0850694444444445e-05
2281 2187 1.0850694444444445e-05
2188 2188 4.3402777777777779e-05
2190 2188 1.0850694444444445e-05
2192 2188 1.0850694444444445e-05
2189 2189 4.3402777777777779e-05
2190 2189 1.0850694444444445e-05
2283 2189 1.0850694444444445e-05
2190 2190 4.3402777777777779e-05
2192 2190 1.0850694444444445e-05
2283 2190 1.0850694444444445e-05
2191 2191 4.3402777777777779e-05
2193 2191 1.0850694444444445e-05
2195 2191 1.0850694444444445e-05
2192 2192 4.3402777777777779e-05
2193 2192 1.0850694444444445e-05
2286 2192 1.0850694444444445e-05
2193 2193 4.3402777777777779e-05
2195 2193 1.0850694444444445e-05
2286 2193 1.0850694444444445e-05
2194 2194 4.3402777777777779e-05
2196 2194 1.0850694444444445e-05
2198 2194 1.0850694444444445e-05
2195 2195 4.3402777777777779e-05
2196 2195 1.0850694444444445e-05
2289 2195 1.0850694444444445e-05
2196 2196 4.3402777777777779e-05
2198 2196 1.0850694444444445e-05
2289 2196 1.0850694444444445e-05
2197 2197 4.3402777777777779e-05
2199 2197 1.0850694444444445e-05
2201 2197 1.0850694444444445e-05
2198 2198 4.3402777777777779e-05
2199 2198 1.0850694444444445e-05
2292 2198 1.0850694444444445e-05
2199 2199 4.3402777777777779e-05
2201 2199 1.0850694444444445e-05
2292 2199 1.0850694444444445e-05
2200 2200 4.3402777777777779e-05
2202 2200 1.0850694444444445e-05
2204 2200 1.0850694444444445e-05
2201 2201 4.3402777777777779e-05
2202 2201 1.0850694444444445e-05
2295 2201 1.0850694444444445e-05
2202 2202 4.3402777777777779e-05
2204 2202 1.0850694444444445e-05
2295 2202 1.0850694444444445e-05
2203 2203 4.3402777777777779e-05
2205 2203 1.0850694444444445e-05
2207 2203 1.0850694444444445e-05
2204 2204 4.3402777777777779e-05
2205 2204 1.0850694444444445e-05
2298 2204 1.0850694444444445e-05
2205 2205 4.3402777777777779e-05
2207 2205 1.0850694444444445e-05
2298 2205 1.0850694444444445e-05
2206 2206 4.3402777777777779e-05
2208 2206 1.0850694444444445e-05
2210 2206 1.0850694444444445e-05
2207 2207 4.3402777777777779e-05
2208 2207 1.0850694444444445e-05
2301 2207 1.0850694444444445e-05
2208 2208 4.3402777777777779e-05
2210 2208 1.0850694444444445e-05
2301 2208 1.0850694444444445e-05
2209 2209 4.3402777777777779e-05
2211 2209 1.0850694444444445e-05
2213 2209 1.0850694444444445e-05
2210 2210 4.3402777777777779e-05
2211 2210 1.0850694444444445e-05
2304 2210 1.0850694444444445e-05
2211 2211 4.3402777777777779e-05
2213 2211 1.0850694444444445e-05
2304 2211 1.0850694444444445e-05
2212 2212 4.3402777777777779e-05
2214 2212 1.0850694444444445e-05
2216 2212 1.0850694444444445e-05
2213 2213 4.3402777777777779e-05
2214 2213 1.0850694444444445e-05
2307 2213 1.0850694444444445e-05
2214 2214 4.3402777777777779e-05
2216 2214 1.0850694444444445e-05
2307 2214 1.0850694444444445e-05
2215 2215 4.3402777777777779e-05
2217 2215 1.0850694444444445e-05
2219 2215 1.0850694444444445e-05
2216 2216 4.3402777777777779e-05
2217 2216 1.0850694444444445e-05
2310 2216 1.0850694444444445e-05
2217 2217 4.3402777777777779e-05
2219 2217 1.0850694444444445e-05
2310 2217 1.0850694444444445e-05
2218 2218 4.3402777777777779e-05
2220 2218 1.0850694444444445e-05
2222 2218 1.0850694444444445e-05
2219 2219 4.3402777777777779e-05
2220 2219 1.0850694444444445e-05
2313 2219 1.0850694444444445e-05
2220 2220 4.3402777777777779e-05
2222 2220 1.0850694444444445e-05
2313 2220 1.0850694444444445e-05
2221 2221 4.3402777777777779e-05
2223 2221 1.0850694444444445e-05
2225 2221 1.0850694444444445e-05
2222 2222 4.3402777777777779e-05
2223 2222 1.0850694444444445e-05
2316 2222 1.0850694444444445e-05
2223 2223 4.3402777777777779e-05
2225 2223 1.0850694444444445e-05
2316 2223 1.0850694444444445e-05
2224 2224 4.3402777777777779e-05
2226 2224 1.0850694444444445e-05
2228 2224 1.0850694444444445e-05
2225 2225 4.3402777777777779e-05
2226 2225 1.0850694444444445e-05
2319 2225 1.0850694444444445e-05
2226 2226 4.3402777777777779e-05
2228 2226 1.0850694444444445e-05
2319 2226 1.0850694444444445e-05
2227 2227 4.3402777777777779e-05
2229 2227 1.0850694444444445e-05
2231 2227 1.0850694444444445e-05
2228 2228 4.3402777777777779e-05
2229 2228 1.0850694444444445e-05
2322 2228 1.0850694444444445e-05
2229 2229 4.3402777777777779e-05
2231 2229 1.0850694444444445e-05
2322 2229 1.0850694444444445e-05
2230 2230 4.3402777777777779e-05
2232 2230 1.0850694444444445e-05
2234 2230 1.0850694444444445e-05
2231 2231 4.3402777777777779e-05
2232 2231 1.0850694444444445e-05
2325 2231 1.0850694444444445e-05
2232 2232 4.3402777777777779e-05
2234 2232 1.0850694444444445e-05
2325 2232 1.0850694444444445e-05
2233 2233 4.3402777777777779e-05
2235 2233 1.0850694444444445e-05
2237 2233 1.0850694444444445e-05
2234 2234 4.3402777777777779e-05
2235 2234 1.0850694444444445e-05
2328 2234 1.0850694444444445e-05
2235 2235 4.3402777777777779e-05
2237 2235 1.0850694444444445e-05
2328 2235 1.0850694444444445e-05
2236 2236 4.3402777777777779e-05
2238 2236 1.0850694444444445e-05
2240 2236 1.0850694444444445e-05
2237 2237 4.3402777777777779e-05
2238 2237 1.0850694444444445e-05
2331 2237 1.0850694444444445e-05
2238 2238 4.3402777777777779e-05
2240 2238 1.0850694444444445e-05
2331 2238 1.0850694444444445e-05
2239 2239 4.3402777777777779e-05
2241 2239 1.0850694444444445e-05
2243 2239 1.0850694444444445e-05
2240 2240 4.3402777777777779e-05
2241 2240 1.0850694444444445e-05
2334 2240 1.0850694444444445e-05
2241 2241 4.3402777777777779e-05
2243 2241 1.0850694444444445e-05
2334 2241 1.0850694444444445e-05
2242 2242 4.3402777777777779e-05
2244 2242 1.0850694444444445e-05
2246 2242 1.0850694444444445e-05
2243 2243 4.3402777777777779e-05
2244 2243 1.0850694444444445e-05
2337 2243 1.0850694444444445e-05
2244 2244 4.3402777777777779e-05
2246 2244 1.0850694444444445e-05
2337 2244 1.0850694444444445e-05
2245 2245 4.3402777777777779e-05
2247 2245 1.0850694444444445e-05
2249 2245 1.0850694444444445e-05
2246 2246 4.3402777777777779e-05
2247 2246 1.0850694444444445e-05
2340 2246 1.0850694444444445e-05
2247 2247 4.3402777777777779e-05
2249 2247 1.0850694444444445e-05
2340 2247 1.0850694444444445e-05
2248 2248 4.3402777777777779e-05
2250 2248 1.0850694444444445e-05
2252 2248 1.0850694444444445e-05
2249 2249 4.3402777777777779e-05
2250 2249 1.0850694444444445e-05
2343 2249 1.0850694444444445e-05
2250 2250 4.3402777777777779e-05
2252 2250 1.0850694444444445e-05
2343 2250 1.0850694444444445e-05
2251 2251 4.3402777777777779e-05
2253 2251 1.0850694444444445e-05
2255 2251 1.0850694444444445e-05
2252 2252 4.3402777777777779e-05
2253 2252 1.0850694444444445e-05
2346 2252 1.0850694444444445e-05
2253 2253 4.3402777777777779e-05
2255 2253 1.0850694444444445e-05
2346 2253 1.0850694444444445e-05
2254 2254 4.3402777777777779e-05
2256 2254 1.0850694444444445e-05
2258 2254 1.0850694444444445e-05
2255 2255 4.3402777777777779e-05
2256 2255 1.0850694444444445e-05
2349 2255 1.0850694444444445e-05
2256 2256 4.3402777777777779e-05
2258 2256 1.0850694444444445e-05
2349 2256 1.0850694444444445e-05
2257 2257 4.3402777777777779e-05
2259 2257 1.0850694444444445e-05
2261 2257 1.0850694444444445e-05
2258 2258 4.3402777777777779e-05
2259 2258 1.0850694444444445e-05
2352 2258 1.0850694444444445e-05
2259 2259 4.3402777777777779e-05
2261 2259 1.0850694444444445e-05
2352 2259 1.0850694444444445e-05
2260 2260 4.3402777777777779e-05
2262 2260 1.0850694444444445e-05
2264 2260 1.0850694444444445e-05
2261 2261 4.3402777777777779e-05
2262 2261 1.0850694444444445e-05
2355 2261 1.0850694444444445e-05
2262 2262 4.3402777777777779e-05
2264 2262 1.0850694444444445e-05
2355 2262 1.0850694444444445e-05
2263 2263 4.3402777777777779e-05
2265 2263 1.0850694444444445e-05
2267 2263 1.0850694444444445e-05
2264 2264 4.3402777777777779e-05
2265 2264 1.0850694444444445e-05
2358 2264 1.0850694444444445e-05
2265 2265 4.3402777777777779e-05
2267 2265 1.0850694444444445e-05
2358 2265 1.0850694444444445e-05
2266 2266 4.3402777777777779e-05
2268 2266 1.0850694444444445e-05
2270 2266 1.0850694444444445e-05
2267 2267 4.3402777777777779e-05
2268 2267 1.0850694444444445e-05
2361 2267 1.0850694444444445e-05
2268 2268 4.3402777777777779e-05
2270 2268 1.0850694444444445e-05
2361 2268 1.0850694444444445e-05
2269 2269 4.3402777777777779e-05
2271 2269 1.0850694444444445e-05
2273 2269 1.0850694444444445e-05
2270 2270 4.3402777777777779e-05
2271 2270 1.0850694444444445e-05
2364 2270 1.0850694444444445e-05
2271 2271 4.3402777777777779e-05
2273 2271 1.0850694444444445e-05
2364 2271 1.0850694444444445e-05
2272 2272 4.3402777777777779e-05
2274 2272 1.0850694444444445e-05
2276 2272 1.0850694444444445e-05
2273 2273 4.3402777777777779e-05
2274 2273 1.0850694444444445e-05
2367 2273 1.0850694444444445e-05
2274 2274 4.3402777777777779e-05
2276 2274 1.0850694444444445e-05
2367 2274 1.0850694444444445e-05
2275 2275 4.3402777777777779e-05
2277 2275 1.0850694444444445e-05
2279 2275 1.0850694444444445e-05
2276 2276 4.3402777777777779e-05
2277 2276 1.0850694444444445e-05
2370 2276 1.0850694444444445e-05
2277 2277 4.3402777777777779e-05
2279 2277 1.0850694444444445e-05
2370 2277 1.0850694444444445e-05
2278 2278 4.3402777777777779e-05
2280 2278 1.0850694444444445e-05
2279 2279 4.3402777777777779e-05
2280 2279 1.0850694444444445e-05
2373 2279 1.0850694444444445e-05
2280 2280 4.3402777777777779e-05
2373 2280 1.0850694444444445e-05
2281 2281 4.3402777777777779e-05
2282 2281 1.0850694444444445e-05
2284 2281 1.0850694444444445e-05
2282 2282 4.3402777777777779e-05
2284 2282 1.0850694444444445e-05
2376 2282 1.0850694444444445e-05
2283 2283 4.3402777777777779e-05
2285 2283 1.0850694444444445e-05
2287 2283 1.0850694444444445e-05
2284 2284 4.3402777777777779e-05
2285 2284 1.0850694444444445e-05
2378 2284 1.0850694444444445e-05
2285 2285 4.3402777777777779e-05
2287 2285 1.0850694444444445e-05
2378 2285 1.0850694444444445e-05
2286 2286 4.3402777777777779e-05
2288 2286 1.0850694444444445e-05
2290 2286 1.0850694444444445e-05
2287 2287 4.3402777777777779e-05
2288 2287 1.0850694444444445e-05
2381 2287 1.0850694444444445e-05
2288 2288 4.3402777777777779e-05
2290 2288 1.0850694444444445e-05
2381 2288 1.0850694444444445e-05
2289 2289 4.3402777777777779e-05
2291 2289 1.0850694444444445e-05
2293 2289 1.0850694444444445e-05
2290 2290 4.3402777777777779e-05
2291 2290 1.0850694444444445e-05
2384 2290 1.0850694444444445e-05
2291 2291 4.3402777777777779e-05
2293 2291 1.0850694444444445e-05
2384 2291 1.0850694444444445e-05
2292 2292 4.3402777777777779e-05
2294 2292 1.0850694444444445e-05
2296 2292 1.0850694444444445e-05
2293 2293 4.3402777777777779e-05
2294 2293 1.0850694444444445e-05
2387 2293 1.0850694444444445e-05
2294 2294 4.3402777777777779e-05
2296 2294 1.0850694444444445e-05
2387 2294 1.0850694444444445e-05
2295 2295 4.3402777777777779e-05
2297 2295 1.0850694444444445e-05
2299 2295 1.0850694444444445e-05
2296 2296 4.3402777777777779e-05
2297 2296 1.0850694444444445e-05
2390 2296 1.0850694444444445e-05
2297 2297 4.3402777777777779e-05
2299 2297 1.0850694444444445e-05
2390 2297 1.0850694444444445e-05
2298 2298 4.3402777777777779e-05
2300 2298 1.0850694444444445e-05
2302 2298 1.0850694444444445e-05
2299 2299 4.3402777777777779e-05
2300 2299 1.0850694444444445e-05
2393 2299 1.0850694444444445e-05
2300 2300 4.3402777777777779e-05
2302 2300 1.0850694444444445e-05
2393 2300 1.0850694444444445e-05
2301 2301 4.3402777777777779e-05
2303 2301 1.0850694444444445e-05
2305 2301 1.0850694444444445e-05
2302 2302 4.3402777777777779e-05
2303 2302 1.0850694444444445e-05
2396 2302 1.0850694444444445e-05
2303 2303 4.3402777777777779e-05
2305 2303 1.0850694444444445e-05
2396 2303 1.0850694444444445e-05
2304 2304 4.3402777777777779e-05
2306 2304 1.0850694444444445e-05
2308 2304 1.0850694444444445e-05
2305 2305 4.3402777777777779e-05
2306 2305 1.0850694444444445e-05
2399 2305 1.0850694444444445e-05
2306 2306 4.3402777777777779e-05
2308 2306 1.0850694444444445e-05
2399 2306 1.0850694444444445e-05
2307 2307 4.3402777777777779e-05
2309 2307 1.0850694444444445e-05
2311 2307 1.0850694444444445e-05
2308 2308 4.3402777777777779e-05
2309 2308 1.0850694444444445e-05
2402 2308 1.0850694444444445e-05
2309 2309 4.3402777777777779e-05
2311 2309 1.0850694444444445e-05
2402 2309 1.0850694444444445e-05
2310 2310 4.3402777777777779e-05
2312 2310 1.0850694444444445e-05
2314 2310 1.0850694444444445e-05
2311 2311 4.3402777777777779e-05
2312 2311 1.0850694444444445e-05
2405 2311 1.0850694444444445e-05
2312 2312 4.3402777777777779e-05
2314 2312 1.0850694444444445e-05
2405 2312 1.0850694444444445e-05
2313 2313 4.3402777777777779e-05
2315 2313 1.0850694444444445e-05
2317 2313 1.0850694444444445e-05
2314 2314 4.3402777777777779e-05
2315 2314 1.0850694444444445e-05
2408 2314 1.0850694444444445e-05
2315 2315 4.3402777777777779e-05
2317 2315 1.0850694444444445e-05
2408 2315 1.0850694444444445e-05
2316 2316 4.3402777777777779e-05
2318 2316 1.0850694444444445e-05
2320 2316 1.0850694444444445e-05
2317 2317 4.3402777777777779e-05
2318 2317 1.0850694444444445e-05
2411 2317 1.0850694444444445e-05
2318 2318 4.3402777777777779e-05
2320 2318 1.0850694444444445e-05
2411 2318 1.0850694444444445e-05
2319 2319 4.3402777777777779e-05
2321 2319 1.0850694444444445e-05
2323 2319 1.0850694444444445e-05
2320 2320 4.3402777777777779e-05
2321 2320 1.0850694444444445e-05
2414 2320 1.0850694444444445e-05
2321 2321 4.3402777777777779e-05
2323 2321 1.0850694444444445e-05
2414 2321 1.0850694444444445e-05
2322 2322 4.3402777777777779e-05
2324 2322 1.0850694444444445e-05
2326 2322 1.0850694444444445e-05
2323 2323 4.3402777777777779e-05
2324 2323 1.0850694444444445e-05
2417 2323 1.0850694444444445e-05
2324 2324 4.3402777777777779e-05
2326 2324 1.0850694444444445e-05
2417 2324 1.0850694444444445e-05
2325 2325 4.3402777777777779e-05
2327 2325 1.0850694444444445e-05
2329 2325 1.0850694444444445e-05
2326 2326 4.3402777777777779e-05
2327 2326 1.0850694444444445e-05
2420 2326 1.0850694444444445e-05
2327 2327 4.3402777777777779e-05
2329 2327 1.0850694444444445e-05
2420 2327 1.0850694444444445e-05
2328 2328 4.3402777777777779e-05
2330 2328 1.0850694444444445e-05
2332 2328 1.0850694444444445e-05
2329 2329 4.3402777777777779e-05
2330 2329 1.0850694444444445e-05
2423 2329 1.0850694444444445e-05
2330 2330 4.3402777777777779e-05
2332 2330 1.0850694444444445e-05
2423 2330 1.0850694444444445e-05
2331 2331 4.3402777777777779e-05
2333 2331 1.0850694444444445e-05
2335 2331 1.0850694444444445e-05
2332 2332 4.3402777777777779e-05
2333 2332 1.0850694444444445e-05
2426 2332 1.0850694444444445e-05
2333 2333 4.3402777777777779e-05
2335 2333 1.0850694444444445e-05
2426 2333 1.0850694444444445e-05
2334 2334 4.3402777777777779e-05
2336 2334 1.0850694444444445e-05
2338 2334 1.0850694444444445e-05
2335 2335 4.3402777777777779e-05
2336 2335 1.0850694444444445e-05
2429 2335 1.0850694444444445e-05
2336 2336 4.3402777777777779e-05
2338 2336 1.0850694444444445e-05
2429 2336 1.0850694444444445e-05
2337 2337 4.3402777777777779e-05
2339 2337 1.0850694444444445e-05
2341 2337 1.0850694444444445e-05
2338 2338 4.3402777777777779e-05
2339 2338 1.0850694444444445e-05
2432 2338 1.0850694444444445e-05
2339 2339 4.3402777777777779e-05
2341 2339 1.0850694444444445e-05
2432 2339 1.0850694444444445e-05
2340 2340 4.3402777777777779e-05
2342 2340 1.0850694444444445e-05
2344 2340 1.0850694444444445e-05
2341 2341 4.3402777777777779e-05
2342 2341 1.0850694444444445e-05
2435 2341 1.0850694444444445e-05
2342 2342 4.3402777777777779e-05
2344 2342 1.0850694444444445e-05
2435 2342 1.0850694444444445e-05
2343 2343 4.3402777777777779e-05
2345 2343 1.0850694444444445e-05
2347 2343 1.0850694444444445e-05
2344 2344 4.3402777777777779e-05
2345 2344 1.0850694444444445e-05
2438 2344 1.0850694444444445e-05
2345 2345 4.3402777777777779e-05
2347 2345 1.0850694444444445e-05
2438 2345 1.0850694444444445e-05
2346 2346 4.3402777777777779e-05
2348 2346 1.0850694444444445e-05
2350 2346 1.0850694444444445e-05
2347 2347 4.3402777777777779e-05
2348 2347 1.0850694444444445e-05
2441 2347 1.0850694444444445e-05
2348 2348 4.3402777777777779e-05
2350 2348 1.0850694444444445e-05
2441 2348 1.0850694444444445e-05
2349 2349 4.3402777777777779e-05
2351 2349 1.0850694444444445e-05
2353 2349 1.0850694444444445e-05
2350 2350 4.3402777777777779e-05
2351 2350 1.0850694444444445e-05
2444 2350 1.0850694444444445e-05
2351 2351 4.3402777777777779e-05
2353 2351 1.0850694444444445e-05
2444 2351 1.0850694444444445e-05
2352 2352 4.3402777777777779e-05
2354 2352 1.0850694444444445e-05
2356 2352 1.0850694444444445e-05
2353 2353 4.3402777777777779e-05
2354 2353 1.0850694444444445e-05
2447 2353 1.0850694444444445e-05
2354 2354 4.3402777777777779e-05
2356 2354 1.0850694444444445e-05
2447 2354 1.0850694444444445e-05
2355 2355 4.3402777777777779e-05
2357 2355 1.0850694444444445e-05
2359 2355 1.0850694444444445e-05
2356 2356 4.3402777777777779e-05
2357 2356 1.0850694444444445e-05
2450 2356 1.0850694444444445e-05
2357 2357 4.3402777777777779e-05
2359 2357 1.0850694444444445e-05
2450 2357 1.0850694444444445e-05
2358 2358 4.3402777777777779e-05
2360 2358 1.0850694444444445e-05
2362 2358 1.0850694444444445e-05
2359 2359 4.3402777777777779e-05
2360 2359 1.0850694444444445e-05
2453 2359 1.0850694444444445e-05
2360 2360 4.3402777777777779e-05
2362 2360 1.0850694444444445e-05
2453 2360 1.0850694444444445e-05
2361 2361 4.3402777777777779e-05
2363 2361 1.0850694444444445e-05
2365 2361 1.0850694444444445e-05
2362 2362 4.3402777777777779e-05
2363 2362 1.0850694444444445e-05
2456 2362 1.0850694444444445e-05
2363 2363 4.3402777777777779e-05
2365 2363 1.0850694444444445e-05
2456 2363 1.0850694444444445e-05
2364 2364 4.3402777777777779e-05
2366 2364 1.0850694444444445e-05
2368 2364 1.0850694444444445e-05
2365 2365 4.3402777777777779e-05
2366 2365 1.0850694444444445e-05
2459 2365 1.0850694444444445e-05
2366 2366 4.3402777777777779e-05
2368 2366 1.0850694444444445e-05
2459 2366 1.0850694444444445e-05
2367 2367 4.3402777777777779e-05
2369 2367 1.0850694444444445e-05
2371 2367 1.0850694444444445e-05
2368 2368 4.3402777777777779e-05
2369 2368 1.0850694444444445e-05
2462 2368 1.0850694444444445e-05
2369 2369 4.3402777777777779e-05
2371 2369 1.0850694444444445e-05
2462 2369 1.0850694444444445e-05
2370 2370 4.3402777777777779e-05
2372 2370 1.0850694444444445e-05
2374 2370 1.0850694444444445e-05
2371 2371 4.3402777777777779e-05
2372 2371 1.0850694444444445e-05
2465 2371 1.0850694444444445e-05
2372 2372 4.3402777777777779e-05
2374 2372 1.0850694444444445e-05
2465 2372 1.0850694444444445e-05
2373 2373 4.3402777777777779e-05
2375 2373 1.0850694444444445e-05
2374 2374 4.3402777777777779e-05
2375 2374 1.0850694444444445e-05
2468 2374 1.0850694444444445e-05
2375 2375 4.3402777777777779e-05
2468 2375 1.0850694444444445e-05
2376 2376 4.3402777777777779e-05
2377 2376 1.0850694444444445e-05
2379 2376 1.0850694444444445e-05
2377 2377 4.3402777777777779e-05
2379 2377 1.0850694444444445e-05
2471 2377 1.0850694444444445e-05
2378 2378 4.3402777777777779e-05
2380 2378 1.0850694444444445e-05
2382 2378 1.0850694444444445e-05
2379 2379 4.3402777777777779e-05
2380 2379 1.0850694444444445e-05
2473 2379 1.0850694444444445e-05
2380 2380 4.3402777777777779e-05
2382 2380 1.0850694444444445e-05
2473 2380 1.0850694444444445e-05
2381 2381 4.3402777777777779e-05
2383 2381 1.0850694444444445e-05
2385 2381 1.0850694444444445e-05
2382 2382 4.3402777777777779e-05
2383 2382 1.0850694444444445e-05
2476 2382 1.0850694444444445e-05
2383 2383 4.3402777777777779e-05
2385 2383 1.0850694444444445e-05
2476 2383 1.0850694444444445e-05
2384 2384 4.3402777777777779e-05
2386 2384 1.0850694444444445e-05
2388 2384 1.0850694444444445e-05
2385 2385 4.3402777777777779e-05
2386 2385 1.0850694444444445e-05
2479 2385 1.0850694444444445e-05
2386 2386 4.3402777777777779e-05
2388 2386 1.0850694444444445e-05
2479 2386 1.0850694444444445e-05
2387 2387 4.3402777777777779e-05
2389 2387 1.0850694444444445e-05
2391 2387 1.0850694444444445e-05
2388 2388 4.3402777777777779e-05
2389 2388 1.0850694444444445e-05
2482 2388 1.0850694444444445e-05
2389 2389 4.3402777777777779e-05
2391 2389 1.0850694444444445e-05
2482 2389 1.0850694444444445e-05
2390 2390 4.3402777777777779e-05
2392 2390 1.0850694444444445e-05
2394 2390 1.0850694444444445e-05
2391 2391 4.3402777777777779e-05
2392 2391 1.0850694444444445e-05
2485 2391 1.0850694444444445e-05
2392 2392 4.3402777777777779e-05
2394 2392 1.0850694444444445e-05
2485 2392 1.0850694444444445e-05
2393 2393 4.3402777777777779e-05
2395 2393 1.0850694444444445e-05
2397 2393 1.0850694444444445e-05
2394 2394 4.3402777777777779e-05
2395 2394 1.0850694444444445e-05
2488 2394 1.0850694444444445e-05
2395 2395 4.3402777777777779e-05
2397 2395 1.0850694444444445e-05
2488 2395 1.0850694444444445e-05
2396 2396 4.3402777777777779e-05
2398 2396 1.0850694444444445e-05
2400 2396 1.0850694444444445e-05
2397 2397 4.3402777777777779e-05
2398 2397 1.0850694444444445e-05
2491 2397 1.0850694444444445e-05
2398 2398 4.3402777777777779e-05
2400 2398 1.0850694444444445e-05
2491 2398 1.0850694444444445e-05
2399 2399 4.3402777777777779e-05
2401 2399 1.0850694444444445e-05
2403 2399 1.0850694444444445e-05
2400 2400 4.3402777777777779e-05
2401 2400 1.0850694444444445e-05
2494 2400 1.0850694444444445e-05
2401 2401 4.3402777777777779e-05
2403 2401 1.0850694444444445e-05
2494 2401 1.0850694444444445e-05
2402 2402 4.3402777777777779e-05
2404 2402 1.0850694444444445e-05
2406 2402 1.0850694444444445e-05
2403 2403 4.3402777777777779e-05
2404 2403 1.0850694444444445e-05
2497 2403 1.0850694444444445e-05
2404 2404 4.3402777777777779e-05
2406 2404 1.0850694444444445e-05
2497 2404 1.0850694444444445e-05
2405 2405 4.3402777777777779e-05
2407 2405 1.0850694444444445e-05
2409 2405 1.0850694444444445e-05
2406 2406 4.3402777777777779e-05
2407 2406 1.0850694444444445e-05
2500 2406 1.0850694444444445e-05
2407 2407 4.3402777777777779e-05
2409 2407 1.0850694444444445e-05
2500 2407 1.0850694444444445e-05
2408 2408 4.3402777777777779e-05
2410 2408 1.0850694444444445e-05
2412 2408 1.0850694444444445e-05
2409 2409 4.3402777777777779e-05
2410 2409 1.0850694444444445e-05
2503 2409 1.0850694444444445e-05
2410 2410 4.3402777777777779e-05
2412 2410 1.0850694444444445e-05
2503 2410 1.0850694444444445e-05
2411 2411 4.3402777777777779e-05
2413 2411 1.0850694444444445e-05
2415 2411 1.0850694444444445e-05
2412 2412 4.3402777777777779e-05
2413 2412 1.0850694444444445e-05
2506 2412 1.0850694444444445e-05
2413 2413 4.3402777777777779e-05
2415 2413 1.0850694444444445e-05
2506 2413 1.0850694444444445e-05
2414 2414 4.3402777777777779e-05
2416 2414 1.0850694444444445e-05
2418 2414 1.0850694444444445e-05
2415 2415 4.3402777777777779e-05
2416 2415 1.0850694444444445e-05
2509 2415 1.0850694444444445e-05
2416 2416 4.3402777777777779e-05
2418 2416 1.0850694444444445e-05
2509 2416 1.0850694444444445e-05
2417 2417 4.3402777777777779e-05
2419 2417 1.0850694444444445e-05
2421 2417 1.0850694444444445e-05
2418 2418 4.3402777777777779e-05
2419 2418 1.0850694444444445e-05
2512 2418 1.0850694444444445e-05
2419 2419 4.3402777777777779e-05
2421 2419 1.0850694444444445e-05
2512 2419 1.0850694444444445e-05
2420 2420 4.3402777777777779e-05
2422 2420 1.0850694444444445e-05
2424 2420 1.0850694444444445e-05
2421 2421 4.3402777777777779e-05
2422 2421 1.0850694444444445e-05
2515 2421 1.0850694444444445e-05
2422 2422 4.3402777777777779e-05
2424 2422 1.0850694444444445e-05
2515 2422 1.0850694444444445e-05
2423 2423 4.3402777777777779e-05
2425 2423 1.0850694444444445e-05
2427 2423 1.0850694444444445e-05
2424 2424 4.3402777777777779e-05
2425 2424 1.0850694444444445e-05
2518 2424 1.0850694444444445e-05
2425 2425 4.3402777777777779e-05
2427 2425 1.0850694444444445e-05
2518 2425 1.0850694444444445e-05
2426 2426 4.3402777777777779e-05
2428 2426 1.0850694444444445e-05
2430 2426 1.0850694444444445e-05
2427 2427 4.3402777777777779e-05
2428 2427 1.0850694444444445e-05
2521 2427 1.0850694444444445e-05
2428 2428 4.3402777777777779e-05
2430 2428 1.0850694444444445e-05
2521 2428 1.0850694444444445e-05
2429 2429 4.3402777777777779e-05
2431 2429 1.0850694444444445e-05
2433 2429 1.0850694444444445e-05
2430 2430 4.3402777777777779e-05
2431 2430 1.0850694444444445e-05
2524 2430 1.0850694444444445e-05
2431 2431 4.3402777777777779e-05
2433 2431 1.0850694444444445e-05
2524 2431 1.0850694444444445e-05
2432 2432 4.3402777777777779e-05
2434 2432 1.0850694444444445e-05
2436 2432 1.0850694444444445e-05
2433 2433 4.3402777777777779e-05
2434 2433 1.0850694444444445e-05
2527 2433 1.0850694444444445e-05
2434 2434 4.3402777777777779e-05
2436 2434 1.0850694444444445e-05
2527 2434 1.0850694444444445e-05
2435 2435 4.3402777777777779e-05
2437 2435 1.0850694444444445e-05
2439 2435 1.0850694444444445e-05
2436 2436 4.3402777777777779e-05
2437 2436 1.0850694444444445e-05
2530 2436 1.0850694444444445e-05
2437 2437 4.3402777777777779e-05
2439 2437 1.0850694444444445e-05
2530 2437 1.0850694444444445e-05
2438 2438 4.3402777777777779e-05
2440 2438 1.0850694444444445e-05
2442 2438 1.0850694444444445e-05
2439 2439 4.3402777777777779e-05
2440 2439 1.0850694444444445e-05
2533 2439 1.0850694444444445e-05
2440 2440 4.3402777777777779e-05
2442 2440 1.0850694444444445e-05
2533 2440 1.0850694444444445e-05
2441 2441 4.3402777777777779e-05
2443 2441 1.0850694444444445e-05
2445 2441 1.0850694444444445e-05
2442 2442 4.3402777777777779e-05
2443 2442 1.0850694444444445e-05
2536 2442 1.0850694444444445e-05
2443 2443 4.3402777777777779e-05
2445 2443 1.0850694444444445e-05
2536 2443 1.0850694444444445e-05
2444 2444 4.3402777777777779e-05
2446 2444 1.0850694444444445e-05
2448 2444 1.0850694444444445e-05
2445 2445 4.3402777777777779e-05
2446 2445 1.0850694444444445e-05
2539 2445 1.0850694444444445e-05
2446 2446 4.3402777777777779e-05
2448 2446 1.0850694444444445e-05
2539 2446 1.0850694444444445e-05
2447 2447 4.3402777777777779e-05
2449 2447 1.0850694444444445e-05
2451 2447 1.0850694444444445e-05
2448 2448 4.3402777777777779e-05
2449 2448 1.0850694444444445e-05
2542 2448 1.0850694444444445e-05
2449 2449 4.3402777777777779e-05
2451 2449 1.0850694444444445e-05
2542 2449 1.0850694444444445e-05
2450 2450 4.3402777777777779e-05
2452 2450 1.0850694444444445e-05
2454 2450 1.0850694444444445e-05
2451 2451 4.3402777777777779e-05
2452 2451 1.0850694444444445e-05
2545 2451 1.0850694444444445e-05
2452 2452 4.3402777777777779e-05
2454 2452 1.0850694444444445e-05
2545 2452 1.0850694444444445e-05
2453 2453 4.3402777777777779e-05
2455 2453 1.0850694444444445e-05
2457 2453 1.0850694444444445e-05
2454 2454 4.3402777777777779e-05
2455 2454 1.0850694444444445e-05
2548 2454 1.0850694444444445e-05
2455 2455 4.3402777777777779e-05
2457 2455 1.0850694444444445e-05
2548 2455 1.0850694444444445e-05
2456 2456 4.3402777777777779e-05
2458 2456 1.0850694444444445e-05
2460 2456 1.0850694444444445e-05
2457 2457 4.3402777777777779e-05
2458 2457 1.0850694444444445e-05
2551 2457 1.0850694444444445e-05
2458 2458 4.3402777777777779e-05
2460 2458 1.0850694444444445e-05
2551 2458 1.0850694444444445e-05
2459 2459 4.3402777777777779e-05
2461 2459 1.0850694444444445e-05
2463 2459 1.0850694444444445e-05
2460 2460 4.3402777777777779e-05
2461 2460 1.0850694444444445e-05
2554 2460 1.0850694444444445e-05
2461 2461 4.3402777777777779e-05
2463 2461 1.0850694444444445e-05
2554 2461 1.0850694444444445e-05
2462 2462 4.3402777777777779e-05
2464 2462 1.0850694444444445e-05
2466 2462 1.0850694444444445e-05
2463 2463 4.3402777777777779e-05
2464 2463 1.0850694444444445e-05
2557 2463 1.0850694444444445e-05
2464 2464 4.3402777777777779e-05
2466 2464 1.0850694444444445e-05
2557 2464 1.0850694444444445e-05
2465 2465 4.3402777777777779e-05
2467 2465 1.0850694444444445e-05
2469 2465 1.0850694444444445e-05
2466 2466 4.3402777777777779e-05
2467 2466 1.0850694444444445e-05
2560 2466 1.0850694444444445e-05
2467 2467 4.3402777777777779e-05
2469 2467 1.0850694444444445e-05
2560 2467 1.0850694444444445e-05
2468 2468 4.3402777777777779e-05
2470 2468 1.0850694444444445e-05
2469 2469 4.3402777777777779e-05
2470 2469 1.0850694444444445e-05
2563 2469 1.0850694444444445e-05
2470 2470 4.3402777777777779e-05
2563 2470 1.0850694444444445e-05
2471 2471 4.3402777777777779e-05
2472 2471 1.0850694444444445e-05
2474 2471 1.0850694444444445e-05
2472 2472 4.3402777777777779e-05
2474 2472 1.0850694444444445e-05
2566 2472 1.0850694444444445e-05
2473 2473 4.3402777777777779e-05
2475 2473 1.0850694444444445e-05
2477 2473 1.0850694444444445e-05
2474 2474 4.3402777777777779e-05
2475 2474 1.0850694444444445e-05
2568 2474 1.0850694444444445e-05
2475 2475 4.3402777777777779e-05
2477 2475 1.0850694444444445e-05
2568 2475 1.0850694444444445e-05
2476 2476 4.3402777777777779e-05
2478 2476 1.0850694444444445e-05
2480 2476 1.0850694444444445e-05
2477 2477 4.3402777777777779e-05
2478 2477 1.0850694444444445e-05
2571 2477 1.0850694444444445e-05
2478 2478 4.3402777777777779e-05
2480 2478 1.0850694444444445e-05
2571 2478 1.0850694444444445e-05
2479 2479 4.3402777777777779e-05
2481 2479 1.0850694444444445e-05
2483 2479 1.0850694444444445e-05
2480 2480 4.3402777777777779e-05
2481 2480 1.0850694444444445e-05
2574 2480 1.0850694444444445e-05
2481 2481 4.3402777777777779e-05
2483 2481 1.0850694444444445e-05
2574 2481 1.0850694444444445e-05
2482 2482 4.3402777777777779e-05
2484 2482 1.0850694444444445e-05
2486 2482 1.0850694444444445e-05
2483 2483 4.3402777777777779e-05
2484 2483 1.0850694444444445e-05
2577 2483 1.0850694444444445e-05
2484 2484 4.3402777777777779e-05
2486 2484 1.0850694444444445e-05
2577 2484 1.0850694444444445e-05
2485 2485 4.3402777777777779e-05
2487 2485 1.0850694444444445e-05
2489 2485 1.0850694444444445e-05
2486 2486 4.3402777777777779e-05
2487 2486 1.0850694444444445e-05
2580 2486 1.0850694444444445e-05
2487 2487 4.3402777777777779e-05
2489 2487 1.0850694444444445e-05
2580 2487 1.0850694444444445e-05
2488 2488 4.3402777777777779e-05
2490 2488 1.0850694444444445e-05
2492 2488 1.0850694444444445e-05
2489 2489 4.3402777777777779e-05
2490 2489 1.0850694444444445e-05
2583 2489 1.0850694444444445e-05
2490 2490 4.3402777777777779e-05
2492 2490 1.0850694444444445e-05
2583 2490 1.0850694444444445e-05
2491 2491 4.3402777777777779e-05
2493 2491 1.0850694444444445e-05
2495 2491 1.0850694444444445e-05
2492 2492 4.3402777777777779e-05
2493 2492 1.0850694444444445e-05
2586 2492 1.0850694444444445e-05
2493 2493 4.3402777777777779e-05
2495 2493 1.0850694444444445e-05
2586 2493 1.0850694444444445e-05
2494 2494 4.3402777777777779e-05
2496 2494 1.0850694444444445e-05
2498 2494 1.0850694444444445e-05
2495 2495 4.3402777777777779e-05
2496 2495 1.0850694444444445e-05
2589 2495 1.0850694444444445e-05
2496 2496 4.3402777777777779e-05
2498 2496 1.0850694444444445e-05
2589 2496 1.0850694444444445e-05
2497 2497 4.3402777777777779e-05
2499 2497 1.0850694444444445e-05
2501 2497 1.0850694444444445e-05
2498 2498 4.3402777777777779e-05
2499 2498 1.0850694444444445e-05
2592 2498 1.0850694444444445e-05
2499 2499 4.3402777777777779e-05
2501 2499 1.0850694444444445e-05
2592 2499 1.0850694444444445e-05
2500 2500 4.3402777777777779e-05
2502 2500 1.0850694444444445e-05
2504 2500 1.0850694444444445e-05
2501 2501 4.3402777777777779e-05
2502 2501 1.0850694444444445e-05
2595 2501 1.0850694444444445e-05
2502 2502 4.3402777777777779e-05
2504 2502 1.0850694444444445e-05
2595 2502 1.0850694444444445e-05
2503 2503 4.3402777777777779e-05
2505 2503 1.0850694444444445e-05
2507 2503 1.0850694444444445e-05
2504 2504 4.3402777777777779e-05
2505 2504 1.0850694444444445e-05
2598 2504 1.0850694444444445e-05
2505 2505 4.3402777777777779e-05
2507 2505 1.0850694444444445e-05
2598 2505 1.0850694444444445e-05
2506 2506 4.3402777777777779e-05
2508 2506 1.0850694444444445e-05
2510 2506 1.0850694444444445e-05
2507 2507 4.3402777777777779e-05
2508 2507 1.0850694444444445e-05
2601 2507 1.0850694444444445e-05
2508 2508 4.3402777777777779e-05
2510 2508 1.0850694444444445e-05
2601 2508 1.0850694444444445e-05
2509 2509 4.3402777777777779e-05
2511 2509 1.0850694444444445e-05
2513 2509 1.0850694444444445e-05
2510 2510 4.3402777777777779e-05
2511 2510 1.0850694444444445e-05
2604 2510 1.0850694444444445e-05
2511 2511 4.3402777777777779e-05
2513 2511 1.0850694444444445e-05
2604 2511 1.0850694444444445e-05
2512 2512 4.3402777777777779e-05
2514 2512 1.0850694444444445e-05
2516 2512 1.0850694444444445e-05
2513 2513 4.3402777777777779e-05
2514 2513 1.0850694444444445e-05
2607 2513 1.0850694444444445e-05
2514 2514 4.3402777777777779e-05
2516 2514 1.0850694444444445e-05
2607 2514 1.0850694444444445e-05
2515 2515 4.3402777777777779e-05
2517 2515 1.0850694444444445e-05
2519 2515 1.0850694444444445e-05
2516 2516 4.3402777777777779e-05
2517 2516 1.0850694444444445e-05
2610 2516 1.0850694444444445e-05
2517 2517 4.3402777777777779e-05
2519 2517 1.0850694444444445e-05
2610 2517 1.0850694444444445e-05
2518 2518 4.3402777777777779e-05
2520 2518 1.0850694444444445e-05
2522 2518 1.0850694444444445e-05
2519 2519 4.3402777777777779e-05
2520 2519 1.0850694444444445e-05
2613 2519 1.0850694444444445e-05
2520 2520 4.3402777777777779e-05
2522 2520 1.0850694444444445e-05
2613 2520 1.0850694444444445e-05
2521 2521 4.3402777777777779e-05
2523 2521 1.0850694444444445e-05
2525 2521 1.0850694444444445e-05
2522 2522 4.3402777777777779e-05
2523 2522 1.0850694444444445e-05
2616 2522 1.0850694444444445e-05
2523 2523 4.3402777777777779e-05
2525 2523 1.0850694444444445e-05
2616 2523 1.0850694444444445e-05
2524 2524 4.3402777777777779e-05
2526 2524 1.0850694444444445e-05
2528 2524 1.0850694444444445e-05
2525 2525 4.3402777777777779e-05
2526 2525 1.0850694444444445e-05
2619 2525 1.0850694444444445e-05
2526 2526 4.3402777777777779e-05
2528 2526 1.0850694444444445e-05
2619 2526 1.0850694444444445e-05
2527 2527 4.3402777777777779e-05
2529 2527 1.0850694444444445e-05
2531 2527 1.0850694444444445e-05
2528 2528 4.3402777777777779e-05
2529 2528 1.0850694444444445e-05
2622 2528 1.0850694444444445e-05
2529 2529 4.3402777777777779e-05
2531 2529 1.0850694444444445e-05
2622 2529 1.0850694444444445e-05
2530 2530 4.3402777777777779e-05
2532 2530 1.0850694444444445e-05
2534 2530 1.0850694444444445e-05
2531 2531 4.3402777777777779e-05
2532 2531 1.0850694444444445e-05
2625 2531 1.0850694444444445e-05
2532 2532 4.3402777777777779e-05
2534 2532 1.0850694444444445e-05
2625 2532 1.0850694444444445e-05
2533 2533 4.3402777777777779e-05
2535 2533 1.0850694444444445e-05
2537 2533 1.0850694444444445e-05
2534 2534 4.3402777777777779e-05
2535 2534 1.0850694444444445e-05
2628 2534 1.0850694444444445e-05
2535 2535 4.3402777777777779e-05
2537 2535 1.0850694444444445e-05
2628 2535 1.0850694444444445e-05
2536 2536 4.3402777777777779e-05
2538 2536 1.0850694444444445e-05
2540 2536 1.0850694444444445e-05
2537 2537 4.3402777777777779e-05
2538 2537 1.0850694444444445e-05
2631 2537 1.0850694444444445e-05
2538 2538 4.3402777777777779e-05
2540 2538 1.0850694444444445e-05
2631 2538 1.0850694444444445e-05
2539 2539 4.3402777777777779e-05
2541 2539 1.0850694444444445e-05
2543 2539 1.0850694444444445e-05
2540 2540 4.3402777777777779e-05
2541 2540 1.0850694444444445e-05
2634 2540 1.0850694444444445e-05
2541 2541 4.3402777777777779e-05
2543 2541 1.0850694444444445e-05
2634 2541 1.0850694444444445e-05
2542 2542 4.3402777777777779e-05
2544 2542 1.0850694444444445e-05
2546 2542 1.0850694444444445e-05
2543 2543 4.3402777777777779e-05
2544 2543 1.0850694444444445e-05
2637 2543 1.0850694444444445e-05
2544 2544 4.3402777777777779e-05
2546 2544 1.0850694444444445e-05
2637 2544 1.0850694444444445e-05
2545 2545 4.3402777777777779e-05
2547 2545 1.0850694444444445e-05
2549 2545 1.0850694444444445e-05
2546 2546 4.3402777777777779e-05
2547 2546 1.0850694444444445e-05
2640 2546 1.0850694444444445e-05
2547 2547 4.3402777777777779e-05
2549 2547 1.0850694444444445e-05
2640 2547 1.0850694444444445e-05
2548 2548 4.3402777777777779e-05
2550 2548 1.0850694444444445e-05
2552 2548 1.0850694444444445e-05
2549 2549 4.3402777777777779e-05
2550 2549 1.0850694444444445e-05
2643 2549 1.0850694444444445e-05
2550 2550 4.3402777777777779e-05
2552 2550 1.0850694444444445e-05
2643 2550 1.0850694444444445e-05
2551 2551 4.3402777777777779e-05
2553 2551 1.0850694444444445e-05
2555 2551 1.0850694444444445e-05
2552 2552 4.3402777777777779e-05
2553 2552 1.0850694444444445e-05
2646 2552 1.0850694444444445e-05
2553 2553 4.3402777777777779e-05
2555 2553 1.0850694444444445e-05
2646 2553 1.0850694444444445e-05
2554 2554 4.3402777777777779e-05
2556 2554 1.0850694444444445e-05
2558 2554 1.0850694444444445e-05
2555 2555 4.3402777777777779e-05
2556 2555 1.0850694444444445e-05
2649 2555 1.0850694444444445e-05
2556 2556 4.3402777777777779e-05
2558 2556 1.0850694444444445e-05
2649 2556 1.0850694444444445e-05
2557 2557 4.3402777777777779e-05
2559 2557 1.0850694444444445e-05
2561 2557 1.0850694444444445e-05
2558 2558 4.3402777777777779e-05
2559 2558 1.0850694444444445e-05
2652 2558 1.0850694444444445e-05
2559 2559 4.3402777777777779e-05
2561 2559 1.0850694444444445e-05
2652 2559 1.0850694444444445e-05
2560 2560 4.3402777777777779e-05
2562 2560 1.0850694444444445e-05
2564 2560 1.0850694444444445e-05
2561 2561 4.3402777777777779e-05
2562 2561 1.0850694444444445e-05
2655 2561 1.0850694444444445e-05
2562 2562 4.3402777777777779e-05
2564 2562 1.0850694444444445e-05
2655 2562 1.0850694444444445e-05
2563 2563 4.3402777777777779e-05
2565 2563 1.0850694444444445e-05
2564 2564 4.3402777777777779e-05
2565 2564 1.0850694444444445e-05
2658 2564 1.0850694444444445e-05
2565 2565 4.3402777777777779e-05
2658 2565 1.0850694444444445e-05
2566 2566 4.3402777777777779e-05
2567 2566 1.0850694444444445e-05
2569 2566 1.0850694444444445e-05
2567 2567 4.3402777777777779e-05
2569 2567 1.0850694444444445e-05
2661 2567 1.0850694444444445e-05
2568 2568 4.3402777777777779e-05
2570 2568 1.0850694444444445e-05
2572 2568 1.0850694444444445e-05
2569 2569 4.3402777777777779e-05
2570 2569 1.0850694444444445e-05
2663 2569 1.0850694444444445e-05
2570 2570 4.3402777777777779e-05
2572 2570 1.0850694444444445e-05
2663 2570 1.0850694444444445e-05
2571 2571 4.3402777777777779e-05
2573 2571 1.0850694444444445e-05
2575 2571 1.0850694444444445e-05
2572 2572 4.3402777777777779e-05
2573 2572 1.0850694444444445e-05
2666 2572 1.0850694444444445e-05
2573 2573 4.3402777777777779e-05
2575 2573 1.0850694444444445e-05
2666 2573 1.0850694444444445e-05
2574 2574 4.3402777777777779e-05
2576 2574 1.0850694444444445e-05
2578 2574 1.0850694444444445e-05
2575 2575 4.3402777777777779e-05
2576 2575 1.0850694444444445e-05
2669 2575 1.0850694444444445e-05
2576 2576 4.3402777777777779e-05
2578 2576 1.0850694444444445e-05
2669 2576 1.0850694444444445e-05
2577 2577 4.3402777777777779e-05
2579 2577 1.0850694444444445e-05
2581 2577 1.0850694444444445e-05
2578 2578 4.3402777777777779e-05
2579 2578 1.0850694444444445e-05
2672 2578 1.0850694444444445e-05
2579 2579 4.3402777777777779e-05
2581 2579 1.0850694444444445e-05
2672 2579 1.0850694444444445e-05
2580 2580 4.3402777777777779e-05
2582 2580 1.0850694444444445e-05
2584 2580 1.0850694444444445e-05
2581 2581 4.3402777777777779e-05
2582 2581 1.0850694444444445e-05
2675 2581 1.0850694444444445e-05
2582 2582 4.3402777777777779e-05
2584 2582 1.0850694444444445e-05
2675 2582 1.0850694444444445e-05
2583 2583 4.3402777777777779e-05
2585 2583 1.0850694444444445e-05
2587 2583 1.0850694444444445e-05
2584 2584 4.3402777777777779e-05
2585 2584 1.0850694444444445e-05
2678 2584 1.0850694444444445e-05
2585 2585 4.3402777777777779e-05
2587 2585 1.0850694444444445e-05
2678 2585 1.0850694444444445e-05
2586 2586 4.3402777777777779e-05
2588 2586 1.0850694444444445e-05
2590 2586 1.0850694444444445e-05
2587 2587 4.3402777777777779e-05
2588 2587 1.0850694444444445e-05
2681 2587 1.0850694444444445e-05
2588 2588 4.3402777777777779e-05
2590 2588 1.0850694444444445e-05
2681 2588 1.0850694444444445e-05
2589 2589 4.3402777777777779e-05
2591 2589 1.0850694444444445e-05
2593 2589 1.0850694444444445e-05
2590 2590 4.3402777777777779e-05
2591 2590 1.0850694444444445e-05
2684 2590 1.0850694444444445e-05
2591 2591 4.3402777777777779e-05
2593 2591 1.0850694444444445e-05
2684 2591 1.0850694444444445e-05
2592 2592 4.3402777777777779e-05
2594 2592 1.0850694444444445e-05
2596 2592 1.0850694444444445e-05
2593 2593 4.3402777777777779e-05
2594 2593 1.0850694444444445e-05
2687 2593 1.0850694444444445e-05
2594 2594 4.3402777777777779e-05
2596 2594 1.0850694444444445e-05
2687 2594 1.0850694444444445e-05
2595 2595 4.3402777777777779e-05
2597 2595 1.0850694444444445e-05
2599 2595 1.0850694444444445e-05
2596 2596 4.3402777777777779e-05
2597 2596 1.0850694444444445e-05
2690 2596 1.0850694444444445e-05
2597 2597 4.3402777777777779e-05
2599 2597 1.0850694444444445e-05
2690 2597 1.0850694444444445e-05
2598 2598 4.3402777777777779e-05
2600 2598 1.0850694444444445e-05
2602 2598 1.0850694444444445e-05
2599 2599 4.3402777777777779e-05
2600 2599 1.0850694444444445e-05
2693 2599 1.0850694444444445e-05
2600 2600 4.3402777777777779e-05
2602 2600 1.0850694444444445e-05
2693 2600 1.0850694444444445e-05
2601 2601 4.3402777777777779e-05
2603 2601 1.0850694444444445e-05
2605 2601 1.0850694444444445e-05
2602 2602 4.3402777777777779e-05
2603 2602 1.0850694444444445e-05
2696 2602 1.0850694444444445e-05
2603 2603 4.3402777777777779e-05
2605 2603 1.0850694444444445e-05
2696 2603 1.0850694444444445e-05
2604 2604 4.3402777777777779e-05
2606 2604 1.0850694444444445e-05
2608 2604 1.0850694444444445e-05
2605 2605 4.3402777777777779e-05
2606 2605 1.0850694444444445e-05
2699 2605 1.0850694444444445e-05
2606 2606 4.3402777777777779e-05
2608 2606 1.0850694444444445e-05
2699 2606 1.0850694444444445e-05
2607 2607 4.3402777777777779e-05
2609 2607 1.0850694444444445e-05
2611 2607 1.0850694444444445e-05
2608 2608 4.3402777777777779e-05
2609 2608 1.0850694444444445e-05
2702 2608 1.0850694444444445e-05
2609 2609 4.3402777777777779e-05
2611 2609 1.0850694444444445e-05
2702 2609 1.0850694444444445e-05
2610 2610 4.3402777777777779e-05
2612 2610 1.0850694444444445e-05
2614 2610 1.0850694444444445e-05
2611 2611 4.3402777777777779e-05
2612 2611 1.0850694444444445e-05
2705 2611 1.0850694444444445e-05
2612 2612 4.3402777777777779e-05
2614 2612 1.0850694444444445e-05
2705 2612 1.0850694444444445e-05
2613 2613 4.3402777777777779e-05
2615 2613 1.0850694444444445e-05
2617 2613 1.0850694444444445e-05
2614 2614 4.3402777777777779e-05
2615 2614 1.0850694444444445e-05
2708 2614 1.0850694444444445e-05
2615 2615 4.3402777777777779e-05
2617 2615 1.0850694444444445e-05
2708 2615 1.0850694444444445e-05
2616 2616 4.3402777777777779e-05
2618 2616 1.0850694444444445e-05
2620 2616 1.0850694444444445e-05
2617 2617 4.3402777777777779e-05
2618 2617 1.0850694444444445e-05
2711 2617 1.0850694444444445e-05
2618 2618 4.3402777777777779e-05
2620 2618 1.0850694444444445e-05
2711 2618 1.0850694444444445e-05
2619 2619 4.3402777777777779e-05
2621 2619 1.0850694444444445e-05
2623 2619 1.0850694444444445e-05
2620 2620 4.3402777777777779e-05
2621 2620 1.0850694444444445e-05
2714 2620 1.0850694444444445e-05
2621 2621 4.3402777777777779e-05
2623 2621 1.0850694444444445e-05
2714 2621 1.0850694444444445e-05
2622 2622 4.3402777777777779e-05
2624 2622 1.0850694444444445e-05
2626 2622 1.0850694444444445e-05
2623 2623 4.3402777777777779e-05
2624 2623 1.0850694444444445e-05
2717 2623 1.0850694444444445e-05
2624 2624 4.3402777777777779e-05
2626 2624 1.0850694444444445e-05
2717 2624 1.0850694444444445e-05
2625 2625 4.3402777777777779e-05
2627 2625 1.0850694444444445e-05
2629 2625 1.0850694444444445e-05
2626 2626 4.3402777777777779e-05
2627 2626 1.0850694444444445e-05
2720 2626 1.0850694444444445e-05
2627 2627 4.3402777777777779e-05
2629 2627 1.0850694444444445e-05
2720 2627 1.0850694444444445e-05
2628 2628 4.3402777777777779e-05
2630 2628 1.0850694444444445e-05
2632 2628 1.0850694444444445e-05
2629 2629 4.3402777777777779e-05
2630 2629 1.0850694444444445e-05
2723 2629 1.0850694444444445e-05
2630 2630 4.3402777777777779e-05
2632 2630 1.0850694444444445e-05
2723 2630 1.0850694444444445e-05
2631 2631 4.3402777777777779e-05
2633 2631 1.0850694444444445e-05
2635 2631 1.0850694444444445e-05
2632 2632 4.3402777777777779e-05
2633 2632 1.0850694444444445e-05
2726 2632 1.0850694444444445e-05
2633 2633 4.3402777777777779e-05
2635 2633 1.0850694444444445e-05
2726 2633 1.0850694444444445e-05
2634 2634 4.3402777777777779e-05
2636 2634 1.0850694444444445e-05
2638 2634 1.0850694444444445e-05
2635 2635 4.3402777777777779e-05
2636 2635 1.0850694444444445e-05
2729 2635 1.0850694444444445e-05
2636 2636 4.3402777777777779e-05
2638 2636 1.0850694444444445e-05
2729 2636 1.0850694444444445e-05
2637 2637 4.3402777777777779e-05
2639 2637 1.0850694444444445e-05
2641 2637 1.0850694444444445e-05
2638 2638 4.3402777777777779e-05
2639 2638 1.0850694444444445e-05
2732 2638 1.0850694444444445e-05
2639 2639 4.3402777777777779e-05
2641 2639 1.0850694444444445e-05
2732 2639 1.0850694444444445e-05
2640 2640 4.3402777777777779e-05
2642 2640 1.0850694444444445e-05
2644 2640 1.0850694444444445e-05
2641 2641 4.3402777777777779e-05
2642 2641 1.0850694444444445e-05
2735 2641 1.0850694444444445e-05
2642 2642 4.3402777777777779e-05
2644 2642 1.0850694444444445e-05
2735 2642 1.0850694444444445e-05
2643 2643 4.3402777777777779e-05
2645 2643 1.0850694444444445e-05
2647 2643 1.0850694444444445e-05
2644 2644 4.3402777777777779e-05
2645 2644 1.0850694444444445e-05
2738 2644 1.0850694444444445e-05
2645 2645 4.3402777777777779e-05
2647 2645 1.0850694444444445e-05
2738 2645 1.0850694444444445e-05
2646 2646 4.3402777777777779e-05
2648 2646 1.0850694444444445e-05
2650 2646 1.0850694444444445e-05
2647 2647 4.3402777777777779e-05
2648 2647 1.0850694444444445e-05
2741 2647 1.0850694444444445e-05
2648 2648 4.3402777777777779e-05
2650 2648 1.0850694444444445e-05
2741 2648 1.0850694444444445e-05
2649 2649 4.3402777777777779e-05
2651 2649 1.0850694444444445e-05
2653 2649 1.0850694444444445e-05
2650 2650 4.3402777777777779e-05
2651 2650 1.0850694444444445e-05
2744 2650 1.0850694444444445e-05
2651 2651 4.3402777777777779e-05
2653 2651 1.0850694444444445e-05
2744 2651 1.0850694444444445e-05
2652 2652 4.3402777777777779e-05
2654 2652 1.0850694444444445e-05
2656 2652 1.0850694444444445e-05
2653 2653 4.3402777777777779e-05
2654 2653 1.0850694444444445e-05
2747 2653 1.0850694444444445e-05
2654 2654 4.3402777777777779e-05
2656 2654 1.0850694444444445e-05
2747 2654 1.0850694444444445e-05
2655 2655 4.3402777777777779e-05
2657 2655 1.0850694444444445e-05
2659 2655 1.0850694444444445e-05
2656 2656 4.3402777777777779e-05
2657 2656 1.0850694444444445e-05
2750 2656 1.0850694444444445e-05
2657 2657 4.3402777777777779e-05
2659 2657 1.0850694444444445e-05
2750 2657 1.0850694444444445e-05
2658 2658 4.3402777777777779e-05
2660 2658 1.0850694444444445e-05
2659 2659 4.3402777777777779e-05
2660 2659 1.0850694444444445e-05
2753 2659 1.0850694444444445e-05
2660 2660 4.3402777777777779e-05
2753 2660 1.0850694444444445e-05
2661 2661 4.3402777777777779e-05
2662 2661 1.0850694444444445e-05
2664 2661 1.0850694444444445e-05
2662 2662 4.3402777777777779e-05
2664 2662 1.0850694444444445e-05
2756 2662 1.0850694444444445e-05
2663 2663 4.3402777777777779e-05
2665 2663 1.0850694444444445e-05
2667 2663 1.0850694444444445e-05
2664 2664 4.3402777777777779e-05
2665 2664 1.0850694444444445e-05
2758 2664 1.0850694444444445e-05
2665 2665 4.3402777777777779e-05
2667 2665 1.0850694444444445e-05
2758 2665 1.0850694444444445e-05
2666 2666 4.3402777777777779e-05
2668 2666 1.0850694444444445e-05
2670 2666 1.0850694444444445e-05
2667 2667 4.3402777777777779e-05
2668 2667 1.0850694444444445e-05
2761 2667 1.0850694444444445e-05
2668 2668 4.3402777777777779e-05
2670 2668 1.0850694444444445e-05
2761 2668 1.0850694444444445e-05
2669 2669 4.3402777777777779e-05
2671 2669 1.0850694444444445e-05
2673 2669 1.0850694444444445e-05
2670 2670 4.3402777777777779e-05
2671 2670 1.0850694444444445e-05
2764 2670 1.0850694444444445e-05
2671 2671 4.3402777777777779e-05
2673 2671 1.0850694444444445e-05
2764 2671 1.0850694444444445e-05
2672 2672 4.3402777777777779e-05
2674 2672 1.0850694444444445e-05
2676 2672 1.0850694444444445e-05
2673 2673 4.3402777777777779e-05
2674 2673 1.0850694444444445e-05
2767 2673 1.0850694444444445e-05
2674 2674 4.3402777777777779e-05
2676 2674 1.0850694444444445e-05
2767 2674 1.0850694444444445e-05
2675 2675 4.3402777777777779e-05
2677 2675 1.0850694444444445e-05
2679 2675 1.0850694444444445e-05
2676 2676 4.3402777777777779e-05
2677 2676 1.0850694444444445e-05
2770 2676 1.0850694444444445e-05
2677 2677 4.3402777777777779e-05
2679 2677 1.0850694444444445e-05
2770 2677 1.0850694444444445e-05
2678 2678 4.3402777777777779e-05
2680 2678 1.0850694444444445e-05
2682 2678 1.0850694444444445e-05
2679 2679 4.3402777777777779e-05
2680 2679 1.0850694444444445e-05
2773 2679 1.0850694444444445e-05
2680 2680 4.3402777777777779e-05
2682 2680 1.0850694444444445e-05
2773 2680 1.0850694444444445e-05
2681 2681 4.3402777777777779e-05
2683 2681 1.0850694444444445e-05
2685 2681 1.0850694444444445e-05
2682 2682 4.3402777777777779e-05
2683 2682 1.0850694444444445e-05
2776 2682 1.0850694444444445e-05
2683 2683 4.3402777777777779e-05
2685 2683 1.0850694444444445e-05
2776 2683 1.0850694444444445e-05
2684 2684 4.3402777777777779e-05
2686 2684 1.0850694444444445e-05
2688 2684 1.0850694444444445e-05
2685 2685 4.3402777777777779e-05
2686 2685 1.0850694444444445e-05
2779 2685 1.0850694444444445e-05
2686 2686 4.3402777777777779e-05
2688 2686 1.0850694444444445e-05
2779 2686 1.0850694444444445e-05
2687 2687 4.3402777777777779e-05
2689 2687 1.0850694444444445e-05
2691 2687 1.0850694444444445e-05
2688 2688 4.3402777777777779e-05
2689 2688 1.0850694444444445e-05
2782 2688 1.0850694444444445e-05
2689 2689 4.3402777777777779e-05
2691 2689 1.0850694444444445e-05
2782 2689 1.0850694444444445e-05
2690 2690 4.3402777777777779e-05
2692 2690 1.0850694444444445e-05
2694 2690 1.0850694444444445e-05
2691 2691 4.3402777777777779e-05
2692 2691 1.0850694444444445e-05
2785 2691 1.0850694444444445e-05
2692 2692 4.3402777777777779e-05
2694 2692 1.0850694444444445e-05
2785 2692 1.0850694444444445e-05
2693 2693 4.3402777777777779e-05
2695 2693 1.0850694444444445e-05
2697 2693 1.0850694444444445e-05
2694 2694 4.3402777777777779e-05
2695 2694 1.0850694444444445e-05
2788 2694 1.0850694444444445e-05
2695 2695 4.3402777777777779e-05
2697 2695 1.0850694444444445e-05
2788 2695 1.0850694444444445e-05
2696 2696 4.3402777777777779e-05
2698 2696 1.0850694444444445e-05
2700 2696 1.0850694444444445e-05
2697 2697 4.3402777777777779e-05
2698 2697 1.0850694444444445e-05
2791 2697 1.0850694444444445e-05
2698 2698 4.3402777777777779e-05
2700 2698 1.0850694444444445e-05
2791 2698 1.0850694444444445e-05
2699 2699 4.3402777777777779e-05
2701 2699 1.0850694444444445e-05
2703 2699 1.0850694444444445e-05
2700 2700 4.3402777777777779e-05
2701 2700 1.0850694444444445e-05
2794 2700 1.0850694444444445e-05
2701 2701 4.3402777777777779e-05
2703 2701 1.0850694444444445e-05
2794 2701 1.0850694444444445e-05
2702 2702 4.3402777777777779e-05
2704 2702 1.0850694444444445e-05
2706 2702 1.0850694444444445e-05
2703 2703 4.3402777777777779e-05
2704 2703 1.0850694444444445e-05
2797 2703 1.0850694444444445e-05
2704 2704 4.3402777777777779e-05
2706 2704 1.0850694444444445e-05
2797 2704 1.0850694444444445e-05
2705 2705 4.3402777777777779e-05
2707 2705 1.0850694444444445e-05
2709 2705 1.0850694444444445e-05
2706 2706 4.3402777777777779e-05
2707 2706 1.0850694444444445e-05
2800 2706 1.0850694444444445e-05
2707 2707 4.3402777777777779e-05
2709 2707 1.0850694444444445e-05
2800 2707 1.0850694444444445e-05
2708 2708 4.3402777777777779e-05
2710 2708 1.0850694444444445e-05
2712 2708 1.0850694444444445e-05
2709 2709 4.3402777777777779e-05
2710 2709 1.0850694444444445e-05
2803 2709 1.0850694444444445e-05
2710 2710 4.3402777777777779e-05
2712 2710 1.0850694444444445e-05
2803 2710 1.0850694444444445e-05
2711 2711 4.3402777777777779e-05
2713 2711 1.0850694444444445e-05
2715 2711 1.0850694444444445e-05
2712 2712 4.3402777777777779e-05
2713 2712 1.0850694444444445e-05
2806 2712 1.0850694444444445e-05
2713 2713 4.3402777777777779e-05
2715 2713 1.0850694444444445e-05
2806 2713 1.0850694444444445e-05
2714 2714 4.3402777777777779e-05
2716 2714 1.0850694444444445e-05
2718 2714 1.0850694444444445e-05
2715 2715 4.3402777777777779e-05
2716 2715 1.0850694444444445e-05
2809 2715 1.0850694444444445e-05
2716 2716 4.3402777777777779e-05
2718 2716 1.0850694444444445e-05
2809 2716 1.0850694444444445e-05
2717 2717 4.3402777777777779e-05
2719 2717 1.0850694444444445e-05
2721 2717 1.0850694444444445e-05
2718 2718 4.3402777777777779e-05
2719 2718 1.0850694444444445e-05
2812 2718 1.0850694444444445e-05
2719 2719 4.3402777777777779e-05
2721 2719 1.0850694444444445e-05
2812 2719 1.0850694444444445e-05
2720 2720 4.3402777777777779e-05
2722 2720 1.0850694444444445e-05
2724 2720 1.0850694444444445e-05
2721 2721 4.3402777777777779e-05
2722 2721 1.0850694444444445e-05
2815 2721 1.0850694444444445e-05
2722 2722 4.3402777777777779e-05
2724 2722 1.0850694444444445e-05
2815 2722 1.0850694444444445e-05
2723 2723 4.3402777777777779e-05
2725 2723 1.0850694444444445e-05
2727 2723 1.0850694444444445e-05
2724 2724 4.3402777777777779e-05
2725 2724 1.0850694444444445e-05
2818 2724 1.0850694444444445e-05
2725 2725 4.3402777777777779e-05
2727 2725 1.0850694444444445e-05
2818 2725 1.0850694444444445e-05
2726 2726 4.3402777777777779e-05
2728 2726 1.0850694444444445e-05
2730 2726 1.0850694444444445e-05
2727 2727 4.3402777777777779e-05
2728 2727 1.0850694444444445e-05
2821 2727 1.0850694444444445e-05
2728 2728 4.3402777777777779e-05
2730 2728 1.0850694444444445e-05
2821 2728 1.0850694444444445e-05
2729 2729 4.3402777777777779e-05
2731 2729 1.0850694444444445e-05
2733 2729 1.0850694444444445e-05
2730 2730 4.3402777777777779e-05
2731 2730 1.0850694444444445e-05
2824 2730 1.0850694444444445e-05
2731 2731 4.3402777777777779e-05
2733 2731 1.0850694444444445e-05
2824 2731 1.0850694444444445e-05
2732 2732 4.3402777777777779e-05
2734 2732 1.0850694444444445e-05
2736 2732 1.0850694444444445e-05
2733 2733 4.3402777777777779e-05
2734 2733 1.0850694444444445e-05
2827 2733 1.0850694444444445e-05
2734 2734 4.3402777777777779e-05
2736 2734 1.0850694444444445e-05
2827 2734 1.0850694444444445e-05
2735 2735 4.3402777777777779e-05
2737 2735 1.0850694444444445e-05
2739 2735 1.0850694444444445e-05
2736 2736 4.3402777777777779e-05
2737 2736 1.0850694444444445e-05
2830 2736 1.0850694444444445e-05
2737 2737 4.3402777777777779e-05
2739 2737 1.0850694444444445e-05
2830 2737 1.0850694444444445e-05
2738 2738 4.3402777777777779e-05
2740 2738 1.0850694444444445e-05
2742 2738 1.0850694444444445e-05
2739 2739 4.3402777777777779e-05
2740 2739 1.0850694444444445e-05
2833 2739 1.0850694444444445e-05
2740 2740 4.3402777777777779e-05
2742 2740 1.0850694444444445e-05
2833 2740 1.0850694444444445e-05
2741 2741 4.3402777777777779e-05
2743 2741 1.0850694444444445e-05
2745 2741 1.0850694444444445e-05
2742 2742 4.3402777777777779e-05
2743 2742 1.0850694444444445e-05
2836 2742 1.0850694444444445e-05
2743 2743 4.3402777777777779e-05
2745 2743 1.0850694444444445e-05
2836 2743 1.0850694444444445e-05
2744 2744 4.3402777777777779e-05
2746 2744 1.0850694444444445e-05
2748 2744 1.0850694444444445e-05
2745 2745 4.3402777777777779e-05
2746 2745 1.0850694444444445e-05
2839 2745 1.0850694444444445e-05
2746 2746 4.3402777777777779e-05
2748 2746 1.0850694444444445e-05
2839 2746 1.0850694444444445e-05
2747 2747 4.3402777777777779e-05
2749 2747 1.0850694444444445e-05
2751 2747 1.0850694444444445e-05
2748 2748 4.3402777777777779e-05
2749 2748 1.0850694444444445e-05
2842 2748 1.0850694444444445e-05
2749 2749 4.3402777777777779e-05
2751 2749 1.0850694444444445e-05
2842 2749 1.0850694444444445e-05
2750 2750 4.3402777777777779e-05
2752 2750 1.0850694444444445e-05
2754 2750 1.0850694444444445e-05
2751 2751 4.3402777777777779e-05
2752 2751 1.0850694444444445e-05
2845 2751 1.0850694444444445e-05
2752 2752 4.3402777777777779e-05
2754 2752 1.0850694444444445e-05
2845 2752 1.0850694444444445e-05
2753 2753 4.3402777777777779e-05
2755 2753 1.0850694444444445e-05
2754 2754 4.3402777777777779e-05
2755 2754 1.0850694444444445e-05
2848 2754 1.0850694444444445e-05
2755 2755 4.3402777777777779e-05
2848 2755 1.0850694444444445e-05
2756 2756 4.3402777777777779e-05
2757 2756 1.0850694444444445e-05
2759 2756 1.0850694444444445e-05
2757 2757 4.3402777777777779e-05
2759 2757 1.0850694444444445e-05
2851 2757 1.0850694444444445e-05
2758 2758 4.3402777777777779e-05
2760 2758 1.0850694444444445e-05
2762 2758 1.0850694444444445e-05
2759 2759 4.3402777777777779e-05
2760 2759 1.0850694444444445e-05
2853 2759 1.0850694444444445e-05
2760 2760 4.3402777777777779e-05
2762 2760 1.0850694444444445e-05
2853 2760 1.0850694444444445e-05
2761 2761 4.3402777777777779e-05
2763 2761 1.0850694444444445e-05
2765 2761 1.0850694444444445e-05
2762 2762 4.3402777777777779e-05
2763 2762 1.0850694444444445e-05
2856 2762 1.0850694444444445e-05
2763 2763 4.3402777777777779e-05
2765 2763 1.0850694444444445e-05
2856 2763 1.0850694444444445e-05
2764 2764 4.3402777777777779e-05
2766 2764 1.0850694444444445e-05
2768 2764 1.0850694444444445e-05
2765 2765 4.3402777777777779e-05
2766 2765 1.0850694444444445e-05
2859 2765 1.0850694444444445e-05
2766 2766 4.3402777777777779e-05
2768 2766 1.0850694444444445e-05
2859 2766 1.0850694444444445e-05
2767 2767 4.3402777777777779e-05
2769 2767 1.0850694444444445e-05
2771 2767 1.0850694444444445e-05
2768 2768 4.3402777777777779e-05
2769 2768 1.0850694444444445e-05
2862 2768 1.0850694444444445e-05
2769 2769 4.3402777777777779e-05
2771 2769 1.0850694444444445e-05
2862 2769 1.0850694444444445e-05
2770 2770 4.3402777777777779e-05
2772 2770 1.0850694444444445e-05
2774 2770 1.0850694444444445e-05
2771 2771 4.3402777777777779e-05
2772 2771 1.0850694444444445e-05
2865 2771 1.0850694444444445e-05
2772 2772 4.3402777777777779e-05
2774 2772 1.0850694444444445e-05
2865 2772 1.0850694444444445e-05
2773 2773 4.3402777777777779e-05
2775 2773 1.0850694444444445e-05
2777 2773 1.0850694444444445e-05
2774 2774 4.3402777777777779e-05
2775 2774 1.0850694444444445e-05
2868 2774 1.0850694444444445e-05
2775 2775 4.3402777777777779e-05
2777 2775 1.0850694444444445e-05
2868 2775 1.0850694444444445e-05
2776 2776 4.3402777777777779e-05
2778 2776 1.0850694444444445e-05
2780 2776 1.0850694444444445e-05
2777 2777 4.3402777777777779e-05
2778 2777 1.0850694444444445e-05
2871 2777 1.0850694444444445e-05
2778 2778 4.3402777777777779e-05
2780 2778 1.0850694444444445e-05
2871 2778 1.0850694444444445e-05
2779 2779 4.3402777777777779e-05
2781 2779 1.0850694444444445e-05
2783 2779 1.0850694444444445e-05
2780 2780 4.3402777777777779e-05
2781 2780 1.0850694444444445e-05
2874 2780 1.0850694444444445e-05
2781 2781 4.3402777777777779e-05
2783 2781 1.0850694444444445e-05
2874 2781 1.0850694444444445e-05
2782 2782 4.3402777777777779e-05
2784 2782 1.0850694444444445e-05
2786 2782 1.0850694444444445e-05
2783 2783 4.3402777777777779e-05
2784 2783 1.0850694444444445e-05
2877 2783 1.0850694444444445e-05
2784 2784 4.3402777777777779e-05
2786 2784 1.0850694444444445e-05
2877 2784 1.0850694444444445e-05
2785 2785 4.3402777777777779e-05
2787 2785 1.0850694444444445e-05
2789 2785 1.0850694444444445e-05
2786 2786 4.3402777777777779e-05
2787 2786 1.0850694444444445e-05
2880 2786 1.0850694444444445e-05
2787 2787 4.3402777777777779e-05
2789 2787 1.0850694444444445e-05
2880 2787 1.0850694444444445e-05
2788 2788 4.3402777777777779e-05
2790 2788 1.0850694444444445e-05
2792 2788 1.0850694444444445e-05
2789 2789 4.3402777777777779e-05
2790 2789 1.0850694444444445e-05
2883 2789 1.0850694444444445e-05
2790 2790 4.3402777777777779e-05
2792 2790 1.0850694444444445e-05
2883 2790 1.0850694444444445e-05
2791 2791 4.3402777777777779e-05
2793 2791 1.0850694444444445e-05
2795 2791 1.0850694444444445e-05
2792 2792 4.3402777777777779e-05
2793 2792 1.0850694444444445e-05
2886 2792 1.0850694444444445e-05
2793 2793 4.3402777777777779e-05
2795 2793 1.0850694444444445e-05
2886 2793 1.0850694444444445e-05
2794 2794 4.3402777777777779e-05
2796 2794 1.0850694444444445e-05
2798 2794 1.0850694444444445e-05
2795 2795 4.3402777777777779e-05
2796 2795 1.0850694444444445e-05
2889 2795 1.0850694444444445e-05
2796 2796 4.3402777777777779e-05
2798 2796 1.0850694444444445e-05
2889 2796 1.0850694444444445e-05
2797 2797 4.3402777777777779e-05
2799 2797 1.0850694444444445e-05
2801 2797 1.0850694444444445e-05
2798 2798 4.3402777777777779e-05
2799 2798 1.0850694444444445e-05
2892 2798 1.0850694444444445e-05
2799 2799 4.3402777777777779e-05
2801 2799 1.0850694444444445e-05
2892 2799 1.0850694444444445e-05
2800 2800 4.3402777777777779e-05
2802 2800 1.0850694444444445e-05
2804 2800 1.0850694444444445e-05
2801 2801 4.3402777777777779e-05
2802 2801 1.0850694444444445e-05
2895 2801 1.0850694444444445e-05
2802 2802 4.3402777777777779e-05
2804 2802 1.0850694444444445e-05
2895 2802 1.0850694444444445e-05
2803 2803 4.3402777777777779e-05
2805 2803 1.0850694444444445e-05
2807 2803 1.0850694444444445e-05
2804 2804 4.3402777777777779e-05
2805 2804 1.0850694444444445e-05
2898 2804 1.0850694444444445e-05
2805 2805 4.3402777777777779e-05
2807 2805 1.0850694444444445e-05
2898 2805 1.0850694444444445e-05
2806 2806 4.3402777777777779e-05
2808 2806 1.0850694444444445e-05
2810 2806 1.0850694444444445e-05
2807 2807 4.3402777777777779e-05
2808 2807 1.0850694444444445e-05
2901 2807 1.0850694444444445e-05
2808 2808 4.3402777777777779e-05
2810 2808 1.0850694444444445e-05
2901 2808 1.0850694444444445e-05
2809 2809 4.3402777777777779e-05
2811 2809 1.0850694444444445e-05
2813 2809 1.0850694444444445e-05
2810 2810 4.3402777777777779e-05
2811 2810 1.0850694444444445e-05
2904 2810 1.0850694444444445e-05
2811 2811 4.3402777777777779e-05
2813 2811 1.0850694444444445e-05
2904 2811 1.0850694444444445e-05
2812 2812 4.3402777777777779e-05
2814 2812 1.0850694444444445e-05
2816 2812 1.0850694444444445e-05
2813 2813 4.3402777777777779e-05
2814 2813 1.0850694444444445e-05
2907 2813 1.0850694444444445e-05
2814 2814 4.3402777777777779e-05
2816 2814 1.0850694444444445e-05
2907 2814 1.0850694444444445e-05
2815 2815 4.3402777777777779e-05
2817 2815 1.0850694444444445e-05
2819 2815 1.0850694444444445e-05
2816 2816 4.3402777777777779e-05
2817 2816 1.0850694444444445e-05
2910 2816 1.0850694444444445e-05
2817 2817 4.3402777777777779e-05
2819 2817 1.0850694444444445e-05
2910 2817 1.0850694444444445e-05
2818 2818 4.3402777777777779e-05
2820 2818 1.0850694444444445e-05
2822 2818 1.0850694444444445e-05
2819 2819 4.3402777777777779e-05
2820 2819 1.0850694444444445e-05
2913 2819 1.0850694444444445e-05
2820 2820 4.3402777777777779e-05
2822 2820 1.0850694444444445e-05
2913 2820 1.0850694444444445e-05
2821 2821 4.3402777777777779e-05
2823 2821 1.0850694444444445e-05
2825 2821 1.0850694444444445e-05
2822 2822 4.3402777777777779e-05
2823 2822 1.0850694444444445e-05
2916 2822 1.0850694444444445e-05
2823 2823 4.3402777777777779e-05
2825 2823 1.0850694444444445e-05
2916 2823 1.0850694444444445e-05
2824 2824 4.3402777777777779e-05
2826 2824 1.0850694444444445e-05
2828 2824 1.0850694444444445e-05
2825 2825 4.3402777777777779e-05
2826 2825 1.0850694444444445e-05
2919 2825 1.0850694444444445e-05
2826 2826 4.3402777777777779e-05
2828 2826 1.0850694444444445e-05
2919 2826 1.0850694444444445e-05
2827 2827 4.3402777777777779e-05
2829 2827 1.0850694444444445e-05
2831 2827 1.0850694444444445e-05
2828 2828 4.3402777777777779e-05
2829 2828 1.0850694444444445e-05
2922 2828 1.0850694444444445e-05
2829 2829 4.3402777777777779e-05
2831 2829 1.0850694444444445e-05
2922 2829 1.0850694444444445e-05
2830 2830 4.3402777777777779e-05
2832 2830 1.0850694444444445e-05
2834 2830 1.0850694444444445e-05
2831 2831 4.3402777777777779e-05
2832 2831 1.0850694444444445e-05
2925 2831 1.0850694444444445e-05
2832 2832 4.3402777777777779e-05
2834 2832 1.0850694444444445e-05
2925 2832 1.0850694444444445e-05
2833 2833 4.3402777777777779e-05
2835 2833 1.0850694444444445e-05
2837 2833 1.0850694444444445e-05
2834 2834 4.3402777777777779e-05
2835 2834 1.0850694444444445e-05
2928 2834 1.0850694444444445e-05
2835 2835 4.3402777777777779e-05
2837 2835 1.0850694444444445e-05
2928 2835 1.0850694444444445e-05
2836 2836 4.3402777777777779e-05
2838 2836 1.0850694444444445e-05
2840 2836 1.0850694444444445e-05
2837 2837 4.3402777777777779e-05
2838 2837 1.0850694444444445e-05
2931 2837 1.0850694444444445e-05
2838 2838 4.3402777777777779e-05
2840 2838 1.0850694444444445e-05
2931 2838 1.0850694444444445e-05
2839 2839 4.3402777777777779e-05
2841 2839 1.0850694444444445e-05
2843 2839 1.0850694444444445e-05
2840 2840 4.3402777777777779e-05
2841 2840 1.0850694444444445e-05
2934 2840 1.0850694444444445e-05
2841 2841 4.3402777777777779e-05
2843 2841 1.0850694444444445e-05
2934 2841 1.0850694444444445e-05
2842 2842 4.3402777777777779e-05
2844 2842 1.0850694444444445e-05
2846 2842 1.0850694444444445e-05
2843 2843 4.3402777777777779e-05
2844 2843 1.0850694444444445e-05
2937 2843 1.0850694444444445e-05
2844 2844 4.3402777777777779e-05
2846 2844 1.0850694444444445e-05
2937 2844 1.0850694444444445e-05
2845 2845 4.3402777777777779e-05
2847 2845 1.0850694444444445e-05
2849 2845 1.0850694444444445e-05
2846 2846 4.3402777777777779e-05
2847 2846 1.0850694444444445e-05
2940 2846 1.0850694444444445e-05
2847 2847 4.3402777777777779e-05
2849 2847 1.0850694444444445e-05
2940 2847 1.0850694444444445e-05
2848 2848 4.3402777777777779e-05
2850 2848 1.0850694444444445e-05
2849 2849 4.3402777777777779e-05
2850 2849 1.0850694444444445e-05
2943 2849 1.0850694444444445e-05
2850 2850 4.3402777777777779e-05
2943 2850 1.0850694444444445e-05
2851 2851 4.3402777777777779e-05
2852 2851 1.0850694444444445e-05
2854 2851 1.0850694444444445e-05
2852 2852 4.3402777777777779e-05
2854 2852 1.0850694444444445e-05
2853 2853 4.3402777777777779e-05
2855 2853 1.0850694444444445e-05
2857 2853 1.0850694444444445e-05
2854 2854 4.3402777777777779e-05
2855 2854 1.0850694444444445e-05
2855 2855 4.3402777777777779e-05
2857 2855 1.0850694444444445e-05
2856 2856 4.3402777777777779e-05
2858 2856 1.0850694444444445e-05
2860 2856 1.0850694444444445e-05
2857 2857 4.3402777777777779e-05
2858 2857 1.0850694444444445e-05
2858 2858 4.3402777777777779e-05
2860 2858 1.0850694444444445e-05
2859 2859 4.3402777777777779e-05
2861 2859 1.0850694444444445e-05
2863 2859 1.0850694444444445e-05
2860 2860 4.3402777777777779e-05
2861 2860 1.0850694444444445e-05
2861 2861 4.3402777777777779e-05
2863 2861 1.0850694444444445e-05
2862 2862 4.3402777777777779e-05
2864 2862 1.0850694444444445e-05
2866 2862 1.0850694444444445e-05
2863 2863 4.3402777777777779e-05
2864 2863 1.0850694444444445e-05
2864 2864 4.3402777777777779e-05
2866 2864 1.0850694444444445e-05
2865 2865 4.3402777777777779e-05
2867 2865 1.0850694444444445e-05
2869 2865 1.0850694444444445e-05
2866 2866 4.3402777777777779e-05
2867 2866 1.0850694444444445e-05
2867 2867 4.3402777777777779e-05
2869 2867 1.0850694444444445e-05
2868 2868 4.3402777777777779e-05
2870 2868 1.0850694444444445e-05
2872 2868 1.0850694444444445e-05
2869 2869 4.3402777777777779e-05
2870 2869 1.0850694444444445e-05
2870 2870 4.3402777777777779e-05
2872 2870 1.0850694444444445e-05
2871 2871 4.3402777777777779e-05
2873 2871 1.0850694444444445e-05
2875 2871 1.0850694444444445e-05
2872 2872 4.3402777777777779e-05
2873 2872 1.0850694444444445e-05
2873 2873 4.3402777777777779e-05
2875 2873 1.0850694444444445e-05
2874 2874 4.3402777777777779e-05
2876 2874 1.0850694444444445e-05
2878 2874 1.0850694444444445e-05
2875 2875 4.3402777777777779e-05
2876 2875 1.0850694444444445e-05
2876 2876 4.3402777777777779e-05
2878 2876 1.0850694444444445e-05
2877 2877 4.3402777777777779e-05
2879 2877 1.0850694444444445e-05
2881 2877 1.0850694444444445e-05
2878 2878 4.3402777777777779e-05
2879 2878 1.0850694444444445e-05
2879 2879 4.3402777777777779e-05
2881 2879 1.0850694444444445e-05
2880 2880 4.3402777777777779e-05
2882 2880 1.0850694444444445e-05
2884 2880 1.0850694444444445e-05
2881 2881 4.3402777777777779e-05
2882 2881 1.0850694444444445e-05
2882 2882 4.3402777777777779e-05
2884 2882 1.0850694444444445e-05
2883 2883 4.3402777777777779e-05
2885 2883 1.0850694444444445e-05
2887 2883 1.0850694444444445e-05
2884 2884 4.3402777777777779e-05
2885 2884 1.0850694444444445e-05
2885 2885 4.3402777777777779e-05
2887 2885 1.0850694444444445e-05
2886 2886 4.3402777777777779e-05
2888 2886 1.0850694444444445e-05
2890 2886 1.0850694444444445e-05
2887 2887 4.3402777777777779e-05
2888 2887 1.0850694444444445e-05
2888 2888 4.3402777777777779e-05
2890 2888 1.0850694444444445e-05
2889 2889 4.3402777777777779e-05
2891 2889 1.0850694444444445e-05
2893 2889 1.0850694444444445e-05
2890 2890 4.3402777777777779e-05
2891 2890 1.0850694444444445e-05
2891 2891 4.3402777777777779e-05
2893 2891 1.0850694444444445e-05
2892 2892 4.3402777777777779e-05
2894 2892 1.0850694444444445e-05
2896 2892 1.0850694444444445e-05
2893 2893 4.3402777777777779e-05
2894 2893 1.0850694444444445e-05
2894 2894 4.3402777777777779e-05
2896 2894 1.0850694444444445e-05
2895 2895 4.3402777777777779e-05
2897 2895 1.0850694444444445e-05
2899 2895 1.0850694444444445e-05
2896 2896 4.3402777777777779e-05
2897 2896 1.0850694444444445e-05
2897 2897 4.3402777777777779e-05
2899 2897 1.0850694444444445e-05
2898 2898 4.3402777777777779e-05
2900 2898 1.0850694444444445e-05
2902 2898 1.0850694444444445e-05
2899 2899 4.3402777777777779e-05
2900 2899 1.0850694444444445e-05
2900 2900 4.3402777777777779e-05
2902 2900 1.0850694444444445e-05
2901 2901 4.3402777777777779e-05
2903 2901 1.0850694444444445e-05
2905 2901 1.0850694444444445e-05
2902 2902 4.3402777777777779e-05
2903 2902 1.0850694444444445e-05
2903 2903 4.3402777777777779e-05
2905 2903 1.0850694444444445e-05
2904 2904 4.3402777777777779e-05
2906 2904 1.0850694444444445e-05
2908 2904 1.0850694444444445e-05
2905 2905 4.3402777777777779e-05
2906 2905 1.0850694444444445e-05
2906 2906 4.3402777777777779e-05
2908 2906 1.0850694444444445e-05
2907 2907 4.3402777777777779e-05
2909 2907 1.0850694444444445e-05
2911 2907 1.0850694444444445e-05
2908 2908 4.3402777777777779e-05
2909 2908 1.0850694444444445e-05
2909 2909 4.3402777777777779e-05
2911 2909 1.0850694444444445e-05
2910 2910 4.3402777777777779e-05
2912 2910 1.0850694444444445e-05
2914 2910 1.0850694444444445e-05
2911 2911 4.3402777777777779e-05
2912 2911 1.0850694444444445e-05
2912 2912 4.3402777777777779e-05
2914 2912 1.0850694444444445e-05
2913 2913 4.3402777777777779e-05
2915 2913 1.0850694444444445e-05
2917 2913 1.0850694444444445e-05
2914 2914 4.3402777777777779e-05
2915 2914 1.0850694444444445e-05
2915 2915 4.3402777777777779e-05
2917 2915 1.0850694444444445e-05
2916 2916 4.3402777777777779e-05
2918 2916 1.0850694444444445e-05
2920 2916 1.0850694444444445e-05
2917 2917 4.3402777777777779e-05
2918 2917 1.0850694444444445e-05
2918 2918 4.3402777777777779e-05
2920 2918 1.0850694444444445e-05
2919 2919 4.3402777777777779e-05
2921 2919 1.0850694444444445e-05
2923 2919 1.0850694444444445e-05
2920 2920 4.3402777777777779e-05
2921 2920 1.0850694444444445e-05
2921 2921 4.3402777777777779e-05
2923 2921 1.0850694444444445e-05
2922 2922 4.3402777777777779e-05
2924 2922 1.0850694444444445e-05
2926 2922 1.0850694444444445e-05
2923 2923 4.3402777777777779e-05
2924 2923 1.0850694444444445e-05
2924 2924 4.3402777777777779e-05
2926 2924 1.0850694444444445e-05
2925 2925 4.3402777777777779e-05
2927 2925 1.0850694444444445e-05
2929 2925 1.0850694444444445e-05
2926 2926 4.3402777777777779e-05
2927 2926 1.0850694444444445e-05
2927 2927 4.3402777777777779e-05
2929 2927 1.0850694444444445e-05
2928 2928 4.3402777777777779e-05
2930 2928 1.0850694444444445e-05
2932 2928 1.0850694444444445e-05
2929 2929 4.3402777777777779e-05
2930 2929 1.0850694444444445e-05
2930 2930 4.3402777777777779e-05
2932 2930 1.0850694444444445e-05
2931 2931 4.3402777777777779e-05
2933 2931 1.0850694444444445e-05
2935 2931 1.0850694444444445e-05
2932 2932 4.3402777777777779e-05
2933 2932 1.0850694444444445e-05
2933 2933 4.3402777777777779e-05
2935 2933 1.0850694444444445e-05
2934 2934 4.3402777777777779e-05
2936 2934 1.0850694444444445e-05
2938 2934 1.0850694444444445e-05
2935 2935 4.3402777777777779e-05
2936 2935 1.0850694444444445e-05
2936 2936 4.3402777777777779e-05
2938 2936 1.0850694444444445e-05
2937 2937 4.3402777777777779e-05
2939 2937 1.0850694444444445e-05
2941 2937 1.0850694444444445e-05
2938 2938 4.3402777777777779e-05
2939 2938 1.0850694444444445e-05
2939 2939 4.3402777777777779e-05
2941 2939 1.0850694444444445e-05
2940 2940 4.3402777777777779e-05
2942 2940 1.0850694444444445e-05
2944 2940 1.0850694444444445e-05
2941 2941 4.3402777777777779e-05
2942 2941 1.0850694444444445e-05
2942 2942 4.3402777777777779e-05
2944 2942 1.0850694444444445e-05
2943 2943 4.3402777777777779e-05
2945 2943 1.0850694444444445e-05
2944 2944 4.3402777777777779e-05
2945 2944 1.0850694444444445e-05
2945 2945 4.3402777777777779e-05
