%%MatrixMarket matrix coordinate real symmetric
% lshape_p1_n4 stiffness A[int,int], mesh=lshape_4 p=1, interior-restricted
% lower triangle only (row >= col); mirror for the full matrix
33 33 85
1 1 4
2 1 -1
4 1 -1
2 2 4
3 2 -1
5 2 -1
3 3 4
6 3 -1
4 4 4
5 4 -1
7 4 -1
5 5 4
6 5 -1
8 5 -1
6 6 4
9 6 -1
7 7 4
8 7 -1
10 7 -1
8 8 4
9 8 -1
11 8 -1
9 9 4
12 9 -1
10 10 4
11 10 -1
13 10 -1
11 11 4
12 11 -1
14 11 -1
12 12 4
15 12 -1
13 13 4
14 13 -1
20 13 -1
14 14 4
15 14 -1
21 14 -1
15 15 4
16 15 -1
22 15 -1
16 16 4
17 16 -1
23 16 -1
17 17 4
18 17 -1
24 17 -1
18 18 4
19 18 -1
25 18 -1
19 19 4
26 19 -1
20 20 4
21 20 -1
27 20 -1
21 21 4
22 21 -1
28 21 -1
22 22 4
23 22 -1
29 22 -1
23 23 4
24 23 -1
30 23 -1
24 24 4
25 24 -1
31 24 -1
25 25 4
26 25 -1
32 25 -1
26 26 4
33 26 -1
27 27 4
28 27 -1
28 28 4
29 28 -1
29 29 4
30 29 -1
30 30 4
31 30 -1
31 31 4
32 31 -1
32 32 4
33 32 -1
33 33 4
