%%MatrixMarket matrix coordinate real symmetric
% lshape_p1_n16 mass M[int,int], mesh=lshape_16 p=1, interior-restricted
% lower triangle only (row >= col); mirror for the full matrix
705 705 2698
1 1 0.0019531249999999998
2 1 0.00032552083333333332
16 1 0.00032552083333333332
17 1 0.00032552083333333332
2 2 0.0019531249999999998
3 2 0.00032552083333333332
17 2 0.00032552083333333332
18 2 0.00032552083333333332
3 3 0.0019531249999999998
4 3 0.00032552083333333332
18 3 0.00032552083333333332
19 3 0.00032552083333333332
4 4 0.0019531249999999998
5 4 0.00032552083333333332
19 4 0.00032552083333333332
20 4 0.00032552083333333332
5 5 0.0019531249999999998
6 5 0.00032552083333333332
20 5 0.00032552083333333332
21 5 0.00032552083333333332
6 6 0.0019531249999999998
7 6 0.00032552083333333332
21 6 0.00032552083333333332
22 6 0.00032552083333333332
7 7 0.0019531249999999998
8 7 0.00032552083333333332
22 7 0.00032552083333333332
23 7 0.00032552083333333332
8 8 0.0019531249999999998
9 8 0.00032552083333333332
23 8 0.00032552083333333332
24 8 0.00032552083333333332
9 9 0.0019531249999999998
10 9 0.00032552083333333332
24 9 0.00032552083333333332
25 9 0.00032552083333333332
10 10 0.0019531249999999998
11 10 0.00032552083333333332
25 10 0.00032552083333333332
26 10 0.00032552083333333332
11 11 0.0019531249999999998
12 11 0.00032552083333333332
26 11 0.00032552083333333332
27 11 0.00032552083333333332
12 12 0.0019531249999999998
13 12 0.00032552083333333332
27 12 0.00032552083333333332
28 12 0.00032552083333333332
13 13 0.0019531249999999998
14 13 0.00032552083333333332
28 13 0.00032552083333333332
29 13 0.00032552083333333332
14 14 0.0019531249999999998
15 14 0.00032552083333333332
29 14 0.00032552083333333332
30 14 0.00032552083333333332
15 15 0.0019531249999999998
30 15 0.00032552083333333332
16 16 0.0019531249999999998
17 16 0.00032552083333333332
31 16 0.00032552083333333332
32 16 0.00032552083333333332
17 17 0.0019531249999999998
18 17 0.00032552083333333332
32 17 0.00032552083333333332
33 17 0.00032552083333333332
18 18 0.0019531249999999998
19 18 0.00032552083333333332
33 18 0.00032552083333333332
34 18 0.00032552083333333332
19 19 0.0019531249999999998
20 19 0.00032552083333333332
34 19 0.00032552083333333332
35 19 0.00032552083333333332
20 20 0.0019531249999999998
21 20 0.00032552083333333332
35 20 0.00032552083333333332
36 20 0.00032552083333333332
21 21 0.0019531249999999998
22 21 0.00032552083333333332
36 21 0.00032552083333333332
37 21 0.00032552083333333332
22 22 0.0019531249999999998
23 22 0.00032552083333333332
37 22 0.00032552083333333332
38 22 0.00032552083333333332
23 23 0.0019531249999999998
24 23 0.00032552083333333332
38 23 0.00032552083333333332
39 23 0.00032552083333333332
24 24 0.0019531249999999998
25 24 0.00032552083333333332
39 24 0.00032552083333333332
40 24 0.00032552083333333332
25 25 0.0019531249999999998
26 25 0.00032552083333333332
40 25 0.00032552083333333332
41 25 0.00032552083333333332
26 26 0.0019531249999999998
27 26 0.00032552083333333332
41 26 0.00032552083333333332
42 26 0.00032552083333333332
27 27 0.0019531249999999998
28 27 0.00032552083333333332
42 27 0.00032552083333333332
43 27 0.00032552083333333332
28 28 0.0019531249999999998
29 28 0.00032552083333333332
43 28 0.00032552083333333332
44 28 0.00032552083333333332
29 29 0.0019531249999999998
30 29 0.00032552083333333332
44 29 0.00032552083333333332
45 29 0.00032552083333333332
30 30 0.0019531249999999998
45 30 0.00032552083333333332
31 31 0.0019531249999999998
32 31 0.00032552083333333332
46 31 0.00032552083333333332
47 31 0.00032552083333333332
32 32 0.0019531249999999998
33 32 0.00032552083333333332
47 32 0.00032552083333333332
48 32 0.00032552083333333332
33 33 0.0019531249999999998
34 33 0.00032552083333333332
48 33 0.00032552083333333332
49 33 0.00032552083333333332
34 34 0.0019531249999999998
35 34 0.00032552083333333332
49 34 0.00032552083333333332
50 34 0.00032552083333333332
35 35 0.0019531249999999998
36 35 0.00032552083333333332
50 35 0.00032552083333333332
51 35 0.00032552083333333332
36 36 0.0019531249999999998
37 36 0.00032552083333333332
51 36 0.00032552083333333332
52 36 0.00032552083333333332
37 37 0.0019531249999999998
38 37 0.00032552083333333332
52 37 0.00032552083333333332
53 37 0.00032552083333333332
38 38 0.0019531249999999998
39 38 0.00032552083333333332
53 38 0.00032552083333333332
54 38 0.00032552083333333332
39 39 0.0019531249999999998
40 39 0.00032552083333333332
54 39 0.00032552083333333332
55 39 0.00032552083333333332
40 40 0.0019531249999999998
41 40 0.00032552083333333332
55 40 0.00032552083333333332
56 40 0.00032552083333333332
41 41 0.0019531249999999998
42 41 0.00032552083333333332
56 41 0.00032552083333333332
57 41 0.00032552083333333332
42 42 0.0019531249999999998
43 42 0.00032552083333333332
57 42 0.00032552083333333332
58 42 0.00032552083333333332
43 43 0.0019531249999999998
44 43 0.00032552083333333332
58 43 0.00032552083333333332
59 43 0.00032552083333333332
44 44 0.0019531249999999998
45 44 0.00032552083333333332
59 44 0.00032552083333333332
60 44 0.00032552083333333332
45 45 0.0019531249999999998
60 45 0.00032552083333333332
46 46 0.0019531249999999998
47 46 0.00032552083333333332
61 46 0.00032552083333333332
62 46 0.00032552083333333332
47 47 0.0019531249999999998
48 47 0.00032552083333333332
62 47 0.00032552083333333332
63 47 0.00032552083333333332
48 48 0.0019531249999999998
49 48 0.00032552083333333332
63 48 0.00032552083333333332
64 48 0.00032552083333333332
49 49 0.0019531249999999998
50 49 0.00032552083333333332
64 49 0.00032552083333333332
65 49 0.00032552083333333332
50 50 0.0019531249999999998
51 50 0.00032552083333333332
65 50 0.00032552083333333332
66 50 0.00032552083333333332
51 51 0.0019531249999999998
52 51 0.00032552083333333332
66 51 0.00032552083333333332
67 51 0.00032552083333333332
52 52 0.0019531249999999998
53 52 0.00032552083333333332
67 52 0.00032552083333333332
68 52 0.00032552083333333332
53 53 0.0019531249999999998
54 53 0.00032552083333333332
68 53 0.00032552083333333332
69 53 0.00032552083333333332
54 54 0.0019531249999999998
55 54 0.00032552083333333332
69 54 0.00032552083333333332
70 54 0.00032552083333333332
55 55 0.0019531249999999998
56 55 0.00032552083333333332
70 55 0.00032552083333333332
71 55 0.00032552083333333332
56 56 0.0019531249999999998
57 56 0.00032552083333333332
71 56 0.00032552083333333332
72 56 0.00032552083333333332
57 57 0.0019531249999999998
58 57 0.00032552083333333332
72 57 0.00032552083333333332
73 57 0.00032552083333333332
58 58 0.0019531249999999998
59 58 0.00032552083333333332
73 58 0.00032552083333333332
74 58 0.00032552083333333332
59 59 0.0019531249999999998
60 59 0.00032552083333333332
74 59 0.00032552083333333332
75 59 0.00032552083333333332
60 60 0.0019531249999999998
75 60 0.00032552083333333332
61 61 0.0019531249999999998
62 61 0.00032552083333333332
76 61 0.00032552083333333332
77 61 0.00032552083333333332
62 62 0.0019531249999999998
63 62 0.00032552083333333332
77 62 0.00032552083333333332
78 62 0.00032552083333333332
63 63 0.0019531249999999998
64 63 0.00032552083333333332
78 63 0.00032552083333333332
79 63 0.00032552083333333332
64 64 0.0019531249999999998
65 64 0.00032552083333333332
79 64 0.00032552083333333332
80 64 0.00032552083333333332
65 65 0.0019531249999999998
66 65 0.00032552083333333332
80 65 0.00032552083333333332
81 65 0.00032552083333333332
66 66 0.0019531249999999998
67 66 0.00032552083333333332
81 66 0.00032552083333333332
82 66 0.00032552083333333332
67 67 0.0019531249999999998
68 67 0.00032552083333333332
82 67 0.00032552083333333332
83 67 0.00032552083333333332
68 68 0.0019531249999999998
69 68 0.00032552083333333332
83 68 0.00032552083333333332
84 68 0.00032552083333333332
69 69 0.0019531249999999998
70 69 0.00032552083333333332
84 69 0.00032552083333333332
85 69 0.00032552083333333332
70 70 0.0019531249999999998
71 70 0.00032552083333333332
85 70 0.00032552083333333332
86 70 0.00032552083333333332
71 71 0.0019531249999999998
72 71 0.00032552083333333332
86 71 0.00032552083333333332
87 71 0.00032552083333333332
72 72 0.0019531249999999998
73 72 0.00032552083333333332
87 72 0.00032552083333333332
88 72 0.00032552083333333332
73 73 0.0019531249999999998
74 73 0.00032552083333333332
88 73 0.00032552083333333332
89 73 0.00032552083333333332
74 74 0.0019531249999999998
75 74 0.00032552083333333332
89 74 0.00032552083333333332
90 74 0.00032552083333333332
75 75 0.0019531249999999998
90 75 0.00032552083333333332
76 76 0.0019531249999999998
77 76 0.00032552083333333332
91 76 0.00032552083333333332
92 76 0.00032552083333333332
77 77 0.0019531249999999998
78 77 0.00032552083333333332
92 77 0.00032552083333333332
93 77 0.00032552083333333332
78 78 0.0019531249999999998
79 78 0.00032552083333333332
93 78 0.00032552083333333332
94 78 0.00032552083333333332
79 79 0.0019531249999999998
80 79 0.00032552083333333332
94 79 0.00032552083333333332
95 79 0.00032552083333333332
80 80 0.0019531249999999998
81 80 0.00032552083333333332
95 80 0.00032552083333333332
96 80 0.00032552083333333332
81 81 0.0019531249999999998
82 81 0.00032552083333333332
96 81 0.00032552083333333332
97 81 0.00032552083333333332
82 82 0.0019531249999999998
83 82 0.00032552083333333332
97 82 0.00032552083333333332
98 82 0.00032552083333333332
83 83 0.0019531249999999998
84 83 0.00032552083333333332
98 83 0.00032552083333333332
99 83 0.00032552083333333332
84 84 0.0019531249999999998
85 84 0.00032552083333333332
99 84 0.00032552083333333332
100 84 0.00032552083333333332
85 85 0.0019531249999999998
86 85 0.00032552083333333332
100 85 0.00032552083333333332
101 85 0.00032552083333333332
86 86 0.0019531249999999998
87 86 0.00032552083333333332
101 86 0.00032552083333333332
102 86 0.00032552083333333332
87 87 0.0019531249999999998
88 87 0.00032552083333333332
102 87 0.00032552083333333332
103 87 0.00032552083333333332
88 88 0.0019531249999999998
89 88 0.00032552083333333332
103 88 0.00032552083333333332
104 88 0.00032552083333333332
89 89 0.0019531249999999998
90 89 0.00032552083333333332
104 89 0.00032552083333333332
105 89 0.00032552083333333332
90 90 0.0019531249999999998
105 90 0.00032552083333333332
91 91 0.0019531249999999998
92 91 0.00032552083333333332
106 91 0.00032552083333333332
107 91 0.00032552083333333332
92 92 0.0019531249999999998
93 92 0.00032552083333333332
107 92 0.00032552083333333332
108 92 0.00032552083333333332
93 93 0.0019531249999999998
94 93 0.00032552083333333332
108 93 0.00032552083333333332
109 93 0.00032552083333333332
94 94 0.0019531249999999998
95 94 0.00032552083333333332
109 94 0.00032552083333333332
110 94 0.00032552083333333332
95 95 0.0019531249999999998
96 95 0.00032552083333333332
110 95 0.00032552083333333332
111 95 0.00032552083333333332
96 96 0.0019531249999999998
97 96 0.00032552083333333332
111 96 0.00032552083333333332
112 96 0.00032552083333333332
97 97 0.0019531249999999998
98 97 0.00032552083333333332
112 97 0.00032552083333333332
113 97 0.00032552083333333332
98 98 0.0019531249999999998
99 98 0.00032552083333333332
113 98 0.00032552083333333332
114 98 0.00032552083333333332
99 99 0.0019531249999999998
100 99 0.00032552083333333332
114 99 0.00032552083333333332
115 99 0.00032552083333333332
100 100 0.0019531249999999998
101 100 0.00032552083333333332
115 100 0.00032552083333333332
116 100 0.00032552083333333332
101 101 0.0019531249999999998
102 101 0.00032552083333333332
116 101 0.00032552083333333332
117 101 0.00032552083333333332
102 102 0.0019531249999999998
103 102 0.00032552083333333332
117 102 0.00032552083333333332
118 102 0.00032552083333333332
103 103 0.0019531249999999998
104 103 0.00032552083333333332
118 103 0.00032552083333333332
119 103 0.00032552083333333332
104 104 0.0019531249999999998
105 104 0.00032552083333333332
119 104 0.00032552083333333332
120 104 0.00032552083333333332
105 105 0.0019531249999999998
120 105 0.00032552083333333332
106 106 0.0019531249999999998
107 106 0.00032552083333333332
121 106 0.00032552083333333332
122 106 0.00032552083333333332
107 107 0.0019531249999999998
108 107 0.00032552083333333332
122 107 0.00032552083333333332
123 107 0.00032552083333333332
108 108 0.0019531249999999998
109 108 0.00032552083333333332
123 108 0.00032552083333333332
124 108 0.00032552083333333332
109 109 0.0019531249999999998
110 109 0.00032552083333333332
124 109 0.00032552083333333332
125 109 0.00032552083333333332
110 110 0.0019531249999999998
111 110 0.00032552083333333332
125 110 0.00032552083333333332
126 110 0.00032552083333333332
111 111 0.0019531249999999998
112 111 0.00032552083333333332
126 111 0.00032552083333333332
127 111 0.00032552083333333332
112 112 0.0019531249999999998
113 112 0.00032552083333333332
127 112 0.00032552083333333332
128 112 0.00032552083333333332
113 113 0.0019531249999999998
114 113 0.00032552083333333332
128 113 0.00032552083333333332
129 113 0.00032552083333333332
114 114 0.0019531249999999998
115 114 0.00032552083333333332
129 114 0.00032552083333333332
130 114 0.00032552083333333332
115 115 0.0019531249999999998
116 115 0.00032552083333333332
130 115 0.00032552083333333332
131 115 0.00032552083333333332
116 116 0.0019531249999999998
117 116 0.00032552083333333332
131 116 0.00032552083333333332
132 116 0.00032552083333333332
117 117 0.0019531249999999998
118 117 0.00032552083333333332
132 117 0.00032552083333333332
133 117 0.00032552083333333332
118 118 0.0019531249999999998
119 118 0.00032552083333333332
133 118 0.00032552083333333332
134 118 0.00032552083333333332
119 119 0.0019531249999999998
120 119 0.00032552083333333332
134 119 0.00032552083333333332
135 119 0.00032552083333333332
120 120 0.0019531249999999998
135 120 0.00032552083333333332
121 121 0.0019531249999999998
122 121 0.00032552083333333332
136 121 0.00032552083333333332
137 121 0.00032552083333333332
122 122 0.0019531249999999998
123 122 0.00032552083333333332
137 122 0.00032552083333333332
138 122 0.00032552083333333332
123 123 0.0019531249999999998
124 123 0.00032552083333333332
138 123 0.00032552083333333332
139 123 0.00032552083333333332
124 124 0.0019531249999999998
125 124 0.00032552083333333332
139 124 0.00032552083333333332
140 124 0.00032552083333333332
125 125 0.0019531249999999998
126 125 0.00032552083333333332
140 125 0.00032552083333333332
141 125 0.00032552083333333332
126 126 0.0019531249999999998
127 126 0.00032552083333333332
141 126 0.00032552083333333332
142 126 0.00032552083333333332
127 127 0.0019531249999999998
128 127 0.00032552083333333332
142 127 0.00032552083333333332
143 127 0.00032552083333333332
128 128 0.0019531249999999998
129 128 0.00032552083333333332
143 128 0.00032552083333333332
144 128 0.00032552083333333332
129 129 0.0019531249999999998
130 129 0.00032552083333333332
144 129 0.00032552083333333332
145 129 0.00032552083333333332
130 130 0.0019531249999999998
131 130 0.00032552083333333332
145 130 0.00032552083333333332
146 130 0.00032552083333333332
131 131 0.0019531249999999998
132 131 0.00032552083333333332
146 131 0.00032552083333333332
147 131 0.00032552083333333332
132 132 0.0019531249999999998
133 132 0.00032552083333333332
147 132 0.00032552083333333332
148 132 0.00032552083333333332
133 133 0.0019531249999999998
134 133 0.00032552083333333332
148 133 0.00032552083333333332
149 133 0.00032552083333333332
134 134 0.0019531249999999998
135 134 0.00032552083333333332
149 134 0.00032552083333333332
150 134 0.00032552083333333332
135 135 0.0019531249999999998
150 135 0.00032552083333333332
136 136 0.0019531249999999998
137 136 0.00032552083333333332
151 136 0.00032552083333333332
152 136 0.00032552083333333332
137 137 0.0019531249999999998
138 137 0.00032552083333333332
152 137 0.00032552083333333332
153 137 0.00032552083333333332
138 138 0.0019531249999999998
139 138 0.00032552083333333332
153 138 0.00032552083333333332
154 138 0.00032552083333333332
139 139 0.0019531249999999998
140 139 0.00032552083333333332
154 139 0.00032552083333333332
155 139 0.00032552083333333332
140 140 0.0019531249999999998
141 140 0.00032552083333333332
155 140 0.00032552083333333332
156 140 0.00032552083333333332
141 141 0.0019531249999999998
142 141 0.00032552083333333332
156 141 0.00032552083333333332
157 141 0.00032552083333333332
142 142 0.0019531249999999998
143 142 0.00032552083333333332
157 142 0.00032552083333333332
158 142 0.00032552083333333332
143 143 0.0019531249999999998
144 143 0.00032552083333333332
158 143 0.00032552083333333332
159 143 0.00032552083333333332
144 144 0.0019531249999999998
145 144 0.00032552083333333332
159 144 0.00032552083333333332
160 144 0.00032552083333333332
145 145 0.0019531249999999998
146 145 0.00032552083333333332
160 145 0.00032552083333333332
161 145 0.00032552083333333332
146 146 0.0019531249999999998
147 146 0.00032552083333333332
161 146 0.00032552083333333332
162 146 0.00032552083333333332
147 147 0.0019531249999999998
148 147 0.00032552083333333332
162 147 0.00032552083333333332
163 147 0.00032552083333333332
148 148 0.0019531249999999998
149 148 0.00032552083333333332
163 148 0.00032552083333333332
164 148 0.00032552083333333332
149 149 0.0019531249999999998
150 149 0.00032552083333333332
164 149 0.00032552083333333332
165 149 0.00032552083333333332
150 150 0.0019531249999999998
165 150 0.00032552083333333332
151 151 0.0019531249999999998
152 151 0.00032552083333333332
166 151 0.00032552083333333332
167 151 0.00032552083333333332
152 152 0.0019531249999999998
153 152 0.00032552083333333332
167 152 0.00032552083333333332
168 152 0.00032552083333333332
153 153 0.0019531249999999998
154 153 0.00032552083333333332
168 153 0.00032552083333333332
169 153 0.00032552083333333332
154 154 0.0019531249999999998
155 154 0.00032552083333333332
169 154 0.00032552083333333332
170 154 0.00032552083333333332
155 155 0.0019531249999999998
156 155 0.00032552083333333332
170 155 0.00032552083333333332
171 155 0.00032552083333333332
156 156 0.0019531249999999998
157 156 0.00032552083333333332
171 156 0.00032552083333333332
172 156 0.00032552083333333332
157 157 0.0019531249999999998
158 157 0.00032552083333333332
172 157 0.00032552083333333332
173 157 0.00032552083333333332
158 158 0.0019531249999999998
159 158 0.00032552083333333332
173 158 0.00032552083333333332
174 158 0.00032552083333333332
159 159 0.0019531249999999998
160 159 0.00032552083333333332
174 159 0.00032552083333333332
175 159 0.00032552083333333332
160 160 0.0019531249999999998
161 160 0.00032552083333333332
175 160 0.00032552083333333332
176 160 0.00032552083333333332
161 161 0.0019531249999999998
162 161 0.00032552083333333332
176 161 0.00032552083333333332
177 161 0.00032552083333333332
162 162 0.0019531249999999998
163 162 0.00032552083333333332
177 162 0.00032552083333333332
178 162 0.00032552083333333332
163 163 0.0019531249999999998
164 163 0.00032552083333333332
178 163 0.00032552083333333332
179 163 0.00032552083333333332
164 164 0.0019531249999999998
165 164 0.00032552083333333332
179 164 0.00032552083333333332
180 164 0.00032552083333333332
165 165 0.0019531249999999998
180 165 0.00032552083333333332
166 166 0.0019531249999999998
167 166 0.00032552083333333332
181 166 0.00032552083333333332
182 166 0.00032552083333333332
167 167 0.0019531249999999998
168 167 0.00032552083333333332
182 167 0.00032552083333333332
183 167 0.00032552083333333332
168 168 0.0019531249999999998
169 168 0.00032552083333333332
183 168 0.00032552083333333332
184 168 0.00032552083333333332
169 169 0.0019531249999999998
170 169 0.00032552083333333332
184 169 0.00032552083333333332
185 169 0.00032552083333333332
170 170 0.0019531249999999998
171 170 0.00032552083333333332
185 170 0.00032552083333333332
186 170 0.00032552083333333332
171 171 0.0019531249999999998
172 171 0.00032552083333333332
186 171 0.00032552083333333332
187 171 0.00032552083333333332
172 172 0.0019531249999999998
173 172 0.00032552083333333332
187 172 0.00032552083333333332
188 172 0.00032552083333333332
173 173 0.0019531249999999998
174 173 0.00032552083333333332
188 173 0.00032552083333333332
189 173 0.00032552083333333332
174 174 0.0019531249999999998
175 174 0.00032552083333333332
189 174 0.00032552083333333332
190 174 0.00032552083333333332
175 175 0.0019531249999999998
176 175 0.00032552083333333332
190 175 0.00032552083333333332
191 175 0.00032552083333333332
176 176 0.0019531249999999998
177 176 0.00032552083333333332
191 176 0.00032552083333333332
192 176 0.00032552083333333332
177 177 0.0019531249999999998
178 177 0.00032552083333333332
192 177 0.00032552083333333332
193 177 0.00032552083333333332
178 178 0.0019531249999999998
179 178 0.00032552083333333332
193 178 0.00032552083333333332
194 178 0.00032552083333333332
179 179 0.0019531249999999998
180 179 0.00032552083333333332
194 179 0.00032552083333333332
195 179 0.00032552083333333332
180 180 0.0019531249999999998
195 180 0.00032552083333333332
181 181 0.0019531249999999998
182 181 0.00032552083333333332
196 181 0.00032552083333333332
197 181 0.00032552083333333332
182 182 0.0019531249999999998
183 182 0.00032552083333333332
197 182 0.00032552083333333332
198 182 0.00032552083333333332
183 183 0.0019531249999999998
184 183 0.00032552083333333332
198 183 0.00032552083333333332
199 183 0.00032552083333333332
184 184 0.0019531249999999998
185 184 0.00032552083333333332
199 184 0.00032552083333333332
200 184 0.00032552083333333332
185 185 0.0019531249999999998
186 185 0.00032552083333333332
200 185 0.00032552083333333332
201 185 0.00032552083333333332
186 186 0.0019531249999999998
187 186 0.00032552083333333332
201 186 0.00032552083333333332
202 186 0.00032552083333333332
187 187 0.0019531249999999998
188 187 0.00032552083333333332
202 187 0.00032552083333333332
203 187 0.00032552083333333332
188 188 0.0019531249999999998
189 188 0.00032552083333333332
203 188 0.00032552083333333332
204 188 0.00032552083333333332
189 189 0.0019531249999999998
190 189 0.00032552083333333332
204 189 0.00032552083333333332
205 189 0.00032552083333333332
190 190 0.0019531249999999998
191 190 0.00032552083333333332
205 190 0.00032552083333333332
206 190 0.00032552083333333332
191 191 0.0019531249999999998
192 191 0.00032552083333333332
206 191 0.00032552083333333332
207 191 0.00032552083333333332
192 192 0.0019531249999999998
193 192 0.00032552083333333332
207 192 0.00032552083333333332
208 192 0.00032552083333333332
193 193 0.0019531249999999998
194 193 0.00032552083333333332
208 193 0.00032552083333333332
209 193 0.00032552083333333332
194 194 0.0019531249999999998
195 194 0.00032552083333333332
209 194 0.00032552083333333332
210 194 0.00032552083333333332
195 195 0.0019531249999999998
210 195 0.00032552083333333332
196 196 0.0019531249999999998
197 196 0.00032552083333333332
211 196 0.00032552083333333332
212 196 0.00032552083333333332
197 197 0.0019531249999999998
198 197 0.00032552083333333332
212 197 0.00032552083333333332
213 197 0.00032552083333333332
198 198 0.0019531249999999998
199 198 0.00032552083333333332
213 198 0.00032552083333333332
214 198 0.00032552083333333332
199 199 0.0019531249999999998
200 199 0.00032552083333333332
214 199 0.00032552083333333332
215 199 0.00032552083333333332
200 200 0.0019531249999999998
201 200 0.00032552083333333332
215 200 0.00032552083333333332
216 200 0.00032552083333333332
201 201 0.0019531249999999998
202 201 0.00032552083333333332
216 201 0.00032552083333333332
217 201 0.00032552083333333332
202 202 0.0019531249999999998
203 202 0.00032552083333333332
217 202 0.00032552083333333332
218 202 0.00032552083333333332
203 203 0.0019531249999999998
204 203 0.00032552083333333332
218 203 0.00032552083333333332
219 203 0.00032552083333333332
204 204 0.0019531249999999998
205 204 0.00032552083333333332
219 204 0.00032552083333333332
220 204 0.00032552083333333332
205 205 0.0019531249999999998
206 205 0.00032552083333333332
220 205 0.00032552083333333332
221 205 0.00032552083333333332
206 206 0.0019531249999999998
207 206 0.00032552083333333332
221 206 0.00032552083333333332
222 206 0.00032552083333333332
207 207 0.0019531249999999998
208 207 0.00032552083333333332
222 207 0.00032552083333333332
223 207 0.00032552083333333332
208 208 0.0019531249999999998
209 208 0.00032552083333333332
223 208 0.00032552083333333332
224 208 0.00032552083333333332
209 209 0.0019531249999999998
210 209 0.00032552083333333332
224 209 0.00032552083333333332
225 209 0.00032552083333333332
210 210 0.0019531249999999998
225 210 0.00032552083333333332
211 211 0.0019531249999999998
212 211 0.00032552083333333332
226 211 0.00032552083333333332
227 211 0.00032552083333333332
212 212 0.0019531249999999998
213 212 0.00032552083333333332
227 212 0.00032552083333333332
228 212 0.00032552083333333332
213 213 0.0019531249999999998
214 213 0.00032552083333333332
228 213 0.00032552083333333332
229 213 0.00032552083333333332
214 214 0.0019531249999999998
215 214 0.00032552083333333332
229 214 0.00032552083333333332
230 214 0.00032552083333333332
215 215 0.0019531249999999998
216 215 0.00032552083333333332
230 215 0.00032552083333333332
231 215 0.00032552083333333332
216 216 0.0019531249999999998
217 216 0.00032552083333333332
231 216 0.00032552083333333332
232 216 0.00032552083333333332
217 217 0.0019531249999999998
218 217 0.00032552083333333332
232 217 0.00032552083333333332
233 217 0.00032552083333333332
218 218 0.0019531249999999998
219 218 0.00032552083333333332
233 218 0.00032552083333333332
234 218 0.00032552083333333332
219 219 0.0019531249999999998
220 219 0.00032552083333333332
234 219 0.00032552083333333332
235 219 0.00032552083333333332
220 220 0.0019531249999999998
221 220 0.00032552083333333332
235 220 0.00032552083333333332
236 220 0.00032552083333333332
221 221 0.0019531249999999998
222 221 0.00032552083333333332
236 221 0.00032552083333333332
237 221 0.00032552083333333332
222 222 0.0019531249999999998
223 222 0.00032552083333333332
237 222 0.00032552083333333332
238 222 0.00032552083333333332
223 223 0.0019531249999999998
224 223 0.00032552083333333332
238 223 0.00032552083333333332
239 223 0.00032552083333333332
224 224 0.0019531249999999998
225 224 0.00032552083333333332
239 224 0.00032552083333333332
240 224 0.00032552083333333332
225 225 0.0019531249999999998
240 225 0.00032552083333333332
226 226 0.0019531249999999998
227 226 0.00032552083333333332
241 226 0.00032552083333333332
242 226 0.00032552083333333332
227 227 0.0019531249999999998
228 227 0.00032552083333333332
242 227 0.00032552083333333332
243 227 0.00032552083333333332
228 228 0.0019531249999999998
229 228 0.00032552083333333332
243 228 0.00032552083333333332
244 228 0.00032552083333333332
229 229 0.0019531249999999998
230 229 0.00032552083333333332
244 229 0.00032552083333333332
245 229 0.00032552083333333332
230 230 0.0019531249999999998
231 230 0.00032552083333333332
245 230 0.00032552083333333332
246 230 0.00032552083333333332
231 231 0.0019531249999999998
232 231 0.00032552083333333332
246 231 0.00032552083333333332
247 231 0.00032552083333333332
232 232 0.0019531249999999998
233 232 0.00032552083333333332
247 232 0.00032552083333333332
248 232 0.00032552083333333332
233 233 0.0019531249999999998
234 233 0.00032552083333333332
248 233 0.00032552083333333332
249 233 0.00032552083333333332
234 234 0.0019531249999999998
235 234 0.00032552083333333332
249 234 0.00032552083333333332
250 234 0.00032552083333333332
235 235 0.0019531249999999998
236 235 0.00032552083333333332
250 235 0.00032552083333333332
251 235 0.00032552083333333332
236 236 0.0019531249999999998
237 236 0.00032552083333333332
251 236 0.00032552083333333332
252 236 0.00032552083333333332
237 237 0.0019531249999999998
238 237 0.00032552083333333332
252 237 0.00032552083333333332
253 237 0.00032552083333333332
238 238 0.0019531249999999998
239 238 0.00032552083333333332
253 238 0.00032552083333333332
254 238 0.00032552083333333332
239 239 0.0019531249999999998
240 239 0.00032552083333333332
254 239 0.00032552083333333332
255 239 0.00032552083333333332
240 240 0.0019531249999999998
255 240 0.00032552083333333332
256 240 0.00032552083333333332
241 241 0.0019531249999999998
242 241 0.00032552083333333332
272 241 0.00032552083333333332
273 241 0.00032552083333333332
242 242 0.0019531249999999998
243 242 0.00032552083333333332
273 242 0.00032552083333333332
274 242 0.00032552083333333332
243 243 0.0019531249999999998
244 243 0.00032552083333333332
274 243 0.00032552083333333332
275 243 0.00032552083333333332
244 244 0.0019531249999999998
245 244 0.00032552083333333332
275 244 0.00032552083333333332
276 244 0.00032552083333333332
245 245 0.0019531249999999998
246 245 0.00032552083333333332
276 245 0.00032552083333333332
277 245 0.00032552083333333332
246 246 0.0019531249999999998
247 246 0.00032552083333333332
277 246 0.00032552083333333332
278 246 0.00032552083333333332
247 247 0.0019531249999999998
248 247 0.00032552083333333332
278 247 0.00032552083333333332
279 247 0.00032552083333333332
248 248 0.0019531249999999998
249 248 0.00032552083333333332
279 248 0.00032552083333333332
280 248 0.00032552083333333332
249 249 0.0019531249999999998
250 249 0.00032552083333333332
280 249 0.00032552083333333332
281 249 0.00032552083333333332
250 250 0.0019531249999999998
251 250 0.00032552083333333332
281 250 0.00032552083333333332
282 250 0.00032552083333333332
251 251 0.0019531249999999998
252 251 0.00032552083333333332
282 251 0.00032552083333333332
283 251 0.00032552083333333332
252 252 0.0019531249999999998
253 252 0.00032552083333333332
283 252 0.00032552083333333332
284 252 0.00032552083333333332
253 253 0.0019531249999999998
254 253 0.00032552083333333332
284 253 0.00032552083333333332
285 253 0.00032552083333333332
254 254 0.0019531249999999998
255 254 0.00032552083333333332
285 254 0.00032552083333333332
286 254 0.00032552083333333332
255 255 0.0019531249999999998
256 255 0.00032552083333333332
286 255 0.00032552083333333332
287 255 0.00032552083333333332
256 256 0.0019531249999999998
257 256 0.00032552083333333332
287 256 0.00032552083333333332
288 256 0.00032552083333333332
257 257 0.0019531249999999998
258 257 0.00032552083333333332
288 257 0.00032552083333333332
289 257 0.00032552083333333332
258 258 0.0019531249999999998
259 258 0.00032552083333333332
289 258 0.00032552083333333332
290 258 0.00032552083333333332
259 259 0.0019531249999999998
260 259 0.00032552083333333332
290 259 0.00032552083333333332
291 259 0.00032552083333333332
260 260 0.0019531249999999998
261 260 0.00032552083333333332
291 260 0.00032552083333333332
292 260 0.00032552083333333332
261 261 0.0019531249999999998
262 261 0.00032552083333333332
292 261 0.00032552083333333332
293 261 0.00032552083333333332
262 262 0.0019531249999999998
263 262 0.00032552083333333332
293 262 0.00032552083333333332
294 262 0.00032552083333333332
263 263 0.0019531249999999998
264 263 0.00032552083333333332
294 263 0.00032552083333333332
295 263 0.00032552083333333332
264 264 0.0019531249999999998
265 264 0.00032552083333333332
295 264 0.00032552083333333332
296 264 0.00032552083333333332
265 265 0.0019531249999999998
266 265 0.00032552083333333332
296 265 0.00032552083333333332
297 265 0.00032552083333333332
266 266 0.0019531249999999998
267 266 0.00032552083333333332
297 266 0.00032552083333333332
298 266 0.00032552083333333332
267 267 0.0019531249999999998
268 267 0.00032552083333333332
298 267 0.00032552083333333332
299 267 0.00032552083333333332
268 268 0.0019531249999999998
269 268 0.00032552083333333332
299 268 0.00032552083333333332
300 268 0.00032552083333333332
269 269 0.0019531249999999998
270 269 0.00032552083333333332
300 269 0.00032552083333333332
301 269 0.00032552083333333332
270 270 0.0019531249999999998
271 270 0.00032552083333333332
301 270 0.00032552083333333332
302 270 0.00032552083333333332
271 271 0.0019531249999999998
302 271 0.00032552083333333332
272 272 0.0019531249999999998
273 272 0.00032552083333333332
303 272 0.00032552083333333332
304 272 0.00032552083333333332
273 273 0.0019531249999999998
274 273 0.00032552083333333332
304 273 0.00032552083333333332
305 273 0.00032552083333333332
274 274 0.0019531249999999998
275 274 0.00032552083333333332
305 274 0.00032552083333333332
306 274 0.00032552083333333332
275 275 0.0019531249999999998
276 275 0.00032552083333333332
306 275 0.00032552083333333332
307 275 0.00032552083333333332
276 276 0.0019531249999999998
277 276 0.00032552083333333332
307 276 0.00032552083333333332
308 276 0.00032552083333333332
277 277 0.0019531249999999998
278 277 0.00032552083333333332
308 277 0.00032552083333333332
309 277 0.00032552083333333332
278 278 0.0019531249999999998
279 278 0.00032552083333333332
309 278 0.00032552083333333332
310 278 0.00032552083333333332
279 279 0.0019531249999999998
280 279 0.00032552083333333332
310 279 0.00032552083333333332
311 279 0.00032552083333333332
280 280 0.0019531249999999998
281 280 0.00032552083333333332
311 280 0.00032552083333333332
312 280 0.00032552083333333332
281 281 0.0019531249999999998
282 281 0.00032552083333333332
312 281 0.00032552083333333332
313 281 0.00032552083333333332
282 282 0.0019531249999999998
283 282 0.00032552083333333332
313 282 0.00032552083333333332
314 282 0.00032552083333333332
283 283 0.0019531249999999998
284 283 0.00032552083333333332
314 283 0.00032552083333333332
315 283 0.00032552083333333332
284 284 0.0019531249999999998
285 284 0.00032552083333333332
315 284 0.00032552083333333332
316 284 0.00032552083333333332
285 285 0.0019531249999999998
286 285 0.00032552083333333332
316 285 0.00032552083333333332
317 285 0.00032552083333333332
286 286 0.0019531249999999998
287 286 0.00032552083333333332
317 286 0.00032552083333333332
318 286 0.00032552083333333332
287 287 0.0019531249999999998
288 287 0.00032552083333333332
318 287 0.00032552083333333332
319 287 0.00032552083333333332
288 288 0.0019531249999999998
289 288 0.00032552083333333332
319 288 0.00032552083333333332
320 288 0.00032552083333333332
289 289 0.0019531249999999998
290 289 0.00032552083333333332
320 289 0.00032552083333333332
321 289 0.00032552083333333332
290 290 0.0019531249999999998
291 290 0.00032552083333333332
321 290 0.00032552083333333332
322 290 0.00032552083333333332
291 291 0.0019531249999999998
292 291 0.00032552083333333332
322 291 0.00032552083333333332
323 291 0.00032552083333333332
292 292 0.0019531249999999998
293 292 0.00032552083333333332
323 292 0.00032552083333333332
324 292 0.00032552083333333332
293 293 0.0019531249999999998
294 293 0.00032552083333333332
324 293 0.00032552083333333332
325 293 0.00032552083333333332
294 294 0.0019531249999999998
295 294 0.00032552083333333332
325 294 0.00032552083333333332
326 294 0.00032552083333333332
295 295 0.0019531249999999998
296 295 0.00032552083333333332
326 295 0.00032552083333333332
327 295 0.00032552083333333332
296 296 0.0019531249999999998
297 296 0.00032552083333333332
327 296 0.00032552083333333332
328 296 0.00032552083333333332
297 297 0.0019531249999999998
298 297 0.00032552083333333332
328 297 0.00032552083333333332
329 297 0.00032552083333333332
298 298 0.0019531249999999998
299 298 0.00032552083333333332
329 298 0.00032552083333333332
330 298 0.00032552083333333332
299 299 0.0019531249999999998
300 299 0.00032552083333333332
330 299 0.00032552083333333332
331 299 0.00032552083333333332
300 300 0.0019531249999999998
301 300 0.00032552083333333332
331 300 0.00032552083333333332
332 300 0.00032552083333333332
301 301 0.0019531249999999998
302 301 0.00032552083333333332
332 301 0.00032552083333333332
333 301 0.00032552083333333332
302 302 0.0019531249999999998
333 302 0.00032552083333333332
303 303 0.0019531249999999998
304 303 0.00032552083333333332
334 303 0.00032552083333333332
335 303 0.00032552083333333332
304 304 0.0019531249999999998
305 304 0.00032552083333333332
335 304 0.00032552083333333332
336 304 0.00032552083333333332
305 305 0.0019531249999999998
306 305 0.00032552083333333332
336 305 0.00032552083333333332
337 305 0.00032552083333333332
306 306 0.0019531249999999998
307 306 0.00032552083333333332
337 306 0.00032552083333333332
338 306 0.00032552083333333332
307 307 0.0019531249999999998
308 307 0.00032552083333333332
338 307 0.00032552083333333332
339 307 0.00032552083333333332
308 308 0.0019531249999999998
309 308 0.00032552083333333332
339 308 0.00032552083333333332
340 308 0.00032552083333333332
309 309 0.0019531249999999998
310 309 0.00032552083333333332
340 309 0.00032552083333333332
341 309 0.00032552083333333332
310 310 0.0019531249999999998
311 310 0.00032552083333333332
341 310 0.00032552083333333332
342 310 0.00032552083333333332
311 311 0.0019531249999999998
312 311 0.00032552083333333332
342 311 0.00032552083333333332
343 311 0.00032552083333333332
312 312 0.0019531249999999998
313 312 0.00032552083333333332
343 312 0.00032552083333333332
344 312 0.00032552083333333332
313 313 0.0019531249999999998
314 313 0.00032552083333333332
344 313 0.00032552083333333332
345 313 0.00032552083333333332
314 314 0.0019531249999999998
315 314 0.00032552083333333332
345 314 0.00032552083333333332
346 314 0.00032552083333333332
315 315 0.0019531249999999998
316 315 0.00032552083333333332
346 315 0.00032552083333333332
347 315 0.00032552083333333332
316 316 0.0019531249999999998
317 316 0.00032552083333333332
347 316 0.00032552083333333332
348 316 0.00032552083333333332
317 317 0.0019531249999999998
318 317 0.00032552083333333332
348 317 0.00032552083333333332
349 317 0.00032552083333333332
318 318 0.0019531249999999998
319 318 0.00032552083333333332
349 318 0.00032552083333333332
350 318 0.00032552083333333332
319 319 0.0019531249999999998
320 319 0.00032552083333333332
350 319 0.00032552083333333332
351 319 0.00032552083333333332
320 320 0.0019531249999999998
321 320 0.00032552083333333332
351 320 0.00032552083333333332
352 320 0.00032552083333333332
321 321 0.0019531249999999998
322 321 0.00032552083333333332
352 321 0.00032552083333333332
353 321 0.00032552083333333332
322 322 0.0019531249999999998
323 322 0.00032552083333333332
353 322 0.00032552083333333332
354 322 0.00032552083333333332
323 323 0.0019531249999999998
324 323 0.00032552083333333332
354 323 0.00032552083333333332
355 323 0.00032552083333333332
324 324 0.0019531249999999998
325 324 0.00032552083333333332
355 324 0.00032552083333333332
356 324 0.00032552083333333332
325 325 0.0019531249999999998
326 325 0.00032552083333333332
356 325 0.00032552083333333332
357 325 0.00032552083333333332
326 326 0.0019531249999999998
327 326 0.00032552083333333332
357 326 0.00032552083333333332
358 326 0.00032552083333333332
327 327 0.0019531249999999998
328 327 0.00032552083333333332
358 327 0.00032552083333333332
359 327 0.00032552083333333332
328 328 0.0019531249999999998
329 328 0.00032552083333333332
359 328 0.00032552083333333332
360 328 0.00032552083333333332
329 329 0.0019531249999999998
330 329 0.00032552083333333332
360 329 0.00032552083333333332
361 329 0.00032552083333333332
330 330 0.0019531249999999998
331 330 0.00032552083333333332
361 330 0.00032552083333333332
362 330 0.00032552083333333332
331 331 0.0019531249999999998
332 331 0.00032552083333333332
362 331 0.00032552083333333332
363 331 0.00032552083333333332
332 332 0.0019531249999999998
333 332 0.00032552083333333332
363 332 0.00032552083333333332
364 332 0.00032552083333333332
333 333 0.0019531249999999998
364 333 0.00032552083333333332
334 334 0.0019531249999999998
335 334 0.00032552083333333332
365 334 0.00032552083333333332
366 334 0.00032552083333333332
335 335 0.0019531249999999998
336 335 0.00032552083333333332
366 335 0.00032552083333333332
367 335 0.00032552083333333332
336 336 0.0019531249999999998
337 336 0.00032552083333333332
367 336 0.00032552083333333332
368 336 0.00032552083333333332
337 337 0.0019531249999999998
338 337 0.00032552083333333332
368 337 0.00032552083333333332
369 337 0.00032552083333333332
338 338 0.0019531249999999998
339 338 0.00032552083333333332
369 338 0.00032552083333333332
370 338 0.00032552083333333332
339 339 0.0019531249999999998
340 339 0.00032552083333333332
370 339 0.00032552083333333332
371 339 0.00032552083333333332
340 340 0.0019531249999999998
341 340 0.00032552083333333332
371 340 0.00032552083333333332
372 340 0.00032552083333333332
341 341 0.0019531249999999998
342 341 0.00032552083333333332
372 341 0.00032552083333333332
373 341 0.00032552083333333332
342 342 0.0019531249999999998
343 342 0.00032552083333333332
373 342 0.00032552083333333332
374 342 0.00032552083333333332
343 343 0.0019531249999999998
344 343 0.00032552083333333332
374 343 0.00032552083333333332
375 343 0.00032552083333333332
344 344 0.0019531249999999998
345 344 0.00032552083333333332
375 344 0.00032552083333333332
376 344 0.00032552083333333332
345 345 0.0019531249999999998
346 345 0.00032552083333333332
376 345 0.00032552083333333332
377 345 0.00032552083333333332
346 346 0.0019531249999999998
347 346 0.00032552083333333332
377 346 0.00032552083333333332
378 346 0.00032552083333333332
347 347 0.0019531249999999998
348 347 0.00032552083333333332
378 347 0.00032552083333333332
379 347 0.00032552083333333332
348 348 0.0019531249999999998
349 348 0.00032552083333333332
379 348 0.00032552083333333332
380 348 0.00032552083333333332
349 349 0.0019531249999999998
350 349 0.00032552083333333332
380 349 0.00032552083333333332
381 349 0.00032552083333333332
350 350 0.0019531249999999998
351 350 0.00032552083333333332
381 350 0.00032552083333333332
382 350 0.00032552083333333332
351 351 0.0019531249999999998
352 351 0.00032552083333333332
382 351 0.00032552083333333332
383 351 0.00032552083333333332
352 352 0.0019531249999999998
353 352 0.00032552083333333332
383 352 0.00032552083333333332
384 352 0.00032552083333333332
353 353 0.0019531249999999998
354 353 0.00032552083333333332
384 353 0.00032552083333333332
385 353 0.00032552083333333332
354 354 0.0019531249999999998
355 354 0.00032552083333333332
385 354 0.00032552083333333332
386 354 0.00032552083333333332
355 355 0.0019531249999999998
356 355 0.00032552083333333332
386 355 0.00032552083333333332
387 355 0.00032552083333333332
356 356 0.0019531249999999998
357 356 0.00032552083333333332
387 356 0.00032552083333333332
388 356 0.00032552083333333332
357 357 0.0019531249999999998
358 357 0.00032552083333333332
388 357 0.00032552083333333332
389 357 0.00032552083333333332
358 358 0.0019531249999999998
359 358 0.00032552083333333332
389 358 0.00032552083333333332
390 358 0.00032552083333333332
359 359 0.0019531249999999998
360 359 0.00032552083333333332
390 359 0.00032552083333333332
391 359 0.00032552083333333332
360 360 0.0019531249999999998
361 360 0.00032552083333333332
391 360 0.00032552083333333332
392 360 0.00032552083333333332
361 361 0.0019531249999999998
362 361 0.00032552083333333332
392 361 0.00032552083333333332
393 361 0.00032552083333333332
362 362 0.0019531249999999998
363 362 0.00032552083333333332
393 362 0.00032552083333333332
394 362 0.00032552083333333332
363 363 0.0019531249999999998
364 363 0.00032552083333333332
394 363 0.00032552083333333332
395 363 0.00032552083333333332
364 364 0.0019531249999999998
395 364 0.00032552083333333332
365 365 0.0019531249999999998
366 365 0.00032552083333333332
396 365 0.00032552083333333332
397 365 0.00032552083333333332
366 366 0.0019531249999999998
367 366 0.00032552083333333332
397 366 0.00032552083333333332
398 366 0.00032552083333333332
367 367 0.0019531249999999998
368 367 0.00032552083333333332
398 367 0.00032552083333333332
399 367 0.00032552083333333332
368 368 0.0019531249999999998
369 368 0.00032552083333333332
399 368 0.00032552083333333332
400 368 0.00032552083333333332
369 369 0.0019531249999999998
370 369 0.00032552083333333332
400 369 0.00032552083333333332
401 369 0.00032552083333333332
370 370 0.0019531249999999998
371 370 0.00032552083333333332
401 370 0.00032552083333333332
402 370 0.00032552083333333332
371 371 0.0019531249999999998
372 371 0.00032552083333333332
402 371 0.00032552083333333332
403 371 0.00032552083333333332
372 372 0.0019531249999999998
373 372 0.00032552083333333332
403 372 0.00032552083333333332
404 372 0.00032552083333333332
373 373 0.0019531249999999998
374 373 0.00032552083333333332
404 373 0.00032552083333333332
405 373 0.00032552083333333332
374 374 0.0019531249999999998
375 374 0.00032552083333333332
405 374 0.00032552083333333332
406 374 0.00032552083333333332
375 375 0.0019531249999999998
376 375 0.00032552083333333332
406 375 0.00032552083333333332
407 375 0.00032552083333333332
376 376 0.0019531249999999998
377 376 0.00032552083333333332
407 376 0.00032552083333333332
408 376 0.00032552083333333332
377 377 0.0019531249999999998
378 377 0.00032552083333333332
408 377 0.00032552083333333332
409 377 0.00032552083333333332
378 378 0.0019531249999999998
379 378 0.00032552083333333332
409 378 0.00032552083333333332
410 378 0.00032552083333333332
379 379 0.0019531249999999998
380 379 0.00032552083333333332
410 379 0.00032552083333333332
411 379 0.00032552083333333332
380 380 0.0019531249999999998
381 380 0.00032552083333333332
411 380 0.00032552083333333332
412 380 0.00032552083333333332
381 381 0.0019531249999999998
382 381 0.00032552083333333332
412 381 0.00032552083333333332
413 381 0.00032552083333333332
382 382 0.0019531249999999998
383 382 0.00032552083333333332
413 382 0.00032552083333333332
414 382 0.00032552083333333332
383 383 0.0019531249999999998
384 383 0.00032552083333333332
414 383 0.00032552083333333332
415 383 0.00032552083333333332
384 384 0.0019531249999999998
385 384 0.00032552083333333332
415 384 0.00032552083333333332
416 384 0.00032552083333333332
385 385 0.0019531249999999998
386 385 0.00032552083333333332
416 385 0.00032552083333333332
417 385 0.00032552083333333332
386 386 0.0019531249999999998
387 386 0.00032552083333333332
417 386 0.00032552083333333332
418 386 0.00032552083333333332
387 387 0.0019531249999999998
388 387 0.00032552083333333332
418 387 0.00032552083333333332
419 387 0.00032552083333333332
388 388 0.0019531249999999998
389 388 0.00032552083333333332
419 388 0.00032552083333333332
420 388 0.00032552083333333332
389 389 0.0019531249999999998
390 389 0.00032552083333333332
420 389 0.00032552083333333332
421 389 0.00032552083333333332
390 390 0.0019531249999999998
391 390 0.00032552083333333332
421 390 0.00032552083333333332
422 390 0.00032552083333333332
391 391 0.0019531249999999998
392 391 0.00032552083333333332
422 391 0.00032552083333333332
423 391 0.00032552083333333332
392 392 0.0019531249999999998
393 392 0.00032552083333333332
423 392 0.00032552083333333332
424 392 0.00032552083333333332
393 393 0.0019531249999999998
394 393 0.00032552083333333332
424 393 0.00032552083333333332
425 393 0.00032552083333333332
394 394 0.0019531249999999998
395 394 0.00032552083333333332
425 394 0.00032552083333333332
426 394 0.00032552083333333332
395 395 0.0019531249999999998
426 395 0.00032552083333333332
396 396 0.0019531249999999998
397 396 0.00032552083333333332
427 396 0.00032552083333333332
428 396 0.00032552083333333332
397 397 0.0019531249999999998
398 397 0.00032552083333333332
428 397 0.00032552083333333332
429 397 0.00032552083333333332
398 398 0.0019531249999999998
399 398 0.00032552083333333332
429 398 0.00032552083333333332
430 398 0.00032552083333333332
399 399 0.0019531249999999998
400 399 0.00032552083333333332
430 399 0.00032552083333333332
431 399 0.00032552083333333332
400 400 0.0019531249999999998
401 400 0.00032552083333333332
431 400 0.00032552083333333332
432 400 0.00032552083333333332
401 401 0.0019531249999999998
402 401 0.00032552083333333332
432 401 0.00032552083333333332
433 401 0.00032552083333333332
402 402 0.0019531249999999998
403 402 0.00032552083333333332
433 402 0.00032552083333333332
434 402 0.00032552083333333332
403 403 0.0019531249999999998
404 403 0.00032552083333333332
434 403 0.00032552083333333332
435 403 0.00032552083333333332
404 404 0.0019531249999999998
405 404 0.00032552083333333332
435 404 0.00032552083333333332
436 404 0.00032552083333333332
405 405 0.0019531249999999998
406 405 0.00032552083333333332
436 405 0.00032552083333333332
437 405 0.00032552083333333332
406 406 0.0019531249999999998
407 406 0.00032552083333333332
437 406 0.00032552083333333332
438 406 0.00032552083333333332
407 407 0.0019531249999999998
408 407 0.00032552083333333332
438 407 0.00032552083333333332
439 407 0.00032552083333333332
408 408 0.0019531249999999998
409 408 0.00032552083333333332
439 408 0.00032552083333333332
440 408 0.00032552083333333332
409 409 0.0019531249999999998
410 409 0.00032552083333333332
440 409 0.00032552083333333332
441 409 0.00032552083333333332
410 410 0.0019531249999999998
411 410 0.00032552083333333332
441 410 0.00032552083333333332
442 410 0.00032552083333333332
411 411 0.0019531249999999998
412 411 0.00032552083333333332
442 411 0.00032552083333333332
443 411 0.00032552083333333332
412 412 0.0019531249999999998
413 412 0.00032552083333333332
443 412 0.00032552083333333332
444 412 0.00032552083333333332
413 413 0.0019531249999999998
414 413 0.00032552083333333332
444 413 0.00032552083333333332
445 413 0.00032552083333333332
414 414 0.0019531249999999998
415 414 0.00032552083333333332
445 414 0.00032552083333333332
446 414 0.00032552083333333332
415 415 0.0019531249999999998
416 415 0.00032552083333333332
446 415 0.00032552083333333332
447 415 0.00032552083333333332
416 416 0.0019531249999999998
417 416 0.00032552083333333332
447 416 0.00032552083333333332
448 416 0.00032552083333333332
417 417 0.0019531249999999998
418 417 0.00032552083333333332
448 417 0.00032552083333333332
449 417 0.00032552083333333332
418 418 0.0019531249999999998
419 418 0.00032552083333333332
449 418 0.00032552083333333332
450 418 0.00032552083333333332
419 419 0.0019531249999999998
420 419 0.00032552083333333332
450 419 0.00032552083333333332
451 419 0.00032552083333333332
420 420 0.0019531249999999998
421 420 0.00032552083333333332
451 420 0.00032552083333333332
452 420 0.00032552083333333332
421 421 0.0019531249999999998
422 421 0.00032552083333333332
452 421 0.00032552083333333332
453 421 0.00032552083333333332
422 422 0.0019531249999999998
423 422 0.00032552083333333332
453 422 0.00032552083333333332
454 422 0.00032552083333333332
423 423 0.0019531249999999998
424 423 0.00032552083333333332
454 423 0.00032552083333333332
455 423 0.00032552083333333332
424 424 0.0019531249999999998
425 424 0.00032552083333333332
455 424 0.00032552083333333332
456 424 0.00032552083333333332
425 425 0.0019531249999999998
426 425 0.00032552083333333332
456 425 0.00032552083333333332
457 425 0.00032552083333333332
426 426 0.0019531249999999998
457 426 0.00032552083333333332
427 427 0.0019531249999999998
428 427 0.00032552083333333332
458 427 0.00032552083333333332
459 427 0.00032552083333333332
428 428 0.0019531249999999998
429 428 0.00032552083333333332
459 428 0.00032552083333333332
460 428 0.00032552083333333332
429 429 0.0019531249999999998
430 429 0.00032552083333333332
460 429 0.00032552083333333332
461 429 0.00032552083333333332
430 430 0.0019531249999999998
431 430 0.00032552083333333332
461 430 0.00032552083333333332
462 430 0.00032552083333333332
431 431 0.0019531249999999998
432 431 0.00032552083333333332
462 431 0.00032552083333333332
463 431 0.00032552083333333332
432 432 0.0019531249999999998
433 432 0.00032552083333333332
463 432 0.00032552083333333332
464 432 0.00032552083333333332
433 433 0.0019531249999999998
434 433 0.00032552083333333332
464 433 0.00032552083333333332
465 433 0.00032552083333333332
434 434 0.0019531249999999998
435 434 0.00032552083333333332
465 434 0.00032552083333333332
466 434 0.00032552083333333332
435 435 0.0019531249999999998
436 435 0.00032552083333333332
466 435 0.00032552083333333332
467 435 0.00032552083333333332
436 436 0.0019531249999999998
437 436 0.00032552083333333332
467 436 0.00032552083333333332
468 436 0.00032552083333333332
437 437 0.0019531249999999998
438 437 0.00032552083333333332
468 437 0.00032552083333333332
469 437 0.00032552083333333332
438 438 0.0019531249999999998
439 438 0.00032552083333333332
469 438 0.00032552083333333332
470 438 0.00032552083333333332
439 439 0.0019531249999999998
440 439 0.00032552083333333332
470 439 0.00032552083333333332
471 439 0.00032552083333333332
440 440 0.0019531249999999998
441 440 0.00032552083333333332
471 440 0.00032552083333333332
472 440 0.00032552083333333332
441 441 0.0019531249999999998
442 441 0.00032552083333333332
472 441 0.00032552083333333332
473 441 0.00032552083333333332
442 442 0.0019531249999999998
443 442 0.00032552083333333332
473 442 0.00032552083333333332
474 442 0.00032552083333333332
443 443 0.0019531249999999998
444 443 0.00032552083333333332
474 443 0.00032552083333333332
475 443 0.00032552083333333332
444 444 0.0019531249999999998
445 444 0.00032552083333333332
475 444 0.00032552083333333332
476 444 0.00032552083333333332
445 445 0.0019531249999999998
446 445 0.00032552083333333332
476 445 0.00032552083333333332
477 445 0.00032552083333333332
446 446 0.0019531249999999998
447 446 0.00032552083333333332
477 446 0.00032552083333333332
478 446 0.00032552083333333332
447 447 0.0019531249999999998
448 447 0.00032552083333333332
478 447 0.00032552083333333332
479 447 0.00032552083333333332
448 448 0.0019531249999999998
449 448 0.00032552083333333332
479 448 0.00032552083333333332
480 448 0.00032552083333333332
449 449 0.0019531249999999998
450 449 0.00032552083333333332
480 449 0.00032552083333333332
481 449 0.00032552083333333332
450 450 0.0019531249999999998
451 450 0.00032552083333333332
481 450 0.00032552083333333332
482 450 0.00032552083333333332
451 451 0.0019531249999999998
452 451 0.00032552083333333332
482 451 0.00032552083333333332
483 451 0.00032552083333333332
452 452 0.0019531249999999998
453 452 0.00032552083333333332
483 452 0.00032552083333333332
484 452 0.00032552083333333332
453 453 0.0019531249999999998
454 453 0.00032552083333333332
484 453 0.00032552083333333332
485 453 0.00032552083333333332
454 454 0.0019531249999999998
455 454 0.00032552083333333332
485 454 0.00032552083333333332
486 454 0.00032552083333333332
455 455 0.0019531249999999998
456 455 0.00032552083333333332
486 455 0.00032552083333333332
487 455 0.00032552083333333332
456 456 0.0019531249999999998
457 456 0.00032552083333333332
487 456 0.00032552083333333332
488 456 0.00032552083333333332
457 457 0.0019531249999999998
488 457 0.00032552083333333332
458 458 0.0019531249999999998
459 458 0.00032552083333333332
489 458 0.00032552083333333332
490 458 0.00032552083333333332
459 459 0.0019531249999999998
460 459 0.00032552083333333332
490 459 0.00032552083333333332
491 459 0.00032552083333333332
460 460 0.0019531249999999998
461 460 0.00032552083333333332
491 460 0.00032552083333333332
492 460 0.00032552083333333332
461 461 0.0019531249999999998
462 461 0.00032552083333333332
492 461 0.00032552083333333332
493 461 0.00032552083333333332
462 462 0.0019531249999999998
463 462 0.00032552083333333332
493 462 0.00032552083333333332
494 462 0.00032552083333333332
463 463 0.0019531249999999998
464 463 0.00032552083333333332
494 463 0.00032552083333333332
495 463 0.00032552083333333332
464 464 0.0019531249999999998
465 464 0.00032552083333333332
495 464 0.00032552083333333332
496 464 0.00032552083333333332
465 465 0.0019531249999999998
466 465 0.00032552083333333332
496 465 0.00032552083333333332
497 465 0.00032552083333333332
466 466 0.0019531249999999998
467 466 0.00032552083333333332
497 466 0.00032552083333333332
498 466 0.00032552083333333332
467 467 0.0019531249999999998
468 467 0.00032552083333333332
498 467 0.00032552083333333332
499 467 0.00032552083333333332
468 468 0.0019531249999999998
469 468 0.00032552083333333332
499 468 0.00032552083333333332
500 468 0.00032552083333333332
469 469 0.0019531249999999998
470 469 0.00032552083333333332
500 469 0.00032552083333333332
501 469 0.00032552083333333332
470 470 0.0019531249999999998
471 470 0.00032552083333333332
501 470 0.00032552083333333332
502 470 0.00032552083333333332
471 471 0.0019531249999999998
472 471 0.00032552083333333332
502 471 0.00032552083333333332
503 471 0.00032552083333333332
472 472 0.0019531249999999998
473 472 0.00032552083333333332
503 472 0.00032552083333333332
504 472 0.00032552083333333332
473 473 0.0019531249999999998
474 473 0.00032552083333333332
504 473 0.00032552083333333332
505 473 0.00032552083333333332
474 474 0.0019531249999999998
475 474 0.00032552083333333332
505 474 0.00032552083333333332
506 474 0.00032552083333333332
475 475 0.0019531249999999998
476 475 0.00032552083333333332
506 475 0.00032552083333333332
507 475 0.00032552083333333332
476 476 0.0019531249999999998
477 476 0.00032552083333333332
507 476 0.00032552083333333332
508 476 0.00032552083333333332
477 477 0.0019531249999999998
478 477 0.00032552083333333332
508 477 0.00032552083333333332
509 477 0.00032552083333333332
478 478 0.0019531249999999998
479 478 0.00032552083333333332
509 478 0.00032552083333333332
510 478 0.00032552083333333332
479 479 0.0019531249999999998
480 479 0.00032552083333333332
510 479 0.00032552083333333332
511 479 0.00032552083333333332
480 480 0.0019531249999999998
481 480 0.00032552083333333332
511 480 0.00032552083333333332
512 480 0.00032552083333333332
481 481 0.0019531249999999998
482 481 0.00032552083333333332
512 481 0.00032552083333333332
513 481 0.00032552083333333332
482 482 0.0019531249999999998
483 482 0.00032552083333333332
513 482 0.00032552083333333332
514 482 0.00032552083333333332
483 483 0.0019531249999999998
484 483 0.00032552083333333332
514 483 0.00032552083333333332
515 483 0.00032552083333333332
484 484 0.0019531249999999998
485 484 0.00032552083333333332
515 484 0.00032552083333333332
516 484 0.00032552083333333332
485 485 0.0019531249999999998
486 485 0.00032552083333333332
516 485 0.00032552083333333332
517 485 0.00032552083333333332
486 486 0.0019531249999999998
487 486 0.00032552083333333332
517 486 0.00032552083333333332
518 486 0.00032552083333333332
487 487 0.0019531249999999998
488 487 0.00032552083333333332
518 487 0.00032552083333333332
519 487 0.00032552083333333332
488 488 0.0019531249999999998
519 488 0.00032552083333333332
489 489 0.0019531249999999998
490 489 0.00032552083333333332
520 489 0.00032552083333333332
521 489 0.00032552083333333332
490 490 0.0019531249999999998
491 490 0.00032552083333333332
521 490 0.00032552083333333332
522 490 0.00032552083333333332
491 491 0.0019531249999999998
492 491 0.00032552083333333332
522 491 0.00032552083333333332
523 491 0.00032552083333333332
492 492 0.0019531249999999998
493 492 0.00032552083333333332
523 492 0.00032552083333333332
524 492 0.00032552083333333332
493 493 0.0019531249999999998
494 493 0.00032552083333333332
524 493 0.00032552083333333332
525 493 0.00032552083333333332
494 494 0.0019531249999999998
495 494 0.00032552083333333332
525 494 0.00032552083333333332
526 494 0.00032552083333333332
495 495 0.0019531249999999998
496 495 0.00032552083333333332
526 495 0.00032552083333333332
527 495 0.00032552083333333332
496 496 0.0019531249999999998
497 496 0.00032552083333333332
527 496 0.00032552083333333332
528 496 0.00032552083333333332
497 497 0.0019531249999999998
498 497 0.00032552083333333332
528 497 0.00032552083333333332
529 497 0.00032552083333333332
498 498 0.0019531249999999998
499 498 0.00032552083333333332
529 498 0.00032552083333333332
530 498 0.00032552083333333332
499 499 0.0019531249999999998
500 499 0.00032552083333333332
530 499 0.00032552083333333332
531 499 0.00032552083333333332
500 500 0.0019531249999999998
501 500 0.00032552083333333332
531 500 0.00032552083333333332
532 500 0.00032552083333333332
501 501 0.0019531249999999998
502 501 0.00032552083333333332
532 501 0.00032552083333333332
533 501 0.00032552083333333332
502 502 0.0019531249999999998
503 502 0.00032552083333333332
533 502 0.00032552083333333332
534 502 0.00032552083333333332
503 503 0.0019531249999999998
504 503 0.00032552083333333332
534 503 0.00032552083333333332
535 503 0.00032552083333333332
504 504 0.0019531249999999998
505 504 0.00032552083333333332
535 504 0.00032552083333333332
536 504 0.00032552083333333332
505 505 0.0019531249999999998
506 505 0.00032552083333333332
536 505 0.00032552083333333332
537 505 0.00032552083333333332
506 506 0.0019531249999999998
507 506 0.00032552083333333332
537 506 0.00032552083333333332
538 506 0.00032552083333333332
507 507 0.0019531249999999998
508 507 0.00032552083333333332
538 507 0.00032552083333333332
539 507 0.00032552083333333332
508 508 0.0019531249999999998
509 508 0.00032552083333333332
539 508 0.00032552083333333332
540 508 0.00032552083333333332
509 509 0.0019531249999999998
510 509 0.00032552083333333332
540 509 0.00032552083333333332
541 509 0.00032552083333333332
510 510 0.0019531249999999998
511 510 0.00032552083333333332
541 510 0.00032552083333333332
542 510 0.00032552083333333332
511 511 0.0019531249999999998
512 511 0.00032552083333333332
542 511 0.00032552083333333332
543 511 0.00032552083333333332
512 512 0.0019531249999999998
513 512 0.00032552083333333332
543 512 0.00032552083333333332
544 512 0.00032552083333333332
513 513 0.0019531249999999998
514 513 0.00032552083333333332
544 513 0.00032552083333333332
545 513 0.00032552083333333332
514 514 0.0019531249999999998
515 514 0.00032552083333333332
545 514 0.00032552083333333332
546 514 0.00032552083333333332
515 515 0.0019531249999999998
516 515 0.00032552083333333332
546 515 0.00032552083333333332
547 515 0.00032552083333333332
516 516 0.0019531249999999998
517 516 0.00032552083333333332
547 516 0.00032552083333333332
548 516 0.00032552083333333332
517 517 0.0019531249999999998
518 517 0.00032552083333333332
548 517 0.00032552083333333332
549 517 0.00032552083333333332
518 518 0.0019531249999999998
519 518 0.00032552083333333332
549 518 0.00032552083333333332
550 518 0.00032552083333333332
519 519 0.0019531249999999998
550 519 0.00032552083333333332
520 520 0.0019531249999999998
521 520 0.00032552083333333332
551 520 0.00032552083333333332
552 520 0.00032552083333333332
521 521 0.0019531249999999998
522 521 0.00032552083333333332
552 521 0.00032552083333333332
553 521 0.00032552083333333332
522 522 0.0019531249999999998
523 522 0.00032552083333333332
553 522 0.00032552083333333332
554 522 0.00032552083333333332
523 523 0.0019531249999999998
524 523 0.00032552083333333332
554 523 0.00032552083333333332
555 523 0.00032552083333333332
524 524 0.0019531249999999998
525 524 0.00032552083333333332
555 524 0.00032552083333333332
556 524 0.00032552083333333332
525 525 0.0019531249999999998
526 525 0.00032552083333333332
556 525 0.00032552083333333332
557 525 0.00032552083333333332
526 526 0.0019531249999999998
527 526 0.00032552083333333332
557 526 0.00032552083333333332
558 526 0.00032552083333333332
527 527 0.0019531249999999998
528 527 0.00032552083333333332
558 527 0.00032552083333333332
559 527 0.00032552083333333332
528 528 0.0019531249999999998
529 528 0.00032552083333333332
559 528 0.00032552083333333332
560 528 0.00032552083333333332
529 529 0.0019531249999999998
530 529 0.00032552083333333332
560 529 0.00032552083333333332
561 529 0.00032552083333333332
530 530 0.0019531249999999998
531 530 0.00032552083333333332
561 530 0.00032552083333333332
562 530 0.00032552083333333332
531 531 0.0019531249999999998
532 531 0.00032552083333333332
562 531 0.00032552083333333332
563 531 0.00032552083333333332
532 532 0.0019531249999999998
533 532 0.00032552083333333332
563 532 0.00032552083333333332
564 532 0.00032552083333333332
533 533 0.0019531249999999998
534 533 0.00032552083333333332
564 533 0.00032552083333333332
565 533 0.00032552083333333332
534 534 0.0019531249999999998
535 534 0.00032552083333333332
565 534 0.00032552083333333332
566 534 0.00032552083333333332
535 535 0.0019531249999999998
536 535 0.00032552083333333332
566 535 0.00032552083333333332
567 535 0.00032552083333333332
536 536 0.0019531249999999998
537 536 0.00032552083333333332
567 536 0.00032552083333333332
568 536 0.00032552083333333332
537 537 0.0019531249999999998
538 537 0.00032552083333333332
568 537 0.00032552083333333332
569 537 0.00032552083333333332
538 538 0.0019531249999999998
539 538 0.00032552083333333332
569 538 0.00032552083333333332
570 538 0.00032552083333333332
539 539 0.0019531249999999998
540 539 0.00032552083333333332
570 539 0.00032552083333333332
571 539 0.00032552083333333332
540 540 0.0019531249999999998
541 540 0.00032552083333333332
571 540 0.00032552083333333332
572 540 0.00032552083333333332
541 541 0.0019531249999999998
542 541 0.00032552083333333332
572 541 0.00032552083333333332
573 541 0.00032552083333333332
542 542 0.0019531249999999998
543 542 0.00032552083333333332
573 542 0.00032552083333333332
574 542 0.00032552083333333332
543 543 0.0019531249999999998
544 543 0.00032552083333333332
574 543 0.00032552083333333332
575 543 0.00032552083333333332
544 544 0.0019531249999999998
545 544 0.00032552083333333332
575 544 0.00032552083333333332
576 544 0.00032552083333333332
545 545 0.0019531249999999998
546 545 0.00032552083333333332
576 545 0.00032552083333333332
577 545 0.00032552083333333332
546 546 0.0019531249999999998
547 546 0.00032552083333333332
577 546 0.00032552083333333332
578 546 0.00032552083333333332
547 547 0.0019531249999999998
548 547 0.00032552083333333332
578 547 0.00032552083333333332
579 547 0.00032552083333333332
548 548 0.0019531249999999998
549 548 0.00032552083333333332
579 548 0.00032552083333333332
580 548 0.00032552083333333332
549 549 0.0019531249999999998
550 549 0.00032552083333333332
580 549 0.00032552083333333332
581 549 0.00032552083333333332
550 550 0.0019531249999999998
581 550 0.00032552083333333332
551 551 0.0019531249999999998
552 551 0.00032552083333333332
582 551 0.00032552083333333332
583 551 0.00032552083333333332
552 552 0.0019531249999999998
553 552 0.00032552083333333332
583 552 0.00032552083333333332
584 552 0.00032552083333333332
553 553 0.0019531249999999998
554 553 0.00032552083333333332
584 553 0.00032552083333333332
585 553 0.00032552083333333332
554 554 0.0019531249999999998
555 554 0.00032552083333333332
585 554 0.00032552083333333332
586 554 0.00032552083333333332
555 555 0.0019531249999999998
556 555 0.00032552083333333332
586 555 0.00032552083333333332
587 555 0.00032552083333333332
556 556 0.0019531249999999998
557 556 0.00032552083333333332
587 556 0.00032552083333333332
588 556 0.00032552083333333332
557 557 0.0019531249999999998
558 557 0.00032552083333333332
588 557 0.00032552083333333332
589 557 0.00032552083333333332
558 558 0.0019531249999999998
559 558 0.00032552083333333332
589 558 0.00032552083333333332
590 558 0.00032552083333333332
559 559 0.0019531249999999998
560 559 0.00032552083333333332
590 559 0.00032552083333333332
591 559 0.00032552083333333332
560 560 0.0019531249999999998
561 560 0.00032552083333333332
591 560 0.00032552083333333332
592 560 0.00032552083333333332
561 561 0.0019531249999999998
562 561 0.00032552083333333332
592 561 0.00032552083333333332
593 561 0.00032552083333333332
562 562 0.0019531249999999998
563 562 0.00032552083333333332
593 562 0.00032552083333333332
594 562 0.00032552083333333332
563 563 0.0019531249999999998
564 563 0.00032552083333333332
594 563 0.00032552083333333332
595 563 0.00032552083333333332
564 564 0.0019531249999999998
565 564 0.00032552083333333332
595 564 0.00032552083333333332
596 564 0.00032552083333333332
565 565 0.0019531249999999998
566 565 0.00032552083333333332
596 565 0.00032552083333333332
597 565 0.00032552083333333332
566 566 0.0019531249999999998
567 566 0.00032552083333333332
597 566 0.00032552083333333332
598 566 0.00032552083333333332
567 567 0.0019531249999999998
568 567 0.00032552083333333332
598 567 0.00032552083333333332
599 567 0.00032552083333333332
568 568 0.0019531249999999998
569 568 0.00032552083333333332
599 568 0.00032552083333333332
600 568 0.00032552083333333332
569 569 0.0019531249999999998
570 569 0.00032552083333333332
600 569 0.00032552083333333332
601 569 0.00032552083333333332
570 570 0.0019531249999999998
571 570 0.00032552083333333332
601 570 0.00032552083333333332
602 570 0.00032552083333333332
571 571 0.0019531249999999998
572 571 0.00032552083333333332
602 571 0.00032552083333333332
603 571 0.00032552083333333332
572 572 0.0019531249999999998
573 572 0.00032552083333333332
603 572 0.00032552083333333332
604 572 0.00032552083333333332
573 573 0.0019531249999999998
574 573 0.00032552083333333332
604 573 0.00032552083333333332
605 573 0.00032552083333333332
574 574 0.0019531249999999998
575 574 0.00032552083333333332
605 574 0.00032552083333333332
606 574 0.00032552083333333332
575 575 0.0019531249999999998
576 575 0.00032552083333333332
606 575 0.00032552083333333332
607 575 0.00032552083333333332
576 576 0.0019531249999999998
577 576 0.00032552083333333332
607 576 0.00032552083333333332
608 576 0.00032552083333333332
577 577 0.0019531249999999998
578 577 0.00032552083333333332
608 577 0.00032552083333333332
609 577 0.00032552083333333332
578 578 0.0019531249999999998
579 578 0.00032552083333333332
609 578 0.00032552083333333332
610 578 0.00032552083333333332
579 579 0.0019531249999999998
580 579 0.00032552083333333332
610 579 0.00032552083333333332
611 579 0.00032552083333333332
580 580 0.0019531249999999998
581 580 0.00032552083333333332
611 580 0.00032552083333333332
612 580 0.00032552083333333332
581 581 0.0019531249999999998
612 581 0.00032552083333333332
582 582 0.0019531249999999998
583 582 0.00032552083333333332
613 582 0.00032552083333333332
614 582 0.00032552083333333332
583 583 0.0019531249999999998
584 583 0.00032552083333333332
614 583 0.00032552083333333332
615 583 0.00032552083333333332
584 584 0.0019531249999999998
585 584 0.00032552083333333332
615 584 0.00032552083333333332
616 584 0.00032552083333333332
585 585 0.0019531249999999998
586 585 0.00032552083333333332
616 585 0.00032552083333333332
617 585 0.00032552083333333332
586 586 0.0019531249999999998
587 586 0.00032552083333333332
617 586 0.00032552083333333332
618 586 0.00032552083333333332
587 587 0.0019531249999999998
588 587 0.00032552083333333332
618 587 0.00032552083333333332
619 587 0.00032552083333333332
588 588 0.0019531249999999998
589 588 0.00032552083333333332
619 588 0.00032552083333333332
620 588 0.00032552083333333332
589 589 0.0019531249999999998
590 589 0.00032552083333333332
620 589 0.00032552083333333332
621 589 0.00032552083333333332
590 590 0.0019531249999999998
591 590 0.00032552083333333332
621 590 0.00032552083333333332
622 590 0.00032552083333333332
591 591 0.0019531249999999998
592 591 0.00032552083333333332
622 591 0.00032552083333333332
623 591 0.00032552083333333332
592 592 0.0019531249999999998
593 592 0.00032552083333333332
623 592 0.00032552083333333332
624 592 0.00032552083333333332
593 593 0.0019531249999999998
594 593 0.00032552083333333332
624 593 0.00032552083333333332
625 593 0.00032552083333333332
594 594 0.0019531249999999998
595 594 0.00032552083333333332
625 594 0.00032552083333333332
626 594 0.00032552083333333332
595 595 0.0019531249999999998
596 595 0.00032552083333333332
626 595 0.00032552083333333332
627 595 0.00032552083333333332
596 596 0.0019531249999999998
597 596 0.00032552083333333332
627 596 0.00032552083333333332
628 596 0.00032552083333333332
597 597 0.0019531249999999998
598 597 0.00032552083333333332
628 597 0.00032552083333333332
629 597 0.00032552083333333332
598 598 0.0019531249999999998
599 598 0.00032552083333333332
629 598 0.00032552083333333332
630 598 0.00032552083333333332
599 599 0.0019531249999999998
600 599 0.00032552083333333332
630 599 0.00032552083333333332
631 599 0.00032552083333333332
600 600 0.0019531249999999998
601 600 0.00032552083333333332
631 600 0.00032552083333333332
632 600 0.00032552083333333332
601 601 0.0019531249999999998
602 601 0.00032552083333333332
632 601 0.00032552083333333332
633 601 0.00032552083333333332
602 602 0.0019531249999999998
603 602 0.00032552083333333332
633 602 0.00032552083333333332
634 602 0.00032552083333333332
603 603 0.0019531249999999998
604 603 0.00032552083333333332
634 603 0.00032552083333333332
635 603 0.00032552083333333332
604 604 0.0019531249999999998
605 604 0.00032552083333333332
635 604 0.00032552083333333332
636 604 0.00032552083333333332
605 605 0.0019531249999999998
606 605 0.00032552083333333332
636 605 0.00032552083333333332
637 605 0.00032552083333333332
606 606 0.0019531249999999998
607 606 0.00032552083333333332
637 606 0.00032552083333333332
638 606 0.00032552083333333332
607 607 0.0019531249999999998
608 607 0.00032552083333333332
638 607 0.00032552083333333332
639 607 0.00032552083333333332
608 608 0.0019531249999999998
609 608 0.00032552083333333332
639 608 0.00032552083333333332
640 608 0.00032552083333333332
609 609 0.0019531249999999998
610 609 0.00032552083333333332
640 609 0.00032552083333333332
641 609 0.00032552083333333332
610 610 0.0019531249999999998
611 610 0.00032552083333333332
641 610 0.00032552083333333332
642 610 0.00032552083333333332
611 611 0.0019531249999999998
612 611 0.00032552083333333332
642 611 0.00032552083333333332
643 611 0.00032552083333333332
612 612 0.0019531249999999998
643 612 0.00032552083333333332
613 613 0.0019531249999999998
614 613 0.00032552083333333332
644 613 0.00032552083333333332
645 613 0.00032552083333333332
614 614 0.0019531249999999998
615 614 0.00032552083333333332
645 614 0.00032552083333333332
646 614 0.00032552083333333332
615 615 0.0019531249999999998
616 615 0.00032552083333333332
646 615 0.00032552083333333332
647 615 0.00032552083333333332
616 616 0.0019531249999999998
617 616 0.00032552083333333332
647 616 0.00032552083333333332
648 616 0.00032552083333333332
617 617 0.0019531249999999998
618 617 0.00032552083333333332
648 617 0.00032552083333333332
649 617 0.00032552083333333332
618 618 0.0019531249999999998
619 618 0.00032552083333333332
649 618 0.00032552083333333332
650 618 0.00032552083333333332
619 619 0.0019531249999999998
620 619 0.00032552083333333332
650 619 0.00032552083333333332
651 619 0.00032552083333333332
620 620 0.0019531249999999998
621 620 0.00032552083333333332
651 620 0.00032552083333333332
652 620 0.00032552083333333332
621 621 0.0019531249999999998
622 621 0.00032552083333333332
652 621 0.00032552083333333332
653 621 0.00032552083333333332
622 622 0.0019531249999999998
623 622 0.00032552083333333332
653 622 0.00032552083333333332
654 622 0.00032552083333333332
623 623 0.0019531249999999998
624 623 0.00032552083333333332
654 623 0.00032552083333333332
655 623 0.00032552083333333332
624 624 0.0019531249999999998
625 624 0.00032552083333333332
655 624 0.00032552083333333332
656 624 0.00032552083333333332
625 625 0.0019531249999999998
626 625 0.00032552083333333332
656 625 0.00032552083333333332
657 625 0.00032552083333333332
626 626 0.0019531249999999998
627 626 0.00032552083333333332
657 626 0.00032552083333333332
658 626 0.00032552083333333332
627 627 0.0019531249999999998
628 627 0.00032552083333333332
658 627 0.00032552083333333332
659 627 0.00032552083333333332
628 628 0.0019531249999999998
629 628 0.00032552083333333332
659 628 0.00032552083333333332
660 628 0.00032552083333333332
629 629 0.0019531249999999998
630 629 0.00032552083333333332
660 629 0.00032552083333333332
661 629 0.00032552083333333332
630 630 0.0019531249999999998
631 630 0.00032552083333333332
661 630 0.00032552083333333332
662 630 0.00032552083333333332
631 631 0.0019531249999999998
632 631 0.00032552083333333332
662 631 0.00032552083333333332
663 631 0.00032552083333333332
632 632 0.0019531249999999998
633 632 0.00032552083333333332
663 632 0.00032552083333333332
664 632 0.00032552083333333332
633 633 0.0019531249999999998
634 633 0.00032552083333333332
664 633 0.00032552083333333332
665 633 0.00032552083333333332
634 634 0.0019531249999999998
635 634 0.00032552083333333332
665 634 0.00032552083333333332
666 634 0.00032552083333333332
635 635 0.0019531249999999998
636 635 0.00032552083333333332
666 635 0.00032552083333333332
667 635 0.00032552083333333332
636 636 0.0019531249999999998
637 636 0.00032552083333333332
667 636 0.00032552083333333332
668 636 0.00032552083333333332
637 637 0.0019531249999999998
638 637 0.00032552083333333332
668 637 0.00032552083333333332
669 637 0.00032552083333333332
638 638 0.0019531249999999998
639 638 0.00032552083333333332
669 638 0.00032552083333333332
670 638 0.00032552083333333332
639 639 0.0019531249999999998
640 639 0.00032552083333333332
670 639 0.00032552083333333332
671 639 0.00032552083333333332
640 640 0.0019531249999999998
641 640 0.00032552083333333332
671 640 0.00032552083333333332
672 640 0.00032552083333333332
641 641 0.0019531249999999998
642 641 0.00032552083333333332
672 641 0.00032552083333333332
673 641 0.00032552083333333332
642 642 0.0019531249999999998
643 642 0.00032552083333333332
673 642 0.00032552083333333332
674 642 0.00032552083333333332
643 643 0.0019531249999999998
674 643 0.00032552083333333332
644 644 0.0019531249999999998
645 644 0.00032552083333333332
675 644 0.00032552083333333332
676 644 0.00032552083333333332
645 645 0.0019531249999999998
646 645 0.00032552083333333332
676 645 0.00032552083333333332
677 645 0.00032552083333333332
646 646 0.0019531249999999998
647 646 0.00032552083333333332
677 646 0.00032552083333333332
678 646 0.00032552083333333332
647 647 0.0019531249999999998
648 647 0.00032552083333333332
678 647 0.00032552083333333332
679 647 0.00032552083333333332
648 648 0.0019531249999999998
649 648 0.00032552083333333332
679 648 0.00032552083333333332
680 648 0.00032552083333333332
649 649 0.0019531249999999998
650 649 0.00032552083333333332
680 649 0.00032552083333333332
681 649 0.00032552083333333332
650 650 0.0019531249999999998
651 650 0.00032552083333333332
681 650 0.00032552083333333332
682 650 0.00032552083333333332
651 651 0.0019531249999999998
652 651 0.00032552083333333332
682 651 0.00032552083333333332
683 651 0.00032552083333333332
652 652 0.0019531249999999998
653 652 0.00032552083333333332
683 652 0.00032552083333333332
684 652 0.00032552083333333332
653 653 0.0019531249999999998
654 653 0.00032552083333333332
684 653 0.00032552083333333332
685 653 0.00032552083333333332
654 654 0.0019531249999999998
655 654 0.00032552083333333332
685 654 0.00032552083333333332
686 654 0.00032552083333333332
655 655 0.0019531249999999998
656 655 0.00032552083333333332
686 655 0.00032552083333333332
687 655 0.00032552083333333332
656 656 0.0019531249999999998
657 656 0.00032552083333333332
687 656 0.00032552083333333332
688 656 0.00032552083333333332
657 657 0.0019531249999999998
658 657 0.00032552083333333332
688 657 0.00032552083333333332
689 657 0.00032552083333333332
658 658 0.0019531249999999998
659 658 0.00032552083333333332
689 658 0.00032552083333333332
690 658 0.00032552083333333332
659 659 0.0019531249999999998
660 659 0.00032552083333333332
690 659 0.00032552083333333332
691 659 0.00032552083333333332
660 660 0.0019531249999999998
661 660 0.00032552083333333332
691 660 0.00032552083333333332
692 660 0.00032552083333333332
661 661 0.0019531249999999998
662 661 0.00032552083333333332
692 661 0.00032552083333333332
693 661 0.00032552083333333332
662 662 0.0019531249999999998
663 662 0.00032552083333333332
693 662 0.00032552083333333332
694 662 0.00032552083333333332
663 663 0.0019531249999999998
664 663 0.00032552083333333332
694 663 0.00032552083333333332
695 663 0.00032552083333333332
664 664 0.0019531249999999998
665 664 0.00032552083333333332
695 664 0.00032552083333333332
696 664 0.00032552083333333332
665 665 0.0019531249999999998
666 665 0.00032552083333333332
696 665 0.00032552083333333332
697 665 0.00032552083333333332
666 666 0.0019531249999999998
667 666 0.00032552083333333332
697 666 0.00032552083333333332
698 666 0.00032552083333333332
667 667 0.0019531249999999998
668 667 0.00032552083333333332
698 667 0.00032552083333333332
699 667 0.00032552083333333332
668 668 0.0019531249999999998
669 668 0.00032552083333333332
699 668 0.00032552083333333332
700 668 0.00032552083333333332
669 669 0.0019531249999999998
670 669 0.00032552083333333332
700 669 0.00032552083333333332
701 669 0.00032552083333333332
670 670 0.0019531249999999998
671 670 0.00032552083333333332
701 670 0.00032552083333333332
702 670 0.00032552083333333332
671 671 0.0019531249999999998
672 671 0.00032552083333333332
702 671 0.00032552083333333332
703 671 0.00032552083333333332
672 672 0.0019531249999999998
673 672 0.00032552083333333332
703 672 0.00032552083333333332
704 672 0.00032552083333333332
673 673 0.0019531249999999998
674 673 0.00032552083333333332
704 673 0.00032552083333333332
705 673 0.00032552083333333332
674 674 0.0019531249999999998
705 674 0.00032552083333333332
675 675 0.0019531249999999998
676 675 0.00032552083333333332
676 676 0.0019531249999999998
677 676 0.00032552083333333332
677 677 0.0019531249999999998
678 677 0.00032552083333333332
678 678 0.0019531249999999998
679 678 0.00032552083333333332
679 679 0.0019531249999999998
680 679 0.00032552083333333332
680 680 0.0019531249999999998
681 680 0.00032552083333333332
681 681 0.0019531249999999998
682 681 0.00032552083333333332
682 682 0.0019531249999999998
683 682 0.00032552083333333332
683 683 0.0019531249999999998
684 683 0.00032552083333333332
684 684 0.0019531249999999998
685 684 0.00032552083333333332
685 685 0.0019531249999999998
686 685 0.00032552083333333332
686 686 0.0019531249999999998
687 686 0.00032552083333333332
687 687 0.0019531249999999998
688 687 0.00032552083333333332
688 688 0.0019531249999999998
689 688 0.00032552083333333332
689 689 0.0019531249999999998
690 689 0.00032552083333333332
690 690 0.0019531249999999998
691 690 0.00032552083333333332
691 691 0.0019531249999999998
692 691 0.00032552083333333332
692 692 0.0019531249999999998
693 692 0.00032552083333333332
693 693 0.0019531249999999998
694 693 0.00032552083333333332
694 694 0.0019531249999999998
695 694 0.00032552083333333332
695 695 0.0019531249999999998
696 695 0.00032552083333333332
696 696 0.0019531249999999998
697 696 0.00032552083333333332
697 697 0.0019531249999999998
698 697 0.00032552083333333332
698 698 0.0019531249999999998
699 698 0.00032552083333333332
699 699 0.0019531249999999998
700 699 0.00032552083333333332
700 700 0.0019531249999999998
701 700 0.00032552083333333332
701 701 0.0019531249999999998
702 701 0.00032552083333333332
702 702 0.0019531249999999998
703 702 0.00032552083333333332
703 703 0.0019531249999999998
704 703 0.00032552083333333332
704 704 0.0019531249999999998
705 704 0.00032552083333333332
705 705 0.0019531249999999998
