%%MatrixMarket matrix coordinate real symmetric
% lshape_p1_n4 mass M[int,int], mesh=lshape_4 p=1, interior-restricted
% lower triangle only (row >= col); mirror for the full matrix
33 33 106
1 1 0.031249999999999997
2 1 0.005208333333333333
4 1 0.005208333333333333
5 1 0.005208333333333333
2 2 0.031249999999999997
3 2 0.005208333333333333
5 2 0.005208333333333333
6 2 0.005208333333333333
3 3 0.031249999999999997
6 3 0.005208333333333333
4 4 0.031249999999999997
5 4 0.005208333333333333
7 4 0.005208333333333333
8 4 0.005208333333333333
5 5 0.031249999999999997
6 5 0.005208333333333333
8 5 0.005208333333333333
9 5 0.005208333333333333
6 6 0.031249999999999997
9 6 0.005208333333333333
7 7 0.031249999999999997
8 7 0.005208333333333333
10 7 0.005208333333333333
11 7 0.005208333333333333
8 8 0.031249999999999997
9 8 0.005208333333333333
11 8 0.005208333333333333
12 8 0.005208333333333333
9 9 0.031249999999999997
12 9 0.005208333333333333
10 10 0.031249999999999997
11 10 0.005208333333333333
13 10 0.005208333333333333
14 10 0.005208333333333333
11 11 0.031249999999999997
12 11 0.005208333333333333
14 11 0.005208333333333333
15 11 0.005208333333333333
12 12 0.031249999999999997
15 12 0.005208333333333333
16 12 0.005208333333333333
13 13 0.031249999999999997
14 13 0.005208333333333333
20 13 0.005208333333333333
21 13 0.005208333333333333
14 14 0.031249999999999997
15 14 0.005208333333333333
21 14 0.005208333333333333
22 14 0.005208333333333333
15 15 0.031249999999999997
16 15 0.005208333333333333
22 15 0.005208333333333333
23 15 0.005208333333333333
16 16 0.031249999999999997
17 16 0.005208333333333333
23 16 0.005208333333333333
24 16 0.005208333333333333
17 17 0.031249999999999997
18 17 0.005208333333333333
24 17 0.005208333333333333
25 17 0.005208333333333333
18 18 0.031249999999999997
19 18 0.005208333333333333
25 18 0.005208333333333333
26 18 0.005208333333333333
19 19 0.031249999999999997
26 19 0.005208333333333333
20 20 0.031249999999999997
21 20 0.005208333333333333
27 20 0.005208333333333333
28 20 0.005208333333333333
21 21 0.031249999999999997
22 21 0.005208333333333333
28 21 0.005208333333333333
29 21 0.005208333333333333
22 22 0.031249999999999997
23 22 0.005208333333333333
29 22 0.005208333333333333
30 22 0.005208333333333333
23 23 0.031249999999999997
24 23 0.005208333333333333
30 23 0.005208333333333333
31 23 0.005208333333333333
24 24 0.031249999999999997
25 24 0.005208333333333333
31 24 0.005208333333333333
32 24 0.005208333333333333
25 25 0.031249999999999997
26 25 0.005208333333333333
32 25 0.005208333333333333
33 25 0.005208333333333333
26 26 0.031249999999999997
33 26 0.005208333333333333
27 27 0.031249999999999997
28 27 0.005208333333333333
28 28 0.031249999999999997
29 28 0.005208333333333333
29 29 0.031249999999999997
30 29 0.005208333333333333
30 30 0.031249999999999997
31 30 0.005208333333333333
31 31 0.031249999999999997
32 31 0.005208333333333333
32 32 0.031249999999999997
33 32 0.005208333333333333
33 33 0.031249999999999997
