%%MatrixMarket matrix coordinate real symmetric
% lshape_p1_n8 mass M[int,int], mesh=lshape_8 p=1, interior-restricted
% lower triangle only (row >= col); mirror for the full matrix
161 161 586
1 1 0.0078124999999999991
2 1 0.0013020833333333333
8 1 0.0013020833333333333
9 1 0.0013020833333333333
2 2 0.0078124999999999991
3 2 0.0013020833333333333
9 2 0.0013020833333333333
10 2 0.0013020833333333333
3 3 0.0078124999999999991
4 3 0.0013020833333333333
10 3 0.0013020833333333333
11 3 0.0013020833333333333
4 4 0.0078124999999999991
5 4 0.0013020833333333333
11 4 0.0013020833333333333
12 4 0.0013020833333333333
5 5 0.0078124999999999991
6 5 0.0013020833333333333
12 5 0.0013020833333333333
13 5 0.0013020833333333333
6 6 0.0078124999999999991
7 6 0.0013020833333333333
13 6 0.0013020833333333333
14 6 0.0013020833333333333
7 7 0.0078124999999999991
14 7 0.0013020833333333333
8 8 0.0078124999999999991
9 8 0.0013020833333333333
15 8 0.0013020833333333333
16 8 0.0013020833333333333
9 9 0.0078124999999999991
10 9 0.0013020833333333333
16 9 0.0013020833333333333
17 9 0.0013020833333333333
10 10 0.0078124999999999991
11 10 0.0013020833333333333
17 10 0.0013020833333333333
18 10 0.0013020833333333333
11 11 0.0078124999999999991
12 11 0.0013020833333333333
18 11 0.0013020833333333333
19 11 0.0013020833333333333
12 12 0.0078124999999999991
13 12 0.0013020833333333333
19 12 0.0013020833333333333
20 12 0.0013020833333333333
13 13 0.0078124999999999991
14 13 0.0013020833333333333
20 13 0.0013020833333333333
21 13 0.0013020833333333333
14 14 0.0078124999999999991
21 14 0.0013020833333333333
15 15 0.0078124999999999991
16 15 0.0013020833333333333
22 15 0.0013020833333333333
23 15 0.0013020833333333333
16 16 0.0078124999999999991
17 16 0.0013020833333333333
23 16 0.0013020833333333333
24 16 0.0013020833333333333
17 17 0.0078124999999999991
18 17 0.0013020833333333333
24 17 0.0013020833333333333
25 17 0.0013020833333333333
18 18 0.0078124999999999991
19 18 0.0013020833333333333
25 18 0.0013020833333333333
26 18 0.0013020833333333333
19 19 0.0078124999999999991
20 19 0.0013020833333333333
26 19 0.0013020833333333333
27 19 0.0013020833333333333
20 20 0.0078124999999999991
21 20 0.0013020833333333333
27 20 0.0013020833333333333
28 20 0.0013020833333333333
21 21 0.0078124999999999991
28 21 0.0013020833333333333
22 22 0.0078124999999999991
23 22 0.0013020833333333333
29 22 0.0013020833333333333
30 22 0.0013020833333333333
23 23 0.0078124999999999991
24 23 0.0013020833333333333
30 23 0.0013020833333333333
31 23 0.0013020833333333333
24 24 0.0078124999999999991
25 24 0.0013020833333333333
31 24 0.0013020833333333333
32 24 0.0013020833333333333
25 25 0.0078124999999999991
26 25 0.0013020833333333333
32 25 0.0013020833333333333
33 25 0.0013020833333333333
26 26 0.0078124999999999991
27 26 0.0013020833333333333
33 26 0.0013020833333333333
34 26 0.0013020833333333333
27 27 0.0078124999999999991
28 27 0.0013020833333333333
34 27 0.0013020833333333333
35 27 0.0013020833333333333
28 28 0.0078124999999999991
35 28 0.0013020833333333333
29 29 0.0078124999999999991
30 29 0.0013020833333333333
36 29 0.0013020833333333333
37 29 0.0013020833333333333
30 30 0.0078124999999999991
31 30 0.0013020833333333333
37 30 0.0013020833333333333
38 30 0.0013020833333333333
31 31 0.0078124999999999991
32 31 0.0013020833333333333
38 31 0.0013020833333333333
39 31 0.0013020833333333333
32 32 0.0078124999999999991
33 32 0.0013020833333333333
39 32 0.0013020833333333333
40 32 0.0013020833333333333
33 33 0.0078124999999999991
34 33 0.0013020833333333333
40 33 0.0013020833333333333
41 33 0.0013020833333333333
34 34 0.0078124999999999991
35 34 0.0013020833333333333
41 34 0.0013020833333333333
42 34 0.0013020833333333333
35 35 0.0078124999999999991
42 35 0.0013020833333333333
36 36 0.0078124999999999991
37 36 0.0013020833333333333
43 36 0.0013020833333333333
44 36 0.0013020833333333333
37 37 0.0078124999999999991
38 37 0.0013020833333333333
44 37 0.0013020833333333333
45 37 0.0013020833333333333
38 38 0.0078124999999999991
39 38 0.0013020833333333333
45 38 0.0013020833333333333
46 38 0.0013020833333333333
39 39 0.0078124999999999991
40 39 0.0013020833333333333
46 39 0.0013020833333333333
47 39 0.0013020833333333333
40 40 0.0078124999999999991
41 40 0.0013020833333333333
47 40 0.0013020833333333333
48 40 0.0013020833333333333
41 41 0.0078124999999999991
42 41 0.0013020833333333333
48 41 0.0013020833333333333
49 41 0.0013020833333333333
42 42 0.0078124999999999991
49 42 0.0013020833333333333
43 43 0.0078124999999999991
44 43 0.0013020833333333333
50 43 0.0013020833333333333
51 43 0.0013020833333333333
44 44 0.0078124999999999991
45 44 0.0013020833333333333
51 44 0.0013020833333333333
52 44 0.0013020833333333333
45 45 0.0078124999999999991
46 45 0.0013020833333333333
52 45 0.0013020833333333333
53 45 0.0013020833333333333
46 46 0.0078124999999999991
47 46 0.0013020833333333333
53 46 0.0013020833333333333
54 46 0.0013020833333333333
47 47 0.0078124999999999991
48 47 0.0013020833333333333
54 47 0.0013020833333333333
55 47 0.0013020833333333333
48 48 0.0078124999999999991
49 48 0.0013020833333333333
55 48 0.0013020833333333333
56 48 0.0013020833333333333
49 49 0.0078124999999999991
56 49 0.0013020833333333333
50 50 0.0078124999999999991
51 50 0.0013020833333333333
57 50 0.0013020833333333333
58 50 0.0013020833333333333
51 51 0.0078124999999999991
52 51 0.0013020833333333333
58 51 0.0013020833333333333
59 51 0.0013020833333333333
52 52 0.0078124999999999991
53 52 0.0013020833333333333
59 52 0.0013020833333333333
60 52 0.0013020833333333333
53 53 0.0078124999999999991
54 53 0.0013020833333333333
60 53 0.0013020833333333333
61 53 0.0013020833333333333
54 54 0.0078124999999999991
55 54 0.0013020833333333333
61 54 0.0013020833333333333
62 54 0.0013020833333333333
55 55 0.0078124999999999991
56 55 0.0013020833333333333
62 55 0.0013020833333333333
63 55 0.0013020833333333333
56 56 0.0078124999999999991
63 56 0.0013020833333333333
64 56 0.0013020833333333333
57 57 0.0078124999999999991
58 57 0.0013020833333333333
72 57 0.0013020833333333333
73 57 0.0013020833333333333
58 58 0.0078124999999999991
59 58 0.0013020833333333333
73 58 0.0013020833333333333
74 58 0.0013020833333333333
59 59 0.0078124999999999991
60 59 0.0013020833333333333
74 59 0.0013020833333333333
75 59 0.0013020833333333333
60 60 0.0078124999999999991
61 60 0.0013020833333333333
75 60 0.0013020833333333333
76 60 0.0013020833333333333
61 61 0.0078124999999999991
62 61 0.0013020833333333333
76 61 0.0013020833333333333
77 61 0.0013020833333333333
62 62 0.0078124999999999991
63 62 0.0013020833333333333
77 62 0.0013020833333333333
78 62 0.0013020833333333333
63 63 0.0078124999999999991
64 63 0.0013020833333333333
78 63 0.0013020833333333333
79 63 0.0013020833333333333
64 64 0.0078124999999999991
65 64 0.0013020833333333333
79 64 0.0013020833333333333
80 64 0.0013020833333333333
65 65 0.0078124999999999991
66 65 0.0013020833333333333
80 65 0.0013020833333333333
81 65 0.0013020833333333333
66 66 0.0078124999999999991
67 66 0.0013020833333333333
81 66 0.0013020833333333333
82 66 0.0013020833333333333
67 67 0.0078124999999999991
68 67 0.0013020833333333333
82 67 0.0013020833333333333
83 67 0.0013020833333333333
68 68 0.0078124999999999991
69 68 0.0013020833333333333
83 68 0.0013020833333333333
84 68 0.0013020833333333333
69 69 0.0078124999999999991
70 69 0.0013020833333333333
84 69 0.0013020833333333333
85 69 0.0013020833333333333
70 70 0.0078124999999999991
71 70 0.0013020833333333333
85 70 0.0013020833333333333
86 70 0.0013020833333333333
71 71 0.0078124999999999991
86 71 0.0013020833333333333
72 72 0.0078124999999999991
73 72 0.0013020833333333333
87 72 0.0013020833333333333
88 72 0.0013020833333333333
73 73 0.0078124999999999991
74 73 0.0013020833333333333
88 73 0.0013020833333333333
89 73 0.0013020833333333333
74 74 0.0078124999999999991
75 74 0.0013020833333333333
89 74 0.0013020833333333333
90 74 0.0013020833333333333
75 75 0.0078124999999999991
76 75 0.0013020833333333333
90 75 0.0013020833333333333
91 75 0.0013020833333333333
76 76 0.0078124999999999991
77 76 0.0013020833333333333
91 76 0.0013020833333333333
92 76 0.0013020833333333333
77 77 0.0078124999999999991
78 77 0.0013020833333333333
92 77 0.0013020833333333333
93 77 0.0013020833333333333
78 78 0.0078124999999999991
79 78 0.0013020833333333333
93 78 0.0013020833333333333
94 78 0.0013020833333333333
79 79 0.0078124999999999991
80 79 0.0013020833333333333
94 79 0.0013020833333333333
95 79 0.0013020833333333333
80 80 0.0078124999999999991
81 80 0.0013020833333333333
95 80 0.0013020833333333333
96 80 0.0013020833333333333
81 81 0.0078124999999999991
82 81 0.0013020833333333333
96 81 0.0013020833333333333
97 81 0.0013020833333333333
82 82 0.0078124999999999991
83 82 0.0013020833333333333
97 82 0.0013020833333333333
98 82 0.0013020833333333333
83 83 0.0078124999999999991
84 83 0.0013020833333333333
98 83 0.0013020833333333333
99 83 0.0013020833333333333
84 84 0.0078124999999999991
85 84 0.0013020833333333333
99 84 0.0013020833333333333
100 84 0.0013020833333333333
85 85 0.0078124999999999991
86 85 0.0013020833333333333
100 85 0.0013020833333333333
101 85 0.0013020833333333333
86 86 0.0078124999999999991
101 86 0.0013020833333333333
87 87 0.0078124999999999991
88 87 0.0013020833333333333
102 87 0.0013020833333333333
103 87 0.0013020833333333333
88 88 0.0078124999999999991
89 88 0.0013020833333333333
103 88 0.0013020833333333333
104 88 0.0013020833333333333
89 89 0.0078124999999999991
90 89 0.0013020833333333333
104 89 0.0013020833333333333
105 89 0.0013020833333333333
90 90 0.0078124999999999991
91 90 0.0013020833333333333
105 90 0.0013020833333333333
106 90 0.0013020833333333333
91 91 0.0078124999999999991
92 91 0.0013020833333333333
106 91 0.0013020833333333333
107 91 0.0013020833333333333
92 92 0.0078124999999999991
93 92 0.0013020833333333333
107 92 0.0013020833333333333
108 92 0.0013020833333333333
93 93 0.0078124999999999991
94 93 0.0013020833333333333
108 93 0.0013020833333333333
109 93 0.0013020833333333333
94 94 0.0078124999999999991
95 94 0.0013020833333333333
109 94 0.0013020833333333333
110 94 0.0013020833333333333
95 95 0.0078124999999999991
96 95 0.0013020833333333333
110 95 0.0013020833333333333
111 95 0.0013020833333333333
96 96 0.0078124999999999991
97 96 0.0013020833333333333
111 96 0.0013020833333333333
112 96 0.0013020833333333333
97 97 0.0078124999999999991
98 97 0.0013020833333333333
112 97 0.0013020833333333333
113 97 0.0013020833333333333
98 98 0.0078124999999999991
99 98 0.0013020833333333333
113 98 0.0013020833333333333
114 98 0.0013020833333333333
99 99 0.0078124999999999991
100 99 0.0013020833333333333
114 99 0.0013020833333333333
115 99 0.0013020833333333333
100 100 0.0078124999999999991
101 100 0.0013020833333333333
115 100 0.0013020833333333333
116 100 0.0013020833333333333
101 101 0.0078124999999999991
116 101 0.0013020833333333333
102 102 0.0078124999999999991
103 102 0.0013020833333333333
117 102 0.0013020833333333333
118 102 0.0013020833333333333
103 103 0.0078124999999999991
104 103 0.0013020833333333333
118 103 0.0013020833333333333
119 103 0.0013020833333333333
104 104 0.0078124999999999991
105 104 0.0013020833333333333
119 104 0.0013020833333333333
120 104 0.0013020833333333333
105 105 0.0078124999999999991
106 105 0.0013020833333333333
120 105 0.0013020833333333333
121 105 0.0013020833333333333
106 106 0.0078124999999999991
107 106 0.0013020833333333333
121 106 0.0013020833333333333
122 106 0.0013020833333333333
107 107 0.0078124999999999991
108 107 0.0013020833333333333
122 107 0.0013020833333333333
123 107 0.0013020833333333333
108 108 0.0078124999999999991
109 108 0.0013020833333333333
123 108 0.0013020833333333333
124 108 0.0013020833333333333
109 109 0.0078124999999999991
110 109 0.0013020833333333333
124 109 0.0013020833333333333
125 109 0.0013020833333333333
110 110 0.0078124999999999991
111 110 0.0013020833333333333
125 110 0.0013020833333333333
126 110 0.0013020833333333333
111 111 0.0078124999999999991
112 111 0.0013020833333333333
126 111 0.0013020833333333333
127 111 0.0013020833333333333
112 112 0.0078124999999999991
113 112 0.0013020833333333333
127 112 0.0013020833333333333
128 112 0.0013020833333333333
113 113 0.0078124999999999991
114 113 0.0013020833333333333
128 113 0.0013020833333333333
129 113 0.0013020833333333333
114 114 0.0078124999999999991
115 114 0.0013020833333333333
129 114 0.0013020833333333333
130 114 0.0013020833333333333
115 115 0.0078124999999999991
116 115 0.0013020833333333333
130 115 0.0013020833333333333
131 115 0.0013020833333333333
116 116 0.0078124999999999991
131 116 0.0013020833333333333
117 117 0.0078124999999999991
118 117 0.0013020833333333333
132 117 0.0013020833333333333
133 117 0.0013020833333333333
118 118 0.0078124999999999991
119 118 0.0013020833333333333
133 118 0.0013020833333333333
134 118 0.0013020833333333333
119 119 0.0078124999999999991
120 119 0.0013020833333333333
134 119 0.0013020833333333333
135 119 0.0013020833333333333
120 120 0.0078124999999999991
121 120 0.0013020833333333333
135 120 0.0013020833333333333
136 120 0.0013020833333333333
121 121 0.0078124999999999991
122 121 0.0013020833333333333
136 121 0.0013020833333333333
137 121 0.0013020833333333333
122 122 0.0078124999999999991
123 122 0.0013020833333333333
137 122 0.0013020833333333333
138 122 0.0013020833333333333
123 123 0.0078124999999999991
124 123 0.0013020833333333333
138 123 0.0013020833333333333
139 123 0.0013020833333333333
124 124 0.0078124999999999991
125 124 0.0013020833333333333
139 124 0.0013020833333333333
140 124 0.0013020833333333333
125 125 0.0078124999999999991
126 125 0.0013020833333333333
140 125 0.0013020833333333333
141 125 0.0013020833333333333
126 126 0.0078124999999999991
127 126 0.0013020833333333333
141 126 0.0013020833333333333
142 126 0.0013020833333333333
127 127 0.0078124999999999991
128 127 0.0013020833333333333
142 127 0.0013020833333333333
143 127 0.0013020833333333333
128 128 0.0078124999999999991
129 128 0.0013020833333333333
143 128 0.0013020833333333333
144 128 0.0013020833333333333
129 129 0.0078124999999999991
130 129 0.0013020833333333333
144 129 0.0013020833333333333
145 129 0.0013020833333333333
130 130 0.0078124999999999991
131 130 0.0013020833333333333
145 130 0.0013020833333333333
146 130 0.0013020833333333333
131 131 0.0078124999999999991
146 131 0.0013020833333333333
132 132 0.0078124999999999991
133 132 0.0013020833333333333
147 132 0.0013020833333333333
148 132 0.0013020833333333333
133 133 0.0078124999999999991
134 133 0.0013020833333333333
148 133 0.0013020833333333333
149 133 0.0013020833333333333
134 134 0.0078124999999999991
135 134 0.0013020833333333333
149 134 0.0013020833333333333
150 134 0.0013020833333333333
135 135 0.0078124999999999991
136 135 0.0013020833333333333
150 135 0.0013020833333333333
151 135 0.0013020833333333333
136 136 0.0078124999999999991
137 136 0.0013020833333333333
151 136 0.0013020833333333333
152 136 0.0013020833333333333
137 137 0.0078124999999999991
138 137 0.0013020833333333333
152 137 0.0013020833333333333
153 137 0.0013020833333333333
138 138 0.0078124999999999991
139 138 0.0013020833333333333
153 138 0.0013020833333333333
154 138 0.0013020833333333333
139 139 0.0078124999999999991
140 139 0.0013020833333333333
154 139 0.0013020833333333333
155 139 0.0013020833333333333
140 140 0.0078124999999999991
141 140 0.0013020833333333333
155 140 0.0013020833333333333
156 140 0.0013020833333333333
141 141 0.0078124999999999991
142 141 0.0013020833333333333
156 141 0.0013020833333333333
157 141 0.0013020833333333333
142 142 0.0078124999999999991
143 142 0.0013020833333333333
157 142 0.0013020833333333333
158 142 0.0013020833333333333
143 143 0.0078124999999999991
144 143 0.0013020833333333333
158 143 0.0013020833333333333
159 143 0.0013020833333333333
144 144 0.0078124999999999991
145 144 0.0013020833333333333
159 144 0.0013020833333333333
160 144 0.0013020833333333333
145 145 0.0078124999999999991
146 145 0.0013020833333333333
160 145 0.0013020833333333333
161 145 0.0013020833333333333
146 146 0.0078124999999999991
161 146 0.0013020833333333333
147 147 0.0078124999999999991
148 147 0.0013020833333333333
148 148 0.0078124999999999991
149 148 0.0013020833333333333
149 149 0.0078124999999999991
150 149 0.0013020833333333333
150 150 0.0078124999999999991
151 150 0.0013020833333333333
151 151 0.0078124999999999991
152 151 0.0013020833333333333
152 152 0.0078124999999999991
153 152 0.0013020833333333333
153 153 0.0078124999999999991
154 153 0.0013020833333333333
154 154 0.0078124999999999991
155 154 0.0013020833333333333
155 155 0.0078124999999999991
156 155 0.0013020833333333333
156 156 0.0078124999999999991
157 156 0.0013020833333333333
157 157 0.0078124999999999991
158 157 0.0013020833333333333
158 158 0.0078124999999999991
159 158 0.0013020833333333333
159 159 0.0078124999999999991
160 159 0.0013020833333333333
160 160 0.0078124999999999991
161 160 0.0013020833333333333
161 161 0.0078124999999999991
