%%MatrixMarket matrix coordinate real symmetric
% square_p1_n16 stiffness A[int,int], mesh=unit_square_16 p=1, interior-restricted
% lower triangle only (row >= col); mirror for the full matrix
225 225 645
1 1 4
2 1 -1
16 1 -1
2 2 4
3 2 -1
17 2 -1
3 3 4
4 3 -1
18 3 -1
4 4 4
5 4 -1
19 4 -1
5 5 4
6 5 -1
20 5 -1
6 6 4
7 6 -1
21 6 -1
7 7 4
8 7 -1
22 7 -1
8 8 4
9 8 -1
23 8 -1
9 9 4
10 9 -1
24 9 -1
10 10 4
11 10 -1
25 10 -1
11 11 4
12 11 -1
26 11 -1
12 12 4
13 12 -1
27 12 -1
13 13 4
14 13 -1
28 13 -1
14 14 4
15 14 -1
29 14 -1
15 15 4
30 15 -1
16 16 4
17 16 -1
31 16 -1
17 17 4
18 17 -1
32 17 -1
18 18 4
19 18 -1
33 18 -1
19 19 4
20 19 -1
34 19 -1
20 20 4
21 20 -1
35 20 -1
21 21 4
22 21 -1
36 21 -1
22 22 4
23 22 -1
37 22 -1
23 23 4
24 23 -1
38 23 -1
24 24 4
25 24 -1
39 24 -1
25 25 4
26 25 -1
40 25 -1
26 26 4
27 26 -1
41 26 -1
27 27 4
28 27 -1
42 27 -1
28 28 4
29 28 -1
43 28 -1
29 29 4
30 29 -1
44 29 -1
30 30 4
45 30 -1
31 31 4
32 31 -1
46 31 -1
32 32 4
33 32 -1
47 32 -1
33 33 4
34 33 -1
48 33 -1
34 34 4
35 34 -1
49 34 -1
35 35 4
36 35 -1
50 35 -1
36 36 4
37 36 -1
51 36 -1
37 37 4
38 37 -1
52 37 -1
38 38 4
39 38 -1
53 38 -1
39 39 4
40 39 -1
54 39 -1
40 40 4
41 40 -1
55 40 -1
41 41 4
42 41 -1
56 41 -1
42 42 4
43 42 -1
57 42 -1
43 43 4
44 43 -1
58 43 -1
44 44 4
45 44 -1
59 44 -1
45 45 4
60 45 -1
46 46 4
47 46 -1
61 46 -1
47 47 4
48 47 -1
62 47 -1
48 48 4
49 48 -1
63 48 -1
49 49 4
50 49 -1
64 49 -1
50 50 4
51 50 -1
65 50 -1
51 51 4
52 51 -1
66 51 -1
52 52 4
53 52 -1
67 52 -1
53 53 4
54 53 -1
68 53 -1
54 54 4
55 54 -1
69 54 -1
55 55 4
56 55 -1
70 55 -1
56 56 4
57 56 -1
71 56 -1
57 57 4
58 57 -1
72 57 -1
58 58 4
59 58 -1
73 58 -1
59 59 4
60 59 -1
74 59 -1
60 60 4
75 60 -1
61 61 4
62 61 -1
76 61 -1
62 62 4
63 62 -1
77 62 -1
63 63 4
64 63 -1
78 63 -1
64 64 4
65 64 -1
79 64 -1
65 65 4
66 65 -1
80 65 -1
66 66 4
67 66 -1
81 66 -1
67 67 4
68 67 -1
82 67 -1
68 68 4
69 68 -1
83 68 -1
69 69 4
70 69 -1
84 69 -1
70 70 4
71 70 -1
85 70 -1
71 71 4
72 71 -1
86 71 -1
72 72 4
73 72 -1
87 72 -1
73 73 4
74 73 -1
88 73 -1
74 74 4
75 74 -1
89 74 -1
75 75 4
90 75 -1
76 76 4
77 76 -1
91 76 -1
77 77 4
78 77 -1
92 77 -1
78 78 4
79 78 -1
93 78 -1
79 79 4
80 79 -1
94 79 -1
80 80 4
81 80 -1
95 80 -1
81 81 4
82 81 -1
96 81 -1
82 82 4
83 82 -1
97 82 -1
83 83 4
84 83 -1
98 83 -1
84 84 4
85 84 -1
99 84 -1
85 85 4
86 85 -1
100 85 -1
86 86 4
87 86 -1
101 86 -1
87 87 4
88 87 -1
102 87 -1
88 88 4
89 88 -1
103 88 -1
89 89 4
90 89 -1
104 89 -1
90 90 4
105 90 -1
91 91 4
92 91 -1
106 91 -1
92 92 4
93 92 -1
107 92 -1
93 93 4
94 93 -1
108 93 -1
94 94 4
95 94 -1
109 94 -1
95 95 4
96 95 -1
110 95 -1
96 96 4
97 96 -1
111 96 -1
97 97 4
98 97 -1
112 97 -1
98 98 4
99 98 -1
113 98 -1
99 99 4
100 99 -1
114 99 -1
100 100 4
101 100 -1
115 100 -1
101 101 4
102 101 -1
116 101 -1
102 102 4
103 102 -1
117 102 -1
103 103 4
104 103 -1
118 103 -1
104 104 4
105 104 -1
119 104 -1
105 105 4
120 105 -1
106 106 4
107 106 -1
121 106 -1
107 107 4
108 107 -1
122 107 -1
108 108 4
109 108 -1
123 108 -1
109 109 4
110 109 -1
124 109 -1
110 110 4
111 110 -1
125 110 -1
111 111 4
112 111 -1
126 111 -1
112 112 4
113 112 -1
127 112 -1
113 113 4
114 113 -1
128 113 -1
114 114 4
115 114 -1
129 114 -1
115 115 4
116 115 -1
130 115 -1
116 116 4
117 116 -1
131 116 -1
117 117 4
118 117 -1
132 117 -1
118 118 4
119 118 -1
133 118 -1
119 119 4
120 119 -1
134 119 -1
120 120 4
135 120 -1
121 121 4
122 121 -1
136 121 -1
122 122 4
123 122 -1
137 122 -1
123 123 4
124 123 -1
138 123 -1
124 124 4
125 124 -1
139 124 -1
125 125 4
126 125 -1
140 125 -1
126 126 4
127 126 -1
141 126 -1
127 127 4
128 127 -1
142 127 -1
128 128 4
129 128 -1
143 128 -1
129 129 4
130 129 -1
144 129 -1
130 130 4
131 130 -1
145 130 -1
131 131 4
132 131 -1
146 131 -1
132 132 4
133 132 -1
147 132 -1
133 133 4
134 133 -1
148 133 -1
134 134 4
135 134 -1
149 134 -1
135 135 4
150 135 -1
136 136 4
137 136 -1
151 136 -1
137 137 4
138 137 -1
152 137 -1
138 138 4
139 138 -1
153 138 -1
139 139 4
140 139 -1
154 139 -1
140 140 4
141 140 -1
155 140 -1
141 141 4
142 141 -1
156 141 -1
142 142 4
143 142 -1
157 142 -1
143 143 4
144 143 -1
158 143 -1
144 144 4
145 144 -1
159 144 -1
145 145 4
146 145 -1
160 145 -1
146 146 4
147 146 -1
161 146 -1
147 147 4
148 147 -1
162 147 -1
148 148 4
149 148 -1
163 148 -1
149 149 4
150 149 -1
164 149 -1
150 150 4
165 150 -1
151 151 4
152 151 -1
166 151 -1
152 152 4
153 152 -1
167 152 -1
153 153 4
154 153 -1
168 153 -1
154 154 4
155 154 -1
169 154 -1
155 155 4
156 155 -1
170 155 -1
156 156 4
157 156 -1
171 156 -1
157 157 4
158 157 -1
172 157 -1
158 158 4
159 158 -1
173 158 -1
159 159 4
160 159 -1
174 159 -1
160 160 4
161 160 -1
175 160 -1
161 161 4
162 161 -1
176 161 -1
162 162 4
163 162 -1
177 162 -1
163 163 4
164 163 -1
178 163 -1
164 164 4
165 164 -1
179 164 -1
165 165 4
180 165 -1
166 166 4
167 166 -1
181 166 -1
167 167 4
168 167 -1
182 167 -1
168 168 4
169 168 -1
183 168 -1
169 169 4
170 169 -1
184 169 -1
170 170 4
171 170 -1
185 170 -1
171 171 4
172 171 -1
186 171 -1
172 172 4
173 172 -1
187 172 -1
173 173 4
174 173 -1
188 173 -1
174 174 4
175 174 -1
189 174 -1
175 175 4
176 175 -1
190 175 -1
176 176 4
177 176 -1
191 176 -1
177 177 4
178 177 -1
192 177 -1
178 178 4
179 178 -1
193 178 -1
179 179 4
180 179 -1
194 179 -1
180 180 4
195 180 -1
181 181 4
182 181 -1
196 181 -1
182 182 4
183 182 -1
197 182 -1
183 183 4
184 183 -1
198 183 -1
184 184 4
185 184 -1
199 184 -1
185 185 4
186 185 -1
200 185 -1
186 186 4
187 186 -1
201 186 -1
187 187 4
188 187 -1
202 187 -1
188 188 4
189 188 -1
203 188 -1
189 189 4
190 189 -1
204 189 -1
190 190 4
191 190 -1
205 190 -1
191 191 4
192 191 -1
206 191 -1
192 192 4
193 192 -1
207 192 -1
193 193 4
194 193 -1
208 193 -1
194 194 4
195 194 -1
209 194 -1
195 195 4
210 195 -1
196 196 4
197 196 -1
211 196 -1
197 197 4
198 197 -1
212 197 -1
198 198 4
199 198 -1
213 198 -1
199 199 4
200 199 -1
214 199 -1
200 200 4
201 200 -1
215 200 -1
201 201 4
202 201 -1
216 201 -1
202 202 4
203 202 -1
217 202 -1
203 203 4
204 203 -1
218 203 -1
204 204 4
205 204 -1
219 204 -1
205 205 4
206 205 -1
220 205 -1
206 206 4
207 206 -1
221 206 -1
207 207 4
208 207 -1
222 207 -1
208 208 4
209 208 -1
223 208 -1
209 209 4
210 209 -1
224 209 -1
210 210 4
225 210 -1
211 211 4
212 211 -1
212 212 4
213 212 -1
213 213 4
214 213 -1
214 214 4
215 214 -1
215 215 4
216 215 -1
216 216 4
217 216 -1
217 217 4
218 217 -1
218 218 4
219 218 -1
219 219 4
220 219 -1
220 220 4
221 220 -1
221 221 4
222 221 -1
222 222 4
223 222 -1
223 223 4
224 223 -1
224 224 4
225 224 -1
225 225 4
