%%MatrixMarket matrix coordinate real symmetric
% square_p1_n32 mass M[int,int], mesh=unit_square_32 p=1, interior-restricted
% lower triangle only (row >= col); mirror for the full matrix
961 961 3721
1 1 0.00048828124999999995
2 1 8.1380208333333329e-05
32 1 8.1380208333333329e-05
33 1 8.1380208333333329e-05
2 2 0.00048828124999999995
3 2 8.1380208333333329e-05
33 2 8.1380208333333329e-05
34 2 8.1380208333333329e-05
3 3 0.00048828124999999995
4 3 8.1380208333333329e-05
34 3 8.1380208333333329e-05
35 3 8.1380208333333329e-05
4 4 0.00048828124999999995
5 4 8.1380208333333329e-05
35 4 8.1380208333333329e-05
36 4 8.1380208333333329e-05
5 5 0.00048828124999999995
6 5 8.1380208333333329e-05
36 5 8.1380208333333329e-05
37 5 8.1380208333333329e-05
6 6 0.00048828124999999995
7 6 8.1380208333333329e-05
37 6 8.1380208333333329e-05
38 6 8.1380208333333329e-05
7 7 0.00048828124999999995
8 7 8.1380208333333329e-05
38 7 8.1380208333333329e-05
39 7 8.1380208333333329e-05
8 8 0.00048828124999999995
9 8 8.1380208333333329e-05
39 8 8.1380208333333329e-05
40 8 8.1380208333333329e-05
9 9 0.00048828124999999995
10 9 8.1380208333333329e-05
40 9 8.1380208333333329e-05
41 9 8.1380208333333329e-05
10 10 0.00048828124999999995
11 10 8.1380208333333329e-05
41 10 8.1380208333333329e-05
42 10 8.1380208333333329e-05
11 11 0.00048828124999999995
12 11 8.1380208333333329e-05
42 11 8.1380208333333329e-05
43 11 8.1380208333333329e-05
12 12 0.00048828124999999995
13 12 8.1380208333333329e-05
43 12 8.1380208333333329e-05
44 12 8.1380208333333329e-05
13 13 0.00048828124999999995
14 13 8.1380208333333329e-05
44 13 8.1380208333333329e-05
45 13 8.1380208333333329e-05
14 14 0.00048828124999999995
15 14 8.1380208333333329e-05
45 14 8.1380208333333329e-05
46 14 8.1380208333333329e-05
15 15 0.00048828124999999995
16 15 8.1380208333333329e-05
46 15 8.1380208333333329e-05
47 15 8.1380208333333329e-05
16 16 0.00048828124999999995
17 16 8.1380208333333329e-05
47 16 8.1380208333333329e-05
48 16 8.1380208333333329e-05
17 17 0.00048828124999999995
18 17 8.1380208333333329e-05
48 17 8.1380208333333329e-05
49 17 8.1380208333333329e-05
18 18 0.00048828124999999995
19 18 8.1380208333333329e-05
49 18 8.1380208333333329e-05
50 18 8.1380208333333329e-05
19 19 0.00048828124999999995
20 19 8.1380208333333329e-05
50 19 8.1380208333333329e-05
51 19 8.1380208333333329e-05
20 20 0.00048828124999999995
21 20 8.1380208333333329e-05
51 20 8.1380208333333329e-05
52 20 8.1380208333333329e-05
21 21 0.00048828124999999995
22 21 8.1380208333333329e-05
52 21 8.1380208333333329e-05
53 21 8.1380208333333329e-05
22 22 0.00048828124999999995
23 22 8.1380208333333329e-05
53 22 8.1380208333333329e-05
54 22 8.1380208333333329e-05
23 23 0.00048828124999999995
24 23 8.1380208333333329e-05
54 23 8.1380208333333329e-05
55 23 8.1380208333333329e-05
24 24 0.00048828124999999995
25 24 8.1380208333333329e-05
55 24 8.1380208333333329e-05
56 24 8.1380208333333329e-05
25 25 0.00048828124999999995
26 25 8.1380208333333329e-05
56 25 8.1380208333333329e-05
57 25 8.1380208333333329e-05
26 26 0.00048828124999999995
27 26 8.1380208333333329e-05
57 26 8.1380208333333329e-05
58 26 8.1380208333333329e-05
27 27 0.00048828124999999995
28 27 8.1380208333333329e-05
58 27 8.1380208333333329e-05
59 27 8.1380208333333329e-05
28 28 0.00048828124999999995
29 28 8.1380208333333329e-05
59 28 8.1380208333333329e-05
60 28 8.1380208333333329e-05
29 29 0.00048828124999999995
30 29 8.1380208333333329e-05
60 29 8.1380208333333329e-05
61 29 8.1380208333333329e-05
30 30 0.00048828124999999995
31 30 8.1380208333333329e-05
61 30 8.1380208333333329e-05
62 30 8.1380208333333329e-05
31 31 0.00048828124999999995
62 31 8.1380208333333329e-05
32 32 0.00048828124999999995
33 32 8.1380208333333329e-05
63 32 8.1380208333333329e-05
64 32 8.1380208333333329e-05
33 33 0.00048828124999999995
34 33 8.1380208333333329e-05
64 33 8.1380208333333329e-05
65 33 8.1380208333333329e-05
34 34 0.00048828124999999995
35 34 8.1380208333333329e-05
65 34 8.1380208333333329e-05
66 34 8.1380208333333329e-05
35 35 0.00048828124999999995
36 35 8.1380208333333329e-05
66 35 8.1380208333333329e-05
67 35 8.1380208333333329e-05
36 36 0.00048828124999999995
37 36 8.1380208333333329e-05
67 36 8.1380208333333329e-05
68 36 8.1380208333333329e-05
37 37 0.00048828124999999995
38 37 8.1380208333333329e-05
68 37 8.1380208333333329e-05
69 37 8.1380208333333329e-05
38 38 0.00048828124999999995
39 38 8.1380208333333329e-05
69 38 8.1380208333333329e-05
70 38 8.1380208333333329e-05
39 39 0.00048828124999999995
40 39 8.1380208333333329e-05
70 39 8.1380208333333329e-05
71 39 8.1380208333333329e-05
40 40 0.00048828124999999995
41 40 8.1380208333333329e-05
71 40 8.1380208333333329e-05
72 40 8.1380208333333329e-05
41 41 0.00048828124999999995
42 41 8.1380208333333329e-05
72 41 8.1380208333333329e-05
73 41 8.1380208333333329e-05
42 42 0.00048828124999999995
43 42 8.1380208333333329e-05
73 42 8.1380208333333329e-05
74 42 8.1380208333333329e-05
43 43 0.00048828124999999995
44 43 8.1380208333333329e-05
74 43 8.1380208333333329e-05
75 43 8.1380208333333329e-05
44 44 0.00048828124999999995
45 44 8.1380208333333329e-05
75 44 8.1380208333333329e-05
76 44 8.1380208333333329e-05
45 45 0.00048828124999999995
46 45 8.1380208333333329e-05
76 45 8.1380208333333329e-05
77 45 8.1380208333333329e-05
46 46 0.00048828124999999995
47 46 8.1380208333333329e-05
77 46 8.1380208333333329e-05
78 46 8.1380208333333329e-05
47 47 0.00048828124999999995
48 47 8.1380208333333329e-05
78 47 8.1380208333333329e-05
79 47 8.1380208333333329e-05
48 48 0.00048828124999999995
49 48 8.1380208333333329e-05
79 48 8.1380208333333329e-05
80 48 8.1380208333333329e-05
49 49 0.00048828124999999995
50 49 8.1380208333333329e-05
80 49 8.1380208333333329e-05
81 49 8.1380208333333329e-05
50 50 0.00048828124999999995
51 50 8.1380208333333329e-05
81 50 8.1380208333333329e-05
82 50 8.1380208333333329e-05
51 51 0.00048828124999999995
52 51 8.1380208333333329e-05
82 51 8.1380208333333329e-05
83 51 8.1380208333333329e-05
52 52 0.00048828124999999995
53 52 8.1380208333333329e-05
83 52 8.1380208333333329e-05
84 52 8.1380208333333329e-05
53 53 0.00048828124999999995
54 53 8.1380208333333329e-05
84 53 8.1380208333333329e-05
85 53 8.1380208333333329e-05
54 54 0.00048828124999999995
55 54 8.1380208333333329e-05
85 54 8.1380208333333329e-05
86 54 8.1380208333333329e-05
55 55 0.00048828124999999995
56 55 8.1380208333333329e-05
86 55 8.1380208333333329e-05
87 55 8.1380208333333329e-05
56 56 0.00048828124999999995
57 56 8.1380208333333329e-05
87 56 8.1380208333333329e-05
88 56 8.1380208333333329e-05
57 57 0.00048828124999999995
58 57 8.1380208333333329e-05
88 57 8.1380208333333329e-05
89 57 8.1380208333333329e-05
58 58 0.00048828124999999995
59 58 8.1380208333333329e-05
89 58 8.1380208333333329e-05
90 58 8.1380208333333329e-05
59 59 0.00048828124999999995
60 59 8.1380208333333329e-05
90 59 8.1380208333333329e-05
91 59 8.1380208333333329e-05
60 60 0.00048828124999999995
61 60 8.1380208333333329e-05
91 60 8.1380208333333329e-05
92 60 8.1380208333333329e-05
61 61 0.00048828124999999995
62 61 8.1380208333333329e-05
92 61 8.1380208333333329e-05
93 61 8.1380208333333329e-05
62 62 0.00048828124999999995
93 62 8.1380208333333329e-05
63 63 0.00048828124999999995
64 63 8.1380208333333329e-05
94 63 8.1380208333333329e-05
95 63 8.1380208333333329e-05
64 64 0.00048828124999999995
65 64 8.1380208333333329e-05
95 64 8.1380208333333329e-05
96 64 8.1380208333333329e-05
65 65 0.00048828124999999995
66 65 8.1380208333333329e-05
96 65 8.1380208333333329e-05
97 65 8.1380208333333329e-05
66 66 0.00048828124999999995
67 66 8.1380208333333329e-05
97 66 8.1380208333333329e-05
98 66 8.1380208333333329e-05
67 67 0.00048828124999999995
68 67 8.1380208333333329e-05
98 67 8.1380208333333329e-05
99 67 8.1380208333333329e-05
68 68 0.00048828124999999995
69 68 8.1380208333333329e-05
99 68 8.1380208333333329e-05
100 68 8.1380208333333329e-05
69 69 0.00048828124999999995
70 69 8.1380208333333329e-05
100 69 8.1380208333333329e-05
101 69 8.1380208333333329e-05
70 70 0.00048828124999999995
71 70 8.1380208333333329e-05
101 70 8.1380208333333329e-05
102 70 8.1380208333333329e-05
71 71 0.00048828124999999995
72 71 8.1380208333333329e-05
102 71 8.1380208333333329e-05
103 71 8.1380208333333329e-05
72 72 0.00048828124999999995
73 72 8.1380208333333329e-05
103 72 8.1380208333333329e-05
104 72 8.1380208333333329e-05
73 73 0.00048828124999999995
74 73 8.1380208333333329e-05
104 73 8.1380208333333329e-05
105 73 8.1380208333333329e-05
74 74 0.00048828124999999995
75 74 8.1380208333333329e-05
105 74 8.1380208333333329e-05
106 74 8.1380208333333329e-05
75 75 0.00048828124999999995
76 75 8.1380208333333329e-05
106 75 8.1380208333333329e-05
107 75 8.1380208333333329e-05
76 76 0.00048828124999999995
77 76 8.1380208333333329e-05
107 76 8.1380208333333329e-05
108 76 8.1380208333333329e-05
77 77 0.00048828124999999995
78 77 8.1380208333333329e-05
108 77 8.1380208333333329e-05
109 77 8.1380208333333329e-05
78 78 0.00048828124999999995
79 78 8.1380208333333329e-05
109 78 8.1380208333333329e-05
110 78 8.1380208333333329e-05
79 79 0.00048828124999999995
80 79 8.1380208333333329e-05
110 79 8.1380208333333329e-05
111 79 8.1380208333333329e-05
80 80 0.00048828124999999995
81 80 8.1380208333333329e-05
111 80 8.1380208333333329e-05
112 80 8.1380208333333329e-05
81 81 0.00048828124999999995
82 81 8.1380208333333329e-05
112 81 8.1380208333333329e-05
113 81 8.1380208333333329e-05
82 82 0.00048828124999999995
83 82 8.1380208333333329e-05
113 82 8.1380208333333329e-05
114 82 8.1380208333333329e-05
83 83 0.00048828124999999995
84 83 8.1380208333333329e-05
114 83 8.1380208333333329e-05
115 83 8.1380208333333329e-05
84 84 0.00048828124999999995
85 84 8.1380208333333329e-05
115 84 8.1380208333333329e-05
116 84 8.1380208333333329e-05
85 85 0.00048828124999999995
86 85 8.1380208333333329e-05
116 85 8.1380208333333329e-05
117 85 8.1380208333333329e-05
86 86 0.00048828124999999995
87 86 8.1380208333333329e-05
117 86 8.1380208333333329e-05
118 86 8.1380208333333329e-05
87 87 0.00048828124999999995
88 87 8.1380208333333329e-05
118 87 8.1380208333333329e-05
119 87 8.1380208333333329e-05
88 88 0.00048828124999999995
89 88 8.1380208333333329e-05
119 88 8.1380208333333329e-05
120 88 8.1380208333333329e-05
89 89 0.00048828124999999995
90 89 8.1380208333333329e-05
120 89 8.1380208333333329e-05
121 89 8.1380208333333329e-05
90 90 0.00048828124999999995
91 90 8.1380208333333329e-05
121 90 8.1380208333333329e-05
122 90 8.1380208333333329e-05
91 91 0.00048828124999999995
92 91 8.1380208333333329e-05
122 91 8.1380208333333329e-05
123 91 8.1380208333333329e-05
92 92 0.00048828124999999995
93 92 8.1380208333333329e-05
123 92 8.1380208333333329e-05
124 92 8.1380208333333329e-05
93 93 0.00048828124999999995
124 93 8.1380208333333329e-05
94 94 0.00048828124999999995
95 94 8.1380208333333329e-05
125 94 8.1380208333333329e-05
126 94 8.1380208333333329e-05
95 95 0.00048828124999999995
96 95 8.1380208333333329e-05
126 95 8.1380208333333329e-05
127 95 8.1380208333333329e-05
96 96 0.00048828124999999995
97 96 8.1380208333333329e-05
127 96 8.1380208333333329e-05
128 96 8.1380208333333329e-05
97 97 0.00048828124999999995
98 97 8.1380208333333329e-05
128 97 8.1380208333333329e-05
129 97 8.1380208333333329e-05
98 98 0.00048828124999999995
99 98 8.1380208333333329e-05
129 98 8.1380208333333329e-05
130 98 8.1380208333333329e-05
99 99 0.00048828124999999995
100 99 8.1380208333333329e-05
130 99 8.1380208333333329e-05
131 99 8.1380208333333329e-05
100 100 0.00048828124999999995
101 100 8.1380208333333329e-05
131 100 8.1380208333333329e-05
132 100 8.1380208333333329e-05
101 101 0.00048828124999999995
102 101 8.1380208333333329e-05
132 101 8.1380208333333329e-05
133 101 8.1380208333333329e-05
102 102 0.00048828124999999995
103 102 8.1380208333333329e-05
133 102 8.1380208333333329e-05
134 102 8.1380208333333329e-05
103 103 0.00048828124999999995
104 103 8.1380208333333329e-05
134 103 8.1380208333333329e-05
135 103 8.1380208333333329e-05
104 104 0.00048828124999999995
105 104 8.1380208333333329e-05
135 104 8.1380208333333329e-05
136 104 8.1380208333333329e-05
105 105 0.00048828124999999995
106 105 8.1380208333333329e-05
136 105 8.1380208333333329e-05
137 105 8.1380208333333329e-05
106 106 0.00048828124999999995
107 106 8.1380208333333329e-05
137 106 8.1380208333333329e-05
138 106 8.1380208333333329e-05
107 107 0.00048828124999999995
108 107 8.1380208333333329e-05
138 107 8.1380208333333329e-05
139 107 8.1380208333333329e-05
108 108 0.00048828124999999995
109 108 8.1380208333333329e-05
139 108 8.1380208333333329e-05
140 108 8.1380208333333329e-05
109 109 0.00048828124999999995
110 109 8.1380208333333329e-05
140 109 8.1380208333333329e-05
141 109 8.1380208333333329e-05
110 110 0.00048828124999999995
111 110 8.1380208333333329e-05
141 110 8.1380208333333329e-05
142 110 8.1380208333333329e-05
111 111 0.00048828124999999995
112 111 8.1380208333333329e-05
142 111 8.1380208333333329e-05
143 111 8.1380208333333329e-05
112 112 0.00048828124999999995
113 112 8.1380208333333329e-05
143 112 8.1380208333333329e-05
144 112 8.1380208333333329e-05
113 113 0.00048828124999999995
114 113 8.1380208333333329e-05
144 113 8.1380208333333329e-05
145 113 8.1380208333333329e-05
114 114 0.00048828124999999995
115 114 8.1380208333333329e-05
145 114 8.1380208333333329e-05
146 114 8.1380208333333329e-05
115 115 0.00048828124999999995
116 115 8.1380208333333329e-05
146 115 8.1380208333333329e-05
147 115 8.1380208333333329e-05
116 116 0.00048828124999999995
117 116 8.1380208333333329e-05
147 116 8.1380208333333329e-05
148 116 8.1380208333333329e-05
117 117 0.00048828124999999995
118 117 8.1380208333333329e-05
148 117 8.1380208333333329e-05
149 117 8.1380208333333329e-05
118 118 0.00048828124999999995
119 118 8.1380208333333329e-05
149 118 8.1380208333333329e-05
150 118 8.1380208333333329e-05
119 119 0.00048828124999999995
120 119 8.1380208333333329e-05
150 119 8.1380208333333329e-05
151 119 8.1380208333333329e-05
120 120 0.00048828124999999995
121 120 8.1380208333333329e-05
151 120 8.1380208333333329e-05
152 120 8.1380208333333329e-05
121 121 0.00048828124999999995
122 121 8.1380208333333329e-05
152 121 8.1380208333333329e-05
153 121 8.1380208333333329e-05
122 122 0.00048828124999999995
123 122 8.1380208333333329e-05
153 122 8.1380208333333329e-05
154 122 8.1380208333333329e-05
123 123 0.00048828124999999995
124 123 8.1380208333333329e-05
154 123 8.1380208333333329e-05
155 123 8.1380208333333329e-05
124 124 0.00048828124999999995
155 124 8.1380208333333329e-05
125 125 0.00048828124999999995
126 125 8.1380208333333329e-05
156 125 8.1380208333333329e-05
157 125 8.1380208333333329e-05
126 126 0.00048828124999999995
127 126 8.1380208333333329e-05
157 126 8.1380208333333329e-05
158 126 8.1380208333333329e-05
127 127 0.00048828124999999995
128 127 8.1380208333333329e-05
158 127 8.1380208333333329e-05
159 127 8.1380208333333329e-05
128 128 0.00048828124999999995
129 128 8.1380208333333329e-05
159 128 8.1380208333333329e-05
160 128 8.1380208333333329e-05
129 129 0.00048828124999999995
130 129 8.1380208333333329e-05
160 129 8.1380208333333329e-05
161 129 8.1380208333333329e-05
130 130 0.00048828124999999995
131 130 8.1380208333333329e-05
161 130 8.1380208333333329e-05
162 130 8.1380208333333329e-05
131 131 0.00048828124999999995
132 131 8.1380208333333329e-05
162 131 8.1380208333333329e-05
163 131 8.1380208333333329e-05
132 132 0.00048828124999999995
133 132 8.1380208333333329e-05
163 132 8.1380208333333329e-05
164 132 8.1380208333333329e-05
133 133 0.00048828124999999995
134 133 8.1380208333333329e-05
164 133 8.1380208333333329e-05
165 133 8.1380208333333329e-05
134 134 0.00048828124999999995
135 134 8.1380208333333329e-05
165 134 8.1380208333333329e-05
166 134 8.1380208333333329e-05
135 135 0.00048828124999999995
136 135 8.1380208333333329e-05
166 135 8.1380208333333329e-05
167 135 8.1380208333333329e-05
136 136 0.00048828124999999995
137 136 8.1380208333333329e-05
167 136 8.1380208333333329e-05
168 136 8.1380208333333329e-05
137 137 0.00048828124999999995
138 137 8.1380208333333329e-05
168 137 8.1380208333333329e-05
169 137 8.1380208333333329e-05
138 138 0.00048828124999999995
139 138 8.1380208333333329e-05
169 138 8.1380208333333329e-05
170 138 8.1380208333333329e-05
139 139 0.00048828124999999995
140 139 8.1380208333333329e-05
170 139 8.1380208333333329e-05
171 139 8.1380208333333329e-05
140 140 0.00048828124999999995
141 140 8.1380208333333329e-05
171 140 8.1380208333333329e-05
172 140 8.1380208333333329e-05
141 141 0.00048828124999999995
142 141 8.1380208333333329e-05
172 141 8.1380208333333329e-05
173 141 8.1380208333333329e-05
142 142 0.00048828124999999995
143 142 8.1380208333333329e-05
173 142 8.1380208333333329e-05
174 142 8.1380208333333329e-05
143 143 0.00048828124999999995
144 143 8.1380208333333329e-05
174 143 8.1380208333333329e-05
175 143 8.1380208333333329e-05
144 144 0.00048828124999999995
145 144 8.1380208333333329e-05
175 144 8.1380208333333329e-05
176 144 8.1380208333333329e-05
145 145 0.00048828124999999995
146 145 8.1380208333333329e-05
176 145 8.1380208333333329e-05
177 145 8.1380208333333329e-05
146 146 0.00048828124999999995
147 146 8.1380208333333329e-05
177 146 8.1380208333333329e-05
178 146 8.1380208333333329e-05
147 147 0.00048828124999999995
148 147 8.1380208333333329e-05
178 147 8.1380208333333329e-05
179 147 8.1380208333333329e-05
148 148 0.00048828124999999995
149 148 8.1380208333333329e-05
179 148 8.1380208333333329e-05
180 148 8.1380208333333329e-05
149 149 0.00048828124999999995
150 149 8.1380208333333329e-05
180 149 8.1380208333333329e-05
181 149 8.1380208333333329e-05
150 150 0.00048828124999999995
151 150 8.1380208333333329e-05
181 150 8.1380208333333329e-05
182 150 8.1380208333333329e-05
151 151 0.00048828124999999995
152 151 8.1380208333333329e-05
182 151 8.1380208333333329e-05
183 151 8.1380208333333329e-05
152 152 0.00048828124999999995
153 152 8.1380208333333329e-05
183 152 8.1380208333333329e-05
184 152 8.1380208333333329e-05
153 153 0.00048828124999999995
154 153 8.1380208333333329e-05
184 153 8.1380208333333329e-05
185 153 8.1380208333333329e-05
154 154 0.00048828124999999995
155 154 8.1380208333333329e-05
185 154 8.1380208333333329e-05
186 154 8.1380208333333329e-05
155 155 0.00048828124999999995
186 155 8.1380208333333329e-05
156 156 0.00048828124999999995
157 156 8.1380208333333329e-05
187 156 8.1380208333333329e-05
188 156 8.1380208333333329e-05
157 157 0.00048828124999999995
158 157 8.1380208333333329e-05
188 157 8.1380208333333329e-05
189 157 8.1380208333333329e-05
158 158 0.00048828124999999995
159 158 8.1380208333333329e-05
189 158 8.1380208333333329e-05
190 158 8.1380208333333329e-05
159 159 0.00048828124999999995
160 159 8.1380208333333329e-05
190 159 8.1380208333333329e-05
191 159 8.1380208333333329e-05
160 160 0.00048828124999999995
161 160 8.1380208333333329e-05
191 160 8.1380208333333329e-05
192 160 8.1380208333333329e-05
161 161 0.00048828124999999995
162 161 8.1380208333333329e-05
192 161 8.1380208333333329e-05
193 161 8.1380208333333329e-05
162 162 0.00048828124999999995
163 162 8.1380208333333329e-05
193 162 8.1380208333333329e-05
194 162 8.1380208333333329e-05
163 163 0.00048828124999999995
164 163 8.1380208333333329e-05
194 163 8.1380208333333329e-05
195 163 8.1380208333333329e-05
164 164 0.00048828124999999995
165 164 8.1380208333333329e-05
195 164 8.1380208333333329e-05
196 164 8.1380208333333329e-05
165 165 0.00048828124999999995
166 165 8.1380208333333329e-05
196 165 8.1380208333333329e-05
197 165 8.1380208333333329e-05
166 166 0.00048828124999999995
167 166 8.1380208333333329e-05
197 166 8.1380208333333329e-05
198 166 8.1380208333333329e-05
167 167 0.00048828124999999995
168 167 8.1380208333333329e-05
198 167 8.1380208333333329e-05
199 167 8.1380208333333329e-05
168 168 0.00048828124999999995
169 168 8.1380208333333329e-05
199 168 8.1380208333333329e-05
200 168 8.1380208333333329e-05
169 169 0.00048828124999999995
170 169 8.1380208333333329e-05
200 169 8.1380208333333329e-05
201 169 8.1380208333333329e-05
170 170 0.00048828124999999995
171 170 8.1380208333333329e-05
201 170 8.1380208333333329e-05
202 170 8.1380208333333329e-05
171 171 0.00048828124999999995
172 171 8.1380208333333329e-05
202 171 8.1380208333333329e-05
203 171 8.1380208333333329e-05
172 172 0.00048828124999999995
173 172 8.1380208333333329e-05
203 172 8.1380208333333329e-05
204 172 8.1380208333333329e-05
173 173 0.00048828124999999995
174 173 8.1380208333333329e-05
204 173 8.1380208333333329e-05
205 173 8.1380208333333329e-05
174 174 0.00048828124999999995
175 174 8.1380208333333329e-05
205 174 8.1380208333333329e-05
206 174 8.1380208333333329e-05
175 175 0.00048828124999999995
176 175 8.1380208333333329e-05
206 175 8.1380208333333329e-05
207 175 8.1380208333333329e-05
176 176 0.00048828124999999995
177 176 8.1380208333333329e-05
207 176 8.1380208333333329e-05
208 176 8.1380208333333329e-05
177 177 0.00048828124999999995
178 177 8.1380208333333329e-05
208 177 8.1380208333333329e-05
209 177 8.1380208333333329e-05
178 178 0.00048828124999999995
179 178 8.1380208333333329e-05
209 178 8.1380208333333329e-05
210 178 8.1380208333333329e-05
179 179 0.00048828124999999995
180 179 8.1380208333333329e-05
210 179 8.1380208333333329e-05
211 179 8.1380208333333329e-05
180 180 0.00048828124999999995
181 180 8.1380208333333329e-05
211 180 8.1380208333333329e-05
212 180 8.1380208333333329e-05
181 181 0.00048828124999999995
182 181 8.1380208333333329e-05
212 181 8.1380208333333329e-05
213 181 8.1380208333333329e-05
182 182 0.00048828124999999995
183 182 8.1380208333333329e-05
213 182 8.1380208333333329e-05
214 182 8.1380208333333329e-05
183 183 0.00048828124999999995
184 183 8.1380208333333329e-05
214 183 8.1380208333333329e-05
215 183 8.1380208333333329e-05
184 184 0.00048828124999999995
185 184 8.1380208333333329e-05
215 184 8.1380208333333329e-05
216 184 8.1380208333333329e-05
185 185 0.00048828124999999995
186 185 8.1380208333333329e-05
216 185 8.1380208333333329e-05
217 185 8.1380208333333329e-05
186 186 0.00048828124999999995
217 186 8.1380208333333329e-05
187 187 0.00048828124999999995
188 187 8.1380208333333329e-05
218 187 8.1380208333333329e-05
219 187 8.1380208333333329e-05
188 188 0.00048828124999999995
189 188 8.1380208333333329e-05
219 188 8.1380208333333329e-05
220 188 8.1380208333333329e-05
189 189 0.00048828124999999995
190 189 8.1380208333333329e-05
220 189 8.1380208333333329e-05
221 189 8.1380208333333329e-05
190 190 0.00048828124999999995
191 190 8.1380208333333329e-05
221 190 8.1380208333333329e-05
222 190 8.1380208333333329e-05
191 191 0.00048828124999999995
192 191 8.1380208333333329e-05
222 191 8.1380208333333329e-05
223 191 8.1380208333333329e-05
192 192 0.00048828124999999995
193 192 8.1380208333333329e-05
223 192 8.1380208333333329e-05
224 192 8.1380208333333329e-05
193 193 0.00048828124999999995
194 193 8.1380208333333329e-05
224 193 8.1380208333333329e-05
225 193 8.1380208333333329e-05
194 194 0.00048828124999999995
195 194 8.1380208333333329e-05
225 194 8.1380208333333329e-05
226 194 8.1380208333333329e-05
195 195 0.00048828124999999995
196 195 8.1380208333333329e-05
226 195 8.1380208333333329e-05
227 195 8.1380208333333329e-05
196 196 0.00048828124999999995
197 196 8.1380208333333329e-05
227 196 8.1380208333333329e-05
228 196 8.1380208333333329e-05
197 197 0.00048828124999999995
198 197 8.1380208333333329e-05
228 197 8.1380208333333329e-05
229 197 8.1380208333333329e-05
198 198 0.00048828124999999995
199 198 8.1380208333333329e-05
229 198 8.1380208333333329e-05
230 198 8.1380208333333329e-05
199 199 0.00048828124999999995
200 199 8.1380208333333329e-05
230 199 8.1380208333333329e-05
231 199 8.1380208333333329e-05
200 200 0.00048828124999999995
201 200 8.1380208333333329e-05
231 200 8.1380208333333329e-05
232 200 8.1380208333333329e-05
201 201 0.00048828124999999995
202 201 8.1380208333333329e-05
232 201 8.1380208333333329e-05
233 201 8.1380208333333329e-05
202 202 0.00048828124999999995
203 202 8.1380208333333329e-05
233 202 8.1380208333333329e-05
234 202 8.1380208333333329e-05
203 203 0.00048828124999999995
204 203 8.1380208333333329e-05
234 203 8.1380208333333329e-05
235 203 8.1380208333333329e-05
204 204 0.00048828124999999995
205 204 8.1380208333333329e-05
235 204 8.1380208333333329e-05
236 204 8.1380208333333329e-05
205 205 0.00048828124999999995
206 205 8.1380208333333329e-05
236 205 8.1380208333333329e-05
237 205 8.1380208333333329e-05
206 206 0.00048828124999999995
207 206 8.1380208333333329e-05
237 206 8.1380208333333329e-05
238 206 8.1380208333333329e-05
207 207 0.00048828124999999995
208 207 8.1380208333333329e-05
238 207 8.1380208333333329e-05
239 207 8.1380208333333329e-05
208 208 0.00048828124999999995
209 208 8.1380208333333329e-05
239 208 8.1380208333333329e-05
240 208 8.1380208333333329e-05
209 209 0.00048828124999999995
210 209 8.1380208333333329e-05
240 209 8.1380208333333329e-05
241 209 8.1380208333333329e-05
210 210 0.00048828124999999995
211 210 8.1380208333333329e-05
241 210 8.1380208333333329e-05
242 210 8.1380208333333329e-05
211 211 0.00048828124999999995
212 211 8.1380208333333329e-05
242 211 8.1380208333333329e-05
243 211 8.1380208333333329e-05
212 212 0.00048828124999999995
213 212 8.1380208333333329e-05
243 212 8.1380208333333329e-05
244 212 8.1380208333333329e-05
213 213 0.00048828124999999995
214 213 8.1380208333333329e-05
244 213 8.1380208333333329e-05
245 213 8.1380208333333329e-05
214 214 0.00048828124999999995
215 214 8.1380208333333329e-05
245 214 8.1380208333333329e-05
246 214 8.1380208333333329e-05
215 215 0.00048828124999999995
216 215 8.1380208333333329e-05
246 215 8.1380208333333329e-05
247 215 8.1380208333333329e-05
216 216 0.00048828124999999995
217 216 8.1380208333333329e-05
247 216 8.1380208333333329e-05
248 216 8.1380208333333329e-05
217 217 0.00048828124999999995
248 217 8.1380208333333329e-05
218 218 0.00048828124999999995
219 218 8.1380208333333329e-05
249 218 8.1380208333333329e-05
250 218 8.1380208333333329e-05
219 219 0.00048828124999999995
220 219 8.1380208333333329e-05
250 219 8.1380208333333329e-05
251 219 8.1380208333333329e-05
220 220 0.00048828124999999995
221 220 8.1380208333333329e-05
251 220 8.1380208333333329e-05
252 220 8.1380208333333329e-05
221 221 0.00048828124999999995
222 221 8.1380208333333329e-05
252 221 8.1380208333333329e-05
253 221 8.1380208333333329e-05
222 222 0.00048828124999999995
223 222 8.1380208333333329e-05
253 222 8.1380208333333329e-05
254 222 8.1380208333333329e-05
223 223 0.00048828124999999995
224 223 8.1380208333333329e-05
254 223 8.1380208333333329e-05
255 223 8.1380208333333329e-05
224 224 0.00048828124999999995
225 224 8.1380208333333329e-05
255 224 8.1380208333333329e-05
256 224 8.1380208333333329e-05
225 225 0.00048828124999999995
226 225 8.1380208333333329e-05
256 225 8.1380208333333329e-05
257 225 8.1380208333333329e-05
226 226 0.00048828124999999995
227 226 8.1380208333333329e-05
257 226 8.1380208333333329e-05
258 226 8.1380208333333329e-05
227 227 0.00048828124999999995
228 227 8.1380208333333329e-05
258 227 8.1380208333333329e-05
259 227 8.1380208333333329e-05
228 228 0.00048828124999999995
229 228 8.1380208333333329e-05
259 228 8.1380208333333329e-05
260 228 8.1380208333333329e-05
229 229 0.00048828124999999995
230 229 8.1380208333333329e-05
260 229 8.1380208333333329e-05
261 229 8.1380208333333329e-05
230 230 0.00048828124999999995
231 230 8.1380208333333329e-05
261 230 8.1380208333333329e-05
262 230 8.1380208333333329e-05
231 231 0.00048828124999999995
232 231 8.1380208333333329e-05
262 231 8.1380208333333329e-05
263 231 8.1380208333333329e-05
232 232 0.00048828124999999995
233 232 8.1380208333333329e-05
263 232 8.1380208333333329e-05
264 232 8.1380208333333329e-05
233 233 0.00048828124999999995
234 233 8.1380208333333329e-05
264 233 8.1380208333333329e-05
265 233 8.1380208333333329e-05
234 234 0.00048828124999999995
235 234 8.1380208333333329e-05
265 234 8.1380208333333329e-05
266 234 8.1380208333333329e-05
235 235 0.00048828124999999995
236 235 8.1380208333333329e-05
266 235 8.1380208333333329e-05
267 235 8.1380208333333329e-05
236 236 0.00048828124999999995
237 236 8.1380208333333329e-05
267 236 8.1380208333333329e-05
268 236 8.1380208333333329e-05
237 237 0.00048828124999999995
238 237 8.1380208333333329e-05
268 237 8.1380208333333329e-05
269 237 8.1380208333333329e-05
238 238 0.00048828124999999995
239 238 8.1380208333333329e-05
269 238 8.1380208333333329e-05
270 238 8.1380208333333329e-05
239 239 0.00048828124999999995
240 239 8.1380208333333329e-05
270 239 8.1380208333333329e-05
271 239 8.1380208333333329e-05
240 240 0.00048828124999999995
241 240 8.1380208333333329e-05
271 240 8.1380208333333329e-05
272 240 8.1380208333333329e-05
241 241 0.00048828124999999995
242 241 8.1380208333333329e-05
272 241 8.1380208333333329e-05
273 241 8.1380208333333329e-05
242 242 0.00048828124999999995
243 242 8.1380208333333329e-05
273 242 8.1380208333333329e-05
274 242 8.1380208333333329e-05
243 243 0.00048828124999999995
244 243 8.1380208333333329e-05
274 243 8.1380208333333329e-05
275 243 8.1380208333333329e-05
244 244 0.00048828124999999995
245 244 8.1380208333333329e-05
275 244 8.1380208333333329e-05
276 244 8.1380208333333329e-05
245 245 0.00048828124999999995
246 245 8.1380208333333329e-05
276 245 8.1380208333333329e-05
277 245 8.1380208333333329e-05
246 246 0.00048828124999999995
247 246 8.1380208333333329e-05
277 246 8.1380208333333329e-05
278 246 8.1380208333333329e-05
247 247 0.00048828124999999995
248 247 8.1380208333333329e-05
278 247 8.1380208333333329e-05
279 247 8.1380208333333329e-05
248 248 0.00048828124999999995
279 248 8.1380208333333329e-05
249 249 0.00048828124999999995
250 249 8.1380208333333329e-05
280 249 8.1380208333333329e-05
281 249 8.1380208333333329e-05
250 250 0.00048828124999999995
251 250 8.1380208333333329e-05
281 250 8.1380208333333329e-05
282 250 8.1380208333333329e-05
251 251 0.00048828124999999995
252 251 8.1380208333333329e-05
282 251 8.1380208333333329e-05
283 251 8.1380208333333329e-05
252 252 0.00048828124999999995
253 252 8.1380208333333329e-05
283 252 8.1380208333333329e-05
284 252 8.1380208333333329e-05
253 253 0.00048828124999999995
254 253 8.1380208333333329e-05
284 253 8.1380208333333329e-05
285 253 8.1380208333333329e-05
254 254 0.00048828124999999995
255 254 8.1380208333333329e-05
285 254 8.1380208333333329e-05
286 254 8.1380208333333329e-05
255 255 0.00048828124999999995
256 255 8.1380208333333329e-05
286 255 8.1380208333333329e-05
287 255 8.1380208333333329e-05
256 256 0.00048828124999999995
257 256 8.1380208333333329e-05
287 256 8.1380208333333329e-05
288 256 8.1380208333333329e-05
257 257 0.00048828124999999995
258 257 8.1380208333333329e-05
288 257 8.1380208333333329e-05
289 257 8.1380208333333329e-05
258 258 0.00048828124999999995
259 258 8.1380208333333329e-05
289 258 8.1380208333333329e-05
290 258 8.1380208333333329e-05
259 259 0.00048828124999999995
260 259 8.1380208333333329e-05
290 259 8.1380208333333329e-05
291 259 8.1380208333333329e-05
260 260 0.00048828124999999995
261 260 8.1380208333333329e-05
291 260 8.1380208333333329e-05
292 260 8.1380208333333329e-05
261 261 0.00048828124999999995
262 261 8.1380208333333329e-05
292 261 8.1380208333333329e-05
293 261 8.1380208333333329e-05
262 262 0.00048828124999999995
263 262 8.1380208333333329e-05
293 262 8.1380208333333329e-05
294 262 8.1380208333333329e-05
263 263 0.00048828124999999995
264 263 8.1380208333333329e-05
294 263 8.1380208333333329e-05
295 263 8.1380208333333329e-05
264 264 0.00048828124999999995
265 264 8.1380208333333329e-05
295 264 8.1380208333333329e-05
296 264 8.1380208333333329e-05
265 265 0.00048828124999999995
266 265 8.1380208333333329e-05
296 265 8.1380208333333329e-05
297 265 8.1380208333333329e-05
266 266 0.00048828124999999995
267 266 8.1380208333333329e-05
297 266 8.1380208333333329e-05
298 266 8.1380208333333329e-05
267 267 0.00048828124999999995
268 267 8.1380208333333329e-05
298 267 8.1380208333333329e-05
299 267 8.1380208333333329e-05
268 268 0.00048828124999999995
269 268 8.1380208333333329e-05
299 268 8.1380208333333329e-05
300 268 8.1380208333333329e-05
269 269 0.00048828124999999995
270 269 8.1380208333333329e-05
300 269 8.1380208333333329e-05
301 269 8.1380208333333329e-05
270 270 0.00048828124999999995
271 270 8.1380208333333329e-05
301 270 8.1380208333333329e-05
302 270 8.1380208333333329e-05
271 271 0.00048828124999999995
272 271 8.1380208333333329e-05
302 271 8.1380208333333329e-05
303 271 8.1380208333333329e-05
272 272 0.00048828124999999995
273 272 8.1380208333333329e-05
303 272 8.1380208333333329e-05
304 272 8.1380208333333329e-05
273 273 0.00048828124999999995
274 273 8.1380208333333329e-05
304 273 8.1380208333333329e-05
305 273 8.1380208333333329e-05
274 274 0.00048828124999999995
275 274 8.1380208333333329e-05
305 274 8.1380208333333329e-05
306 274 8.1380208333333329e-05
275 275 0.00048828124999999995
276 275 8.1380208333333329e-05
306 275 8.1380208333333329e-05
307 275 8.1380208333333329e-05
276 276 0.00048828124999999995
277 276 8.1380208333333329e-05
307 276 8.1380208333333329e-05
308 276 8.1380208333333329e-05
277 277 0.00048828124999999995
278 277 8.1380208333333329e-05
308 277 8.1380208333333329e-05
309 277 8.1380208333333329e-05
278 278 0.00048828124999999995
279 278 8.1380208333333329e-05
309 278 8.1380208333333329e-05
310 278 8.1380208333333329e-05
279 279 0.00048828124999999995
310 279 8.1380208333333329e-05
280 280 0.00048828124999999995
281 280 8.1380208333333329e-05
311 280 8.1380208333333329e-05
312 280 8.1380208333333329e-05
281 281 0.00048828124999999995
282 281 8.1380208333333329e-05
312 281 8.1380208333333329e-05
313 281 8.1380208333333329e-05
282 282 0.00048828124999999995
283 282 8.1380208333333329e-05
313 282 8.1380208333333329e-05
314 282 8.1380208333333329e-05
283 283 0.00048828124999999995
284 283 8.1380208333333329e-05
314 283 8.1380208333333329e-05
315 283 8.1380208333333329e-05
284 284 0.00048828124999999995
285 284 8.1380208333333329e-05
315 284 8.1380208333333329e-05
316 284 8.1380208333333329e-05
285 285 0.00048828124999999995
286 285 8.1380208333333329e-05
316 285 8.1380208333333329e-05
317 285 8.1380208333333329e-05
286 286 0.00048828124999999995
287 286 8.1380208333333329e-05
317 286 8.1380208333333329e-05
318 286 8.1380208333333329e-05
287 287 0.00048828124999999995
288 287 8.1380208333333329e-05
318 287 8.1380208333333329e-05
319 287 8.1380208333333329e-05
288 288 0.00048828124999999995
289 288 8.1380208333333329e-05
319 288 8.1380208333333329e-05
320 288 8.1380208333333329e-05
289 289 0.00048828124999999995
290 289 8.1380208333333329e-05
320 289 8.1380208333333329e-05
321 289 8.1380208333333329e-05
290 290 0.00048828124999999995
291 290 8.1380208333333329e-05
321 290 8.1380208333333329e-05
322 290 8.1380208333333329e-05
291 291 0.00048828124999999995
292 291 8.1380208333333329e-05
322 291 8.1380208333333329e-05
323 291 8.1380208333333329e-05
292 292 0.00048828124999999995
293 292 8.1380208333333329e-05
323 292 8.1380208333333329e-05
324 292 8.1380208333333329e-05
293 293 0.00048828124999999995
294 293 8.1380208333333329e-05
324 293 8.1380208333333329e-05
325 293 8.1380208333333329e-05
294 294 0.00048828124999999995
295 294 8.1380208333333329e-05
325 294 8.1380208333333329e-05
326 294 8.1380208333333329e-05
295 295 0.00048828124999999995
296 295 8.1380208333333329e-05
326 295 8.1380208333333329e-05
327 295 8.1380208333333329e-05
296 296 0.00048828124999999995
297 296 8.1380208333333329e-05
327 296 8.1380208333333329e-05
328 296 8.1380208333333329e-05
297 297 0.00048828124999999995
298 297 8.1380208333333329e-05
328 297 8.1380208333333329e-05
329 297 8.1380208333333329e-05
298 298 0.00048828124999999995
299 298 8.1380208333333329e-05
329 298 8.1380208333333329e-05
330 298 8.1380208333333329e-05
299 299 0.00048828124999999995
300 299 8.1380208333333329e-05
330 299 8.1380208333333329e-05
331 299 8.1380208333333329e-05
300 300 0.00048828124999999995
301 300 8.1380208333333329e-05
331 300 8.1380208333333329e-05
332 300 8.1380208333333329e-05
301 301 0.00048828124999999995
302 301 8.1380208333333329e-05
332 301 8.1380208333333329e-05
333 301 8.1380208333333329e-05
302 302 0.00048828124999999995
303 302 8.1380208333333329e-05
333 302 8.1380208333333329e-05
334 302 8.1380208333333329e-05
303 303 0.00048828124999999995
304 303 8.1380208333333329e-05
334 303 8.1380208333333329e-05
335 303 8.1380208333333329e-05
304 304 0.00048828124999999995
305 304 8.1380208333333329e-05
335 304 8.1380208333333329e-05
336 304 8.1380208333333329e-05
305 305 0.00048828124999999995
306 305 8.1380208333333329e-05
336 305 8.1380208333333329e-05
337 305 8.1380208333333329e-05
306 306 0.00048828124999999995
307 306 8.1380208333333329e-05
337 306 8.1380208333333329e-05
338 306 8.1380208333333329e-05
307 307 0.00048828124999999995
308 307 8.1380208333333329e-05
338 307 8.1380208333333329e-05
339 307 8.1380208333333329e-05
308 308 0.00048828124999999995
309 308 8.1380208333333329e-05
339 308 8.1380208333333329e-05
340 308 8.1380208333333329e-05
309 309 0.00048828124999999995
310 309 8.1380208333333329e-05
340 309 8.1380208333333329e-05
341 309 8.1380208333333329e-05
310 310 0.00048828124999999995
341 310 8.1380208333333329e-05
311 311 0.00048828124999999995
312 311 8.1380208333333329e-05
342 311 8.1380208333333329e-05
343 311 8.1380208333333329e-05
312 312 0.00048828124999999995
313 312 8.1380208333333329e-05
343 312 8.1380208333333329e-05
344 312 8.1380208333333329e-05
313 313 0.00048828124999999995
314 313 8.1380208333333329e-05
344 313 8.1380208333333329e-05
345 313 8.1380208333333329e-05
314 314 0.00048828124999999995
315 314 8.1380208333333329e-05
345 314 8.1380208333333329e-05
346 314 8.1380208333333329e-05
315 315 0.00048828124999999995
316 315 8.1380208333333329e-05
346 315 8.1380208333333329e-05
347 315 8.1380208333333329e-05
316 316 0.00048828124999999995
317 316 8.1380208333333329e-05
347 316 8.1380208333333329e-05
348 316 8.1380208333333329e-05
317 317 0.00048828124999999995
318 317 8.1380208333333329e-05
348 317 8.1380208333333329e-05
349 317 8.1380208333333329e-05
318 318 0.00048828124999999995
319 318 8.1380208333333329e-05
349 318 8.1380208333333329e-05
350 318 8.1380208333333329e-05
319 319 0.00048828124999999995
320 319 8.1380208333333329e-05
350 319 8.1380208333333329e-05
351 319 8.1380208333333329e-05
320 320 0.00048828124999999995
321 320 8.1380208333333329e-05
351 320 8.1380208333333329e-05
352 320 8.1380208333333329e-05
321 321 0.00048828124999999995
322 321 8.1380208333333329e-05
352 321 8.1380208333333329e-05
353 321 8.1380208333333329e-05
322 322 0.00048828124999999995
323 322 8.1380208333333329e-05
353 322 8.1380208333333329e-05
354 322 8.1380208333333329e-05
323 323 0.00048828124999999995
324 323 8.1380208333333329e-05
354 323 8.1380208333333329e-05
355 323 8.1380208333333329e-05
324 324 0.00048828124999999995
325 324 8.1380208333333329e-05
355 324 8.1380208333333329e-05
356 324 8.1380208333333329e-05
325 325 0.00048828124999999995
326 325 8.1380208333333329e-05
356 325 8.1380208333333329e-05
357 325 8.1380208333333329e-05
326 326 0.00048828124999999995
327 326 8.1380208333333329e-05
357 326 8.1380208333333329e-05
358 326 8.1380208333333329e-05
327 327 0.00048828124999999995
328 327 8.1380208333333329e-05
358 327 8.1380208333333329e-05
359 327 8.1380208333333329e-05
328 328 0.00048828124999999995
329 328 8.1380208333333329e-05
359 328 8.1380208333333329e-05
360 328 8.1380208333333329e-05
329 329 0.00048828124999999995
330 329 8.1380208333333329e-05
360 329 8.1380208333333329e-05
361 329 8.1380208333333329e-05
330 330 0.00048828124999999995
331 330 8.1380208333333329e-05
361 330 8.1380208333333329e-05
362 330 8.1380208333333329e-05
331 331 0.00048828124999999995
332 331 8.1380208333333329e-05
362 331 8.1380208333333329e-05
363 331 8.1380208333333329e-05
332 332 0.00048828124999999995
333 332 8.1380208333333329e-05
363 332 8.1380208333333329e-05
364 332 8.1380208333333329e-05
333 333 0.00048828124999999995
334 333 8.1380208333333329e-05
364 333 8.1380208333333329e-05
365 333 8.1380208333333329e-05
334 334 0.00048828124999999995
335 334 8.1380208333333329e-05
365 334 8.1380208333333329e-05
366 334 8.1380208333333329e-05
335 335 0.00048828124999999995
336 335 8.1380208333333329e-05
366 335 8.1380208333333329e-05
367 335 8.1380208333333329e-05
336 336 0.00048828124999999995
337 336 8.1380208333333329e-05
367 336 8.1380208333333329e-05
368 336 8.1380208333333329e-05
337 337 0.00048828124999999995
338 337 8.1380208333333329e-05
368 337 8.1380208333333329e-05
369 337 8.1380208333333329e-05
338 338 0.00048828124999999995
339 338 8.1380208333333329e-05
369 338 8.1380208333333329e-05
370 338 8.1380208333333329e-05
339 339 0.00048828124999999995
340 339 8.1380208333333329e-05
370 339 8.1380208333333329e-05
371 339 8.1380208333333329e-05
340 340 0.00048828124999999995
341 340 8.1380208333333329e-05
371 340 8.1380208333333329e-05
372 340 8.1380208333333329e-05
341 341 0.00048828124999999995
372 341 8.1380208333333329e-05
342 342 0.00048828124999999995
343 342 8.1380208333333329e-05
373 342 8.1380208333333329e-05
374 342 8.1380208333333329e-05
343 343 0.00048828124999999995
344 343 8.1380208333333329e-05
374 343 8.1380208333333329e-05
375 343 8.1380208333333329e-05
344 344 0.00048828124999999995
345 344 8.1380208333333329e-05
375 344 8.1380208333333329e-05
376 344 8.1380208333333329e-05
345 345 0.00048828124999999995
346 345 8.1380208333333329e-05
376 345 8.1380208333333329e-05
377 345 8.1380208333333329e-05
346 346 0.00048828124999999995
347 346 8.1380208333333329e-05
377 346 8.1380208333333329e-05
378 346 8.1380208333333329e-05
347 347 0.00048828124999999995
348 347 8.1380208333333329e-05
378 347 8.1380208333333329e-05
379 347 8.1380208333333329e-05
348 348 0.00048828124999999995
349 348 8.1380208333333329e-05
379 348 8.1380208333333329e-05
380 348 8.1380208333333329e-05
349 349 0.00048828124999999995
350 349 8.1380208333333329e-05
380 349 8.1380208333333329e-05
381 349 8.1380208333333329e-05
350 350 0.00048828124999999995
351 350 8.1380208333333329e-05
381 350 8.1380208333333329e-05
382 350 8.1380208333333329e-05
351 351 0.00048828124999999995
352 351 8.1380208333333329e-05
382 351 8.1380208333333329e-05
383 351 8.1380208333333329e-05
352 352 0.00048828124999999995
353 352 8.1380208333333329e-05
383 352 8.1380208333333329e-05
384 352 8.1380208333333329e-05
353 353 0.00048828124999999995
354 353 8.1380208333333329e-05
384 353 8.1380208333333329e-05
385 353 8.1380208333333329e-05
354 354 0.00048828124999999995
355 354 8.1380208333333329e-05
385 354 8.1380208333333329e-05
386 354 8.1380208333333329e-05
355 355 0.00048828124999999995
356 355 8.1380208333333329e-05
386 355 8.1380208333333329e-05
387 355 8.1380208333333329e-05
356 356 0.00048828124999999995
357 356 8.1380208333333329e-05
387 356 8.1380208333333329e-05
388 356 8.1380208333333329e-05
357 357 0.00048828124999999995
358 357 8.1380208333333329e-05
388 357 8.1380208333333329e-05
389 357 8.1380208333333329e-05
358 358 0.00048828124999999995
359 358 8.1380208333333329e-05
389 358 8.1380208333333329e-05
390 358 8.1380208333333329e-05
359 359 0.00048828124999999995
360 359 8.1380208333333329e-05
390 359 8.1380208333333329e-05
391 359 8.1380208333333329e-05
360 360 0.00048828124999999995
361 360 8.1380208333333329e-05
391 360 8.1380208333333329e-05
392 360 8.1380208333333329e-05
361 361 0.00048828124999999995
362 361 8.1380208333333329e-05
392 361 8.1380208333333329e-05
393 361 8.1380208333333329e-05
362 362 0.00048828124999999995
363 362 8.1380208333333329e-05
393 362 8.1380208333333329e-05
394 362 8.1380208333333329e-05
363 363 0.00048828124999999995
364 363 8.1380208333333329e-05
394 363 8.1380208333333329e-05
395 363 8.1380208333333329e-05
364 364 0.00048828124999999995
365 364 8.1380208333333329e-05
395 364 8.1380208333333329e-05
396 364 8.1380208333333329e-05
365 365 0.00048828124999999995
366 365 8.1380208333333329e-05
396 365 8.1380208333333329e-05
397 365 8.1380208333333329e-05
366 366 0.00048828124999999995
367 366 8.1380208333333329e-05
397 366 8.1380208333333329e-05
398 366 8.1380208333333329e-05
367 367 0.00048828124999999995
368 367 8.1380208333333329e-05
398 367 8.1380208333333329e-05
399 367 8.1380208333333329e-05
368 368 0.00048828124999999995
369 368 8.1380208333333329e-05
399 368 8.1380208333333329e-05
400 368 8.1380208333333329e-05
369 369 0.00048828124999999995
370 369 8.1380208333333329e-05
400 369 8.1380208333333329e-05
401 369 8.1380208333333329e-05
370 370 0.00048828124999999995
371 370 8.1380208333333329e-05
401 370 8.1380208333333329e-05
402 370 8.1380208333333329e-05
371 371 0.00048828124999999995
372 371 8.1380208333333329e-05
402 371 8.1380208333333329e-05
403 371 8.1380208333333329e-05
372 372 0.00048828124999999995
403 372 8.1380208333333329e-05
373 373 0.00048828124999999995
374 373 8.1380208333333329e-05
404 373 8.1380208333333329e-05
405 373 8.1380208333333329e-05
374 374 0.00048828124999999995
375 374 8.1380208333333329e-05
405 374 8.1380208333333329e-05
406 374 8.1380208333333329e-05
375 375 0.00048828124999999995
376 375 8.1380208333333329e-05
406 375 8.1380208333333329e-05
407 375 8.1380208333333329e-05
376 376 0.00048828124999999995
377 376 8.1380208333333329e-05
407 376 8.1380208333333329e-05
408 376 8.1380208333333329e-05
377 377 0.00048828124999999995
378 377 8.1380208333333329e-05
408 377 8.1380208333333329e-05
409 377 8.1380208333333329e-05
378 378 0.00048828124999999995
379 378 8.1380208333333329e-05
409 378 8.1380208333333329e-05
410 378 8.1380208333333329e-05
379 379 0.00048828124999999995
380 379 8.1380208333333329e-05
410 379 8.1380208333333329e-05
411 379 8.1380208333333329e-05
380 380 0.00048828124999999995
381 380 8.1380208333333329e-05
411 380 8.1380208333333329e-05
412 380 8.1380208333333329e-05
381 381 0.00048828124999999995
382 381 8.1380208333333329e-05
412 381 8.1380208333333329e-05
413 381 8.1380208333333329e-05
382 382 0.00048828124999999995
383 382 8.1380208333333329e-05
413 382 8.1380208333333329e-05
414 382 8.1380208333333329e-05
383 383 0.00048828124999999995
384 383 8.1380208333333329e-05
414 383 8.1380208333333329e-05
415 383 8.1380208333333329e-05
384 384 0.00048828124999999995
385 384 8.1380208333333329e-05
415 384 8.1380208333333329e-05
416 384 8.1380208333333329e-05
385 385 0.00048828124999999995
386 385 8.1380208333333329e-05
416 385 8.1380208333333329e-05
417 385 8.1380208333333329e-05
386 386 0.00048828124999999995
387 386 8.1380208333333329e-05
417 386 8.1380208333333329e-05
418 386 8.1380208333333329e-05
387 387 0.00048828124999999995
388 387 8.1380208333333329e-05
418 387 8.1380208333333329e-05
419 387 8.1380208333333329e-05
388 388 0.00048828124999999995
389 388 8.1380208333333329e-05
419 388 8.1380208333333329e-05
420 388 8.1380208333333329e-05
389 389 0.00048828124999999995
390 389 8.1380208333333329e-05
420 389 8.1380208333333329e-05
421 389 8.1380208333333329e-05
390 390 0.00048828124999999995
391 390 8.1380208333333329e-05
421 390 8.1380208333333329e-05
422 390 8.1380208333333329e-05
391 391 0.00048828124999999995
392 391 8.1380208333333329e-05
422 391 8.1380208333333329e-05
423 391 8.1380208333333329e-05
392 392 0.00048828124999999995
393 392 8.1380208333333329e-05
423 392 8.1380208333333329e-05
424 392 8.1380208333333329e-05
393 393 0.00048828124999999995
394 393 8.1380208333333329e-05
424 393 8.1380208333333329e-05
425 393 8.1380208333333329e-05
394 394 0.00048828124999999995
395 394 8.1380208333333329e-05
425 394 8.1380208333333329e-05
426 394 8.1380208333333329e-05
395 395 0.00048828124999999995
396 395 8.1380208333333329e-05
426 395 8.1380208333333329e-05
427 395 8.1380208333333329e-05
396 396 0.00048828124999999995
397 396 8.1380208333333329e-05
427 396 8.1380208333333329e-05
428 396 8.1380208333333329e-05
397 397 0.00048828124999999995
398 397 8.1380208333333329e-05
428 397 8.1380208333333329e-05
429 397 8.1380208333333329e-05
398 398 0.00048828124999999995
399 398 8.1380208333333329e-05
429 398 8.1380208333333329e-05
430 398 8.1380208333333329e-05
399 399 0.00048828124999999995
400 399 8.1380208333333329e-05
430 399 8.1380208333333329e-05
431 399 8.1380208333333329e-05
400 400 0.00048828124999999995
401 400 8.1380208333333329e-05
431 400 8.1380208333333329e-05
432 400 8.1380208333333329e-05
401 401 0.00048828124999999995
402 401 8.1380208333333329e-05
432 401 8.1380208333333329e-05
433 401 8.1380208333333329e-05
402 402 0.00048828124999999995
403 402 8.1380208333333329e-05
433 402 8.1380208333333329e-05
434 402 8.1380208333333329e-05
403 403 0.00048828124999999995
434 403 8.1380208333333329e-05
404 404 0.00048828124999999995
405 404 8.1380208333333329e-05
435 404 8.1380208333333329e-05
436 404 8.1380208333333329e-05
405 405 0.00048828124999999995
406 405 8.1380208333333329e-05
436 405 8.1380208333333329e-05
437 405 8.1380208333333329e-05
406 406 0.00048828124999999995
407 406 8.1380208333333329e-05
437 406 8.1380208333333329e-05
438 406 8.1380208333333329e-05
407 407 0.00048828124999999995
408 407 8.1380208333333329e-05
438 407 8.1380208333333329e-05
439 407 8.1380208333333329e-05
408 408 0.00048828124999999995
409 408 8.1380208333333329e-05
439 408 8.1380208333333329e-05
440 408 8.1380208333333329e-05
409 409 0.00048828124999999995
410 409 8.1380208333333329e-05
440 409 8.1380208333333329e-05
441 409 8.1380208333333329e-05
410 410 0.00048828124999999995
411 410 8.1380208333333329e-05
441 410 8.1380208333333329e-05
442 410 8.1380208333333329e-05
411 411 0.00048828124999999995
412 411 8.1380208333333329e-05
442 411 8.1380208333333329e-05
443 411 8.1380208333333329e-05
412 412 0.00048828124999999995
413 412 8.1380208333333329e-05
443 412 8.1380208333333329e-05
444 412 8.1380208333333329e-05
413 413 0.00048828124999999995
414 413 8.1380208333333329e-05
444 413 8.1380208333333329e-05
445 413 8.1380208333333329e-05
414 414 0.00048828124999999995
415 414 8.1380208333333329e-05
445 414 8.1380208333333329e-05
446 414 8.1380208333333329e-05
415 415 0.00048828124999999995
416 415 8.1380208333333329e-05
446 415 8.1380208333333329e-05
447 415 8.1380208333333329e-05
416 416 0.00048828124999999995
417 416 8.1380208333333329e-05
447 416 8.1380208333333329e-05
448 416 8.1380208333333329e-05
417 417 0.00048828124999999995
418 417 8.1380208333333329e-05
448 417 8.1380208333333329e-05
449 417 8.1380208333333329e-05
418 418 0.00048828124999999995
419 418 8.1380208333333329e-05
449 418 8.1380208333333329e-05
450 418 8.1380208333333329e-05
419 419 0.00048828124999999995
420 419 8.1380208333333329e-05
450 419 8.1380208333333329e-05
451 419 8.1380208333333329e-05
420 420 0.00048828124999999995
421 420 8.1380208333333329e-05
451 420 8.1380208333333329e-05
452 420 8.1380208333333329e-05
421 421 0.00048828124999999995
422 421 8.1380208333333329e-05
452 421 8.1380208333333329e-05
453 421 8.1380208333333329e-05
422 422 0.00048828124999999995
423 422 8.1380208333333329e-05
453 422 8.1380208333333329e-05
454 422 8.1380208333333329e-05
423 423 0.00048828124999999995
424 423 8.1380208333333329e-05
454 423 8.1380208333333329e-05
455 423 8.1380208333333329e-05
424 424 0.00048828124999999995
425 424 8.1380208333333329e-05
455 424 8.1380208333333329e-05
456 424 8.1380208333333329e-05
425 425 0.00048828124999999995
426 425 8.1380208333333329e-05
456 425 8.1380208333333329e-05
457 425 8.1380208333333329e-05
426 426 0.00048828124999999995
427 426 8.1380208333333329e-05
457 426 8.1380208333333329e-05
458 426 8.1380208333333329e-05
427 427 0.00048828124999999995
428 427 8.1380208333333329e-05
458 427 8.1380208333333329e-05
459 427 8.1380208333333329e-05
428 428 0.00048828124999999995
429 428 8.1380208333333329e-05
459 428 8.1380208333333329e-05
460 428 8.1380208333333329e-05
429 429 0.00048828124999999995
430 429 8.1380208333333329e-05
460 429 8.1380208333333329e-05
461 429 8.1380208333333329e-05
430 430 0.00048828124999999995
431 430 8.1380208333333329e-05
461 430 8.1380208333333329e-05
462 430 8.1380208333333329e-05
431 431 0.00048828124999999995
432 431 8.1380208333333329e-05
462 431 8.1380208333333329e-05
463 431 8.1380208333333329e-05
432 432 0.00048828124999999995
433 432 8.1380208333333329e-05
463 432 8.1380208333333329e-05
464 432 8.1380208333333329e-05
433 433 0.00048828124999999995
434 433 8.1380208333333329e-05
464 433 8.1380208333333329e-05
465 433 8.1380208333333329e-05
434 434 0.00048828124999999995
465 434 8.1380208333333329e-05
435 435 0.00048828124999999995
436 435 8.1380208333333329e-05
466 435 8.1380208333333329e-05
467 435 8.1380208333333329e-05
436 436 0.00048828124999999995
437 436 8.1380208333333329e-05
467 436 8.1380208333333329e-05
468 436 8.1380208333333329e-05
437 437 0.00048828124999999995
438 437 8.1380208333333329e-05
468 437 8.1380208333333329e-05
469 437 8.1380208333333329e-05
438 438 0.00048828124999999995
439 438 8.1380208333333329e-05
469 438 8.1380208333333329e-05
470 438 8.1380208333333329e-05
439 439 0.00048828124999999995
440 439 8.1380208333333329e-05
470 439 8.1380208333333329e-05
471 439 8.1380208333333329e-05
440 440 0.00048828124999999995
441 440 8.1380208333333329e-05
471 440 8.1380208333333329e-05
472 440 8.1380208333333329e-05
441 441 0.00048828124999999995
442 441 8.1380208333333329e-05
472 441 8.1380208333333329e-05
473 441 8.1380208333333329e-05
442 442 0.00048828124999999995
443 442 8.1380208333333329e-05
473 442 8.1380208333333329e-05
474 442 8.1380208333333329e-05
443 443 0.00048828124999999995
444 443 8.1380208333333329e-05
474 443 8.1380208333333329e-05
475 443 8.1380208333333329e-05
444 444 0.00048828124999999995
445 444 8.1380208333333329e-05
475 444 8.1380208333333329e-05
476 444 8.1380208333333329e-05
445 445 0.00048828124999999995
446 445 8.1380208333333329e-05
476 445 8.1380208333333329e-05
477 445 8.1380208333333329e-05
446 446 0.00048828124999999995
447 446 8.1380208333333329e-05
477 446 8.1380208333333329e-05
478 446 8.1380208333333329e-05
447 447 0.00048828124999999995
448 447 8.1380208333333329e-05
478 447 8.1380208333333329e-05
479 447 8.1380208333333329e-05
448 448 0.00048828124999999995
449 448 8.1380208333333329e-05
479 448 8.1380208333333329e-05
480 448 8.1380208333333329e-05
449 449 0.00048828124999999995
450 449 8.1380208333333329e-05
480 449 8.1380208333333329e-05
481 449 8.1380208333333329e-05
450 450 0.00048828124999999995
451 450 8.1380208333333329e-05
481 450 8.1380208333333329e-05
482 450 8.1380208333333329e-05
451 451 0.00048828124999999995
452 451 8.1380208333333329e-05
482 451 8.1380208333333329e-05
483 451 8.1380208333333329e-05
452 452 0.00048828124999999995
453 452 8.1380208333333329e-05
483 452 8.1380208333333329e-05
484 452 8.1380208333333329e-05
453 453 0.00048828124999999995
454 453 8.1380208333333329e-05
484 453 8.1380208333333329e-05
485 453 8.1380208333333329e-05
454 454 0.00048828124999999995
455 454 8.1380208333333329e-05
485 454 8.1380208333333329e-05
486 454 8.1380208333333329e-05
455 455 0.00048828124999999995
456 455 8.1380208333333329e-05
486 455 8.1380208333333329e-05
487 455 8.1380208333333329e-05
456 456 0.00048828124999999995
457 456 8.1380208333333329e-05
487 456 8.1380208333333329e-05
488 456 8.1380208333333329e-05
457 457 0.00048828124999999995
458 457 8.1380208333333329e-05
488 457 8.1380208333333329e-05
489 457 8.1380208333333329e-05
458 458 0.00048828124999999995
459 458 8.1380208333333329e-05
489 458 8.1380208333333329e-05
490 458 8.1380208333333329e-05
459 459 0.00048828124999999995
460 459 8.1380208333333329e-05
490 459 8.1380208333333329e-05
491 459 8.1380208333333329e-05
460 460 0.00048828124999999995
461 460 8.1380208333333329e-05
491 460 8.1380208333333329e-05
492 460 8.1380208333333329e-05
461 461 0.00048828124999999995
462 461 8.1380208333333329e-05
492 461 8.1380208333333329e-05
493 461 8.1380208333333329e-05
462 462 0.00048828124999999995
463 462 8.1380208333333329e-05
493 462 8.1380208333333329e-05
494 462 8.1380208333333329e-05
463 463 0.00048828124999999995
464 463 8.1380208333333329e-05
494 463 8.1380208333333329e-05
495 463 8.1380208333333329e-05
464 464 0.00048828124999999995
465 464 8.1380208333333329e-05
495 464 8.1380208333333329e-05
496 464 8.1380208333333329e-05
465 465 0.00048828124999999995
496 465 8.1380208333333329e-05
466 466 0.00048828124999999995
467 466 8.1380208333333329e-05
497 466 8.1380208333333329e-05
498 466 8.1380208333333329e-05
467 467 0.00048828124999999995
468 467 8.1380208333333329e-05
498 467 8.1380208333333329e-05
499 467 8.1380208333333329e-05
468 468 0.00048828124999999995
469 468 8.1380208333333329e-05
499 468 8.1380208333333329e-05
500 468 8.1380208333333329e-05
469 469 0.00048828124999999995
470 469 8.1380208333333329e-05
500 469 8.1380208333333329e-05
501 469 8.1380208333333329e-05
470 470 0.00048828124999999995
471 470 8.1380208333333329e-05
501 470 8.1380208333333329e-05
502 470 8.1380208333333329e-05
471 471 0.00048828124999999995
472 471 8.1380208333333329e-05
502 471 8.1380208333333329e-05
503 471 8.1380208333333329e-05
472 472 0.00048828124999999995
473 472 8.1380208333333329e-05
503 472 8.1380208333333329e-05
504 472 8.1380208333333329e-05
473 473 0.00048828124999999995
474 473 8.1380208333333329e-05
504 473 8.1380208333333329e-05
505 473 8.1380208333333329e-05
474 474 0.00048828124999999995
475 474 8.1380208333333329e-05
505 474 8.1380208333333329e-05
506 474 8.1380208333333329e-05
475 475 0.00048828124999999995
476 475 8.1380208333333329e-05
506 475 8.1380208333333329e-05
507 475 8.1380208333333329e-05
476 476 0.00048828124999999995
477 476 8.1380208333333329e-05
507 476 8.1380208333333329e-05
508 476 8.1380208333333329e-05
477 477 0.00048828124999999995
478 477 8.1380208333333329e-05
508 477 8.1380208333333329e-05
509 477 8.1380208333333329e-05
478 478 0.00048828124999999995
479 478 8.1380208333333329e-05
509 478 8.1380208333333329e-05
510 478 8.1380208333333329e-05
479 479 0.00048828124999999995
480 479 8.1380208333333329e-05
510 479 8.1380208333333329e-05
511 479 8.1380208333333329e-05
480 480 0.00048828124999999995
481 480 8.1380208333333329e-05
511 480 8.1380208333333329e-05
512 480 8.1380208333333329e-05
481 481 0.00048828124999999995
482 481 8.1380208333333329e-05
512 481 8.1380208333333329e-05
513 481 8.1380208333333329e-05
482 482 0.00048828124999999995
483 482 8.1380208333333329e-05
513 482 8.1380208333333329e-05
514 482 8.1380208333333329e-05
483 483 0.00048828124999999995
484 483 8.1380208333333329e-05
514 483 8.1380208333333329e-05
515 483 8.1380208333333329e-05
484 484 0.00048828124999999995
485 484 8.1380208333333329e-05
515 484 8.1380208333333329e-05
516 484 8.1380208333333329e-05
485 485 0.00048828124999999995
486 485 8.1380208333333329e-05
516 485 8.1380208333333329e-05
517 485 8.1380208333333329e-05
486 486 0.00048828124999999995
487 486 8.1380208333333329e-05
517 486 8.1380208333333329e-05
518 486 8.1380208333333329e-05
487 487 0.00048828124999999995
488 487 8.1380208333333329e-05
518 487 8.1380208333333329e-05
519 487 8.1380208333333329e-05
488 488 0.00048828124999999995
489 488 8.1380208333333329e-05
519 488 8.1380208333333329e-05
520 488 8.1380208333333329e-05
489 489 0.00048828124999999995
490 489 8.1380208333333329e-05
520 489 8.1380208333333329e-05
521 489 8.1380208333333329e-05
490 490 0.00048828124999999995
491 490 8.1380208333333329e-05
521 490 8.1380208333333329e-05
522 490 8.1380208333333329e-05
491 491 0.00048828124999999995
492 491 8.1380208333333329e-05
522 491 8.1380208333333329e-05
523 491 8.1380208333333329e-05
492 492 0.00048828124999999995
493 492 8.1380208333333329e-05
523 492 8.1380208333333329e-05
524 492 8.1380208333333329e-05
493 493 0.00048828124999999995
494 493 8.1380208333333329e-05
524 493 8.1380208333333329e-05
525 493 8.1380208333333329e-05
494 494 0.00048828124999999995
495 494 8.1380208333333329e-05
525 494 8.1380208333333329e-05
526 494 8.1380208333333329e-05
495 495 0.00048828124999999995
496 495 8.1380208333333329e-05
526 495 8.1380208333333329e-05
527 495 8.1380208333333329e-05
496 496 0.00048828124999999995
527 496 8.1380208333333329e-05
497 497 0.00048828124999999995
498 497 8.1380208333333329e-05
528 497 8.1380208333333329e-05
529 497 8.1380208333333329e-05
498 498 0.00048828124999999995
499 498 8.1380208333333329e-05
529 498 8.1380208333333329e-05
530 498 8.1380208333333329e-05
499 499 0.00048828124999999995
500 499 8.1380208333333329e-05
530 499 8.1380208333333329e-05
531 499 8.1380208333333329e-05
500 500 0.00048828124999999995
501 500 8.1380208333333329e-05
531 500 8.1380208333333329e-05
532 500 8.1380208333333329e-05
501 501 0.00048828124999999995
502 501 8.1380208333333329e-05
532 501 8.1380208333333329e-05
533 501 8.1380208333333329e-05
502 502 0.00048828124999999995
503 502 8.1380208333333329e-05
533 502 8.1380208333333329e-05
534 502 8.1380208333333329e-05
503 503 0.00048828124999999995
504 503 8.1380208333333329e-05
534 503 8.1380208333333329e-05
535 503 8.1380208333333329e-05
504 504 0.00048828124999999995
505 504 8.1380208333333329e-05
535 504 8.1380208333333329e-05
536 504 8.1380208333333329e-05
505 505 0.00048828124999999995
506 505 8.1380208333333329e-05
536 505 8.1380208333333329e-05
537 505 8.1380208333333329e-05
506 506 0.00048828124999999995
507 506 8.1380208333333329e-05
537 506 8.1380208333333329e-05
538 506 8.1380208333333329e-05
507 507 0.00048828124999999995
508 507 8.1380208333333329e-05
538 507 8.1380208333333329e-05
539 507 8.1380208333333329e-05
508 508 0.00048828124999999995
509 508 8.1380208333333329e-05
539 508 8.1380208333333329e-05
540 508 8.1380208333333329e-05
509 509 0.00048828124999999995
510 509 8.1380208333333329e-05
540 509 8.1380208333333329e-05
541 509 8.1380208333333329e-05
510 510 0.00048828124999999995
511 510 8.1380208333333329e-05
541 510 8.1380208333333329e-05
542 510 8.1380208333333329e-05
511 511 0.00048828124999999995
512 511 8.1380208333333329e-05
542 511 8.1380208333333329e-05
543 511 8.1380208333333329e-05
512 512 0.00048828124999999995
513 512 8.1380208333333329e-05
543 512 8.1380208333333329e-05
544 512 8.1380208333333329e-05
513 513 0.00048828124999999995
514 513 8.1380208333333329e-05
544 513 8.1380208333333329e-05
545 513 8.1380208333333329e-05
514 514 0.00048828124999999995
515 514 8.1380208333333329e-05
545 514 8.1380208333333329e-05
546 514 8.1380208333333329e-05
515 515 0.00048828124999999995
516 515 8.1380208333333329e-05
546 515 8.1380208333333329e-05
547 515 8.1380208333333329e-05
516 516 0.00048828124999999995
517 516 8.1380208333333329e-05
547 516 8.1380208333333329e-05
548 516 8.1380208333333329e-05
517 517 0.00048828124999999995
518 517 8.1380208333333329e-05
548 517 8.1380208333333329e-05
549 517 8.1380208333333329e-05
518 518 0.00048828124999999995
519 518 8.1380208333333329e-05
549 518 8.1380208333333329e-05
550 518 8.1380208333333329e-05
519 519 0.00048828124999999995
520 519 8.1380208333333329e-05
550 519 8.1380208333333329e-05
551 519 8.1380208333333329e-05
520 520 0.00048828124999999995
521 520 8.1380208333333329e-05
551 520 8.1380208333333329e-05
552 520 8.1380208333333329e-05
521 521 0.00048828124999999995
522 521 8.1380208333333329e-05
552 521 8.1380208333333329e-05
553 521 8.1380208333333329e-05
522 522 0.00048828124999999995
523 522 8.1380208333333329e-05
553 522 8.1380208333333329e-05
554 522 8.1380208333333329e-05
523 523 0.00048828124999999995
524 523 8.1380208333333329e-05
554 523 8.1380208333333329e-05
555 523 8.1380208333333329e-05
524 524 0.00048828124999999995
525 524 8.1380208333333329e-05
555 524 8.1380208333333329e-05
556 524 8.1380208333333329e-05
525 525 0.00048828124999999995
526 525 8.1380208333333329e-05
556 525 8.1380208333333329e-05
557 525 8.1380208333333329e-05
526 526 0.00048828124999999995
527 526 8.1380208333333329e-05
557 526 8.1380208333333329e-05
558 526 8.1380208333333329e-05
527 527 0.00048828124999999995
558 527 8.1380208333333329e-05
528 528 0.00048828124999999995
529 528 8.1380208333333329e-05
559 528 8.1380208333333329e-05
560 528 8.1380208333333329e-05
529 529 0.00048828124999999995
530 529 8.1380208333333329e-05
560 529 8.1380208333333329e-05
561 529 8.1380208333333329e-05
530 530 0.00048828124999999995
531 530 8.1380208333333329e-05
561 530 8.1380208333333329e-05
562 530 8.1380208333333329e-05
531 531 0.00048828124999999995
532 531 8.1380208333333329e-05
562 531 8.1380208333333329e-05
563 531 8.1380208333333329e-05
532 532 0.00048828124999999995
533 532 8.1380208333333329e-05
563 532 8.1380208333333329e-05
564 532 8.1380208333333329e-05
533 533 0.00048828124999999995
534 533 8.1380208333333329e-05
564 533 8.1380208333333329e-05
565 533 8.1380208333333329e-05
534 534 0.00048828124999999995
535 534 8.1380208333333329e-05
565 534 8.1380208333333329e-05
566 534 8.1380208333333329e-05
535 535 0.00048828124999999995
536 535 8.1380208333333329e-05
566 535 8.1380208333333329e-05
567 535 8.1380208333333329e-05
536 536 0.00048828124999999995
537 536 8.1380208333333329e-05
567 536 8.1380208333333329e-05
568 536 8.1380208333333329e-05
537 537 0.00048828124999999995
538 537 8.1380208333333329e-05
568 537 8.1380208333333329e-05
569 537 8.1380208333333329e-05
538 538 0.00048828124999999995
539 538 8.1380208333333329e-05
569 538 8.1380208333333329e-05
570 538 8.1380208333333329e-05
539 539 0.00048828124999999995
540 539 8.1380208333333329e-05
570 539 8.1380208333333329e-05
571 539 8.1380208333333329e-05
540 540 0.00048828124999999995
541 540 8.1380208333333329e-05
571 540 8.1380208333333329e-05
572 540 8.1380208333333329e-05
541 541 0.00048828124999999995
542 541 8.1380208333333329e-05
572 541 8.1380208333333329e-05
573 541 8.1380208333333329e-05
542 542 0.00048828124999999995
543 542 8.1380208333333329e-05
573 542 8.1380208333333329e-05
574 542 8.1380208333333329e-05
543 543 0.00048828124999999995
544 543 8.1380208333333329e-05
574 543 8.1380208333333329e-05
575 543 8.1380208333333329e-05
544 544 0.00048828124999999995
545 544 8.1380208333333329e-05
575 544 8.1380208333333329e-05
576 544 8.1380208333333329e-05
545 545 0.00048828124999999995
546 545 8.1380208333333329e-05
576 545 8.1380208333333329e-05
577 545 8.1380208333333329e-05
546 546 0.00048828124999999995
547 546 8.1380208333333329e-05
577 546 8.1380208333333329e-05
578 546 8.1380208333333329e-05
547 547 0.00048828124999999995
548 547 8.1380208333333329e-05
578 547 8.1380208333333329e-05
579 547 8.1380208333333329e-05
548 548 0.00048828124999999995
549 548 8.1380208333333329e-05
579 548 8.1380208333333329e-05
580 548 8.1380208333333329e-05
549 549 0.00048828124999999995
550 549 8.1380208333333329e-05
580 549 8.1380208333333329e-05
581 549 8.1380208333333329e-05
550 550 0.00048828124999999995
551 550 8.1380208333333329e-05
581 550 8.1380208333333329e-05
582 550 8.1380208333333329e-05
551 551 0.00048828124999999995
552 551 8.1380208333333329e-05
582 551 8.1380208333333329e-05
583 551 8.1380208333333329e-05
552 552 0.00048828124999999995
553 552 8.1380208333333329e-05
583 552 8.1380208333333329e-05
584 552 8.1380208333333329e-05
553 553 0.00048828124999999995
554 553 8.1380208333333329e-05
584 553 8.1380208333333329e-05
585 553 8.1380208333333329e-05
554 554 0.00048828124999999995
555 554 8.1380208333333329e-05
585 554 8.1380208333333329e-05
586 554 8.1380208333333329e-05
555 555 0.00048828124999999995
556 555 8.1380208333333329e-05
586 555 8.1380208333333329e-05
587 555 8.1380208333333329e-05
556 556 0.00048828124999999995
557 556 8.1380208333333329e-05
587 556 8.1380208333333329e-05
588 556 8.1380208333333329e-05
557 557 0.00048828124999999995
558 557 8.1380208333333329e-05
588 557 8.1380208333333329e-05
589 557 8.1380208333333329e-05
558 558 0.00048828124999999995
589 558 8.1380208333333329e-05
559 559 0.00048828124999999995
560 559 8.1380208333333329e-05
590 559 8.1380208333333329e-05
591 559 8.1380208333333329e-05
560 560 0.00048828124999999995
561 560 8.1380208333333329e-05
591 560 8.1380208333333329e-05
592 560 8.1380208333333329e-05
561 561 0.00048828124999999995
562 561 8.1380208333333329e-05
592 561 8.1380208333333329e-05
593 561 8.1380208333333329e-05
562 562 0.00048828124999999995
563 562 8.1380208333333329e-05
593 562 8.1380208333333329e-05
594 562 8.1380208333333329e-05
563 563 0.00048828124999999995
564 563 8.1380208333333329e-05
594 563 8.1380208333333329e-05
595 563 8.1380208333333329e-05
564 564 0.00048828124999999995
565 564 8.1380208333333329e-05
595 564 8.1380208333333329e-05
596 564 8.1380208333333329e-05
565 565 0.00048828124999999995
566 565 8.1380208333333329e-05
596 565 8.1380208333333329e-05
597 565 8.1380208333333329e-05
566 566 0.00048828124999999995
567 566 8.1380208333333329e-05
597 566 8.1380208333333329e-05
598 566 8.1380208333333329e-05
567 567 0.00048828124999999995
568 567 8.1380208333333329e-05
598 567 8.1380208333333329e-05
599 567 8.1380208333333329e-05
568 568 0.00048828124999999995
569 568 8.1380208333333329e-05
599 568 8.1380208333333329e-05
600 568 8.1380208333333329e-05
569 569 0.00048828124999999995
570 569 8.1380208333333329e-05
600 569 8.1380208333333329e-05
601 569 8.1380208333333329e-05
570 570 0.00048828124999999995
571 570 8.1380208333333329e-05
601 570 8.1380208333333329e-05
602 570 8.1380208333333329e-05
571 571 0.00048828124999999995
572 571 8.1380208333333329e-05
602 571 8.1380208333333329e-05
603 571 8.1380208333333329e-05
572 572 0.00048828124999999995
573 572 8.1380208333333329e-05
603 572 8.1380208333333329e-05
604 572 8.1380208333333329e-05
573 573 0.00048828124999999995
574 573 8.1380208333333329e-05
604 573 8.1380208333333329e-05
605 573 8.1380208333333329e-05
574 574 0.00048828124999999995
575 574 8.1380208333333329e-05
605 574 8.1380208333333329e-05
606 574 8.1380208333333329e-05
575 575 0.00048828124999999995
576 575 8.1380208333333329e-05
606 575 8.1380208333333329e-05
607 575 8.1380208333333329e-05
576 576 0.00048828124999999995
577 576 8.1380208333333329e-05
607 576 8.1380208333333329e-05
608 576 8.1380208333333329e-05
577 577 0.00048828124999999995
578 577 8.1380208333333329e-05
608 577 8.1380208333333329e-05
609 577 8.1380208333333329e-05
578 578 0.00048828124999999995
579 578 8.1380208333333329e-05
609 578 8.1380208333333329e-05
610 578 8.1380208333333329e-05
579 579 0.00048828124999999995
580 579 8.1380208333333329e-05
610 579 8.1380208333333329e-05
611 579 8.1380208333333329e-05
580 580 0.00048828124999999995
581 580 8.1380208333333329e-05
611 580 8.1380208333333329e-05
612 580 8.1380208333333329e-05
581 581 0.00048828124999999995
582 581 8.1380208333333329e-05
612 581 8.1380208333333329e-05
613 581 8.1380208333333329e-05
582 582 0.00048828124999999995
583 582 8.1380208333333329e-05
613 582 8.1380208333333329e-05
614 582 8.1380208333333329e-05
583 583 0.00048828124999999995
584 583 8.1380208333333329e-05
614 583 8.1380208333333329e-05
615 583 8.1380208333333329e-05
584 584 0.00048828124999999995
585 584 8.1380208333333329e-05
615 584 8.1380208333333329e-05
616 584 8.1380208333333329e-05
585 585 0.00048828124999999995
586 585 8.1380208333333329e-05
616 585 8.1380208333333329e-05
617 585 8.1380208333333329e-05
586 586 0.00048828124999999995
587 586 8.1380208333333329e-05
617 586 8.1380208333333329e-05
618 586 8.1380208333333329e-05
587 587 0.00048828124999999995
588 587 8.1380208333333329e-05
618 587 8.1380208333333329e-05
619 587 8.1380208333333329e-05
588 588 0.00048828124999999995
589 588 8.1380208333333329e-05
619 588 8.1380208333333329e-05
620 588 8.1380208333333329e-05
589 589 0.00048828124999999995
620 589 8.1380208333333329e-05
590 590 0.00048828124999999995
591 590 8.1380208333333329e-05
621 590 8.1380208333333329e-05
622 590 8.1380208333333329e-05
591 591 0.00048828124999999995
592 591 8.1380208333333329e-05
622 591 8.1380208333333329e-05
623 591 8.1380208333333329e-05
592 592 0.00048828124999999995
593 592 8.1380208333333329e-05
623 592 8.1380208333333329e-05
624 592 8.1380208333333329e-05
593 593 0.00048828124999999995
594 593 8.1380208333333329e-05
624 593 8.1380208333333329e-05
625 593 8.1380208333333329e-05
594 594 0.00048828124999999995
595 594 8.1380208333333329e-05
625 594 8.1380208333333329e-05
626 594 8.1380208333333329e-05
595 595 0.00048828124999999995
596 595 8.1380208333333329e-05
626 595 8.1380208333333329e-05
627 595 8.1380208333333329e-05
596 596 0.00048828124999999995
597 596 8.1380208333333329e-05
627 596 8.1380208333333329e-05
628 596 8.1380208333333329e-05
597 597 0.00048828124999999995
598 597 8.1380208333333329e-05
628 597 8.1380208333333329e-05
629 597 8.1380208333333329e-05
598 598 0.00048828124999999995
599 598 8.1380208333333329e-05
629 598 8.1380208333333329e-05
630 598 8.1380208333333329e-05
599 599 0.00048828124999999995
600 599 8.1380208333333329e-05
630 599 8.1380208333333329e-05
631 599 8.1380208333333329e-05
600 600 0.00048828124999999995
601 600 8.1380208333333329e-05
631 600 8.1380208333333329e-05
632 600 8.1380208333333329e-05
601 601 0.00048828124999999995
602 601 8.1380208333333329e-05
632 601 8.1380208333333329e-05
633 601 8.1380208333333329e-05
602 602 0.00048828124999999995
603 602 8.1380208333333329e-05
633 602 8.1380208333333329e-05
634 602 8.1380208333333329e-05
603 603 0.00048828124999999995
604 603 8.1380208333333329e-05
634 603 8.1380208333333329e-05
635 603 8.1380208333333329e-05
604 604 0.00048828124999999995
605 604 8.1380208333333329e-05
635 604 8.1380208333333329e-05
636 604 8.1380208333333329e-05
605 605 0.00048828124999999995
606 605 8.1380208333333329e-05
636 605 8.1380208333333329e-05
637 605 8.1380208333333329e-05
606 606 0.00048828124999999995
607 606 8.1380208333333329e-05
637 606 8.1380208333333329e-05
638 606 8.1380208333333329e-05
607 607 0.00048828124999999995
608 607 8.1380208333333329e-05
638 607 8.1380208333333329e-05
639 607 8.1380208333333329e-05
608 608 0.00048828124999999995
609 608 8.1380208333333329e-05
639 608 8.1380208333333329e-05
640 608 8.1380208333333329e-05
609 609 0.00048828124999999995
610 609 8.1380208333333329e-05
640 609 8.1380208333333329e-05
641 609 8.1380208333333329e-05
610 610 0.00048828124999999995
611 610 8.1380208333333329e-05
641 610 8.1380208333333329e-05
642 610 8.1380208333333329e-05
611 611 0.00048828124999999995
612 611 8.1380208333333329e-05
642 611 8.1380208333333329e-05
643 611 8.1380208333333329e-05
612 612 0.00048828124999999995
613 612 8.1380208333333329e-05
643 612 8.1380208333333329e-05
644 612 8.1380208333333329e-05
613 613 0.00048828124999999995
614 613 8.1380208333333329e-05
644 613 8.1380208333333329e-05
645 613 8.1380208333333329e-05
614 614 0.00048828124999999995
615 614 8.1380208333333329e-05
645 614 8.1380208333333329e-05
646 614 8.1380208333333329e-05
615 615 0.00048828124999999995
616 615 8.1380208333333329e-05
646 615 8.1380208333333329e-05
647 615 8.1380208333333329e-05
616 616 0.00048828124999999995
617 616 8.1380208333333329e-05
647 616 8.1380208333333329e-05
648 616 8.1380208333333329e-05
617 617 0.00048828124999999995
618 617 8.1380208333333329e-05
648 617 8.1380208333333329e-05
649 617 8.1380208333333329e-05
618 618 0.00048828124999999995
619 618 8.1380208333333329e-05
649 618 8.1380208333333329e-05
650 618 8.1380208333333329e-05
619 619 0.00048828124999999995
620 619 8.1380208333333329e-05
650 619 8.1380208333333329e-05
651 619 8.1380208333333329e-05
620 620 0.00048828124999999995
651 620 8.1380208333333329e-05
621 621 0.00048828124999999995
622 621 8.1380208333333329e-05
652 621 8.1380208333333329e-05
653 621 8.1380208333333329e-05
622 622 0.00048828124999999995
623 622 8.1380208333333329e-05
653 622 8.1380208333333329e-05
654 622 8.1380208333333329e-05
623 623 0.00048828124999999995
624 623 8.1380208333333329e-05
654 623 8.1380208333333329e-05
655 623 8.1380208333333329e-05
624 624 0.00048828124999999995
625 624 8.1380208333333329e-05
655 624 8.1380208333333329e-05
656 624 8.1380208333333329e-05
625 625 0.00048828124999999995
626 625 8.1380208333333329e-05
656 625 8.1380208333333329e-05
657 625 8.1380208333333329e-05
626 626 0.00048828124999999995
627 626 8.1380208333333329e-05
657 626 8.1380208333333329e-05
658 626 8.1380208333333329e-05
627 627 0.00048828124999999995
628 627 8.1380208333333329e-05
658 627 8.1380208333333329e-05
659 627 8.1380208333333329e-05
628 628 0.00048828124999999995
629 628 8.1380208333333329e-05
659 628 8.1380208333333329e-05
660 628 8.1380208333333329e-05
629 629 0.00048828124999999995
630 629 8.1380208333333329e-05
660 629 8.1380208333333329e-05
661 629 8.1380208333333329e-05
630 630 0.00048828124999999995
631 630 8.1380208333333329e-05
661 630 8.1380208333333329e-05
662 630 8.1380208333333329e-05
631 631 0.00048828124999999995
632 631 8.1380208333333329e-05
662 631 8.1380208333333329e-05
663 631 8.1380208333333329e-05
632 632 0.00048828124999999995
633 632 8.1380208333333329e-05
663 632 8.1380208333333329e-05
664 632 8.1380208333333329e-05
633 633 0.00048828124999999995
634 633 8.1380208333333329e-05
664 633 8.1380208333333329e-05
665 633 8.1380208333333329e-05
634 634 0.00048828124999999995
635 634 8.1380208333333329e-05
665 634 8.1380208333333329e-05
666 634 8.1380208333333329e-05
635 635 0.00048828124999999995
636 635 8.1380208333333329e-05
666 635 8.1380208333333329e-05
667 635 8.1380208333333329e-05
636 636 0.00048828124999999995
637 636 8.1380208333333329e-05
667 636 8.1380208333333329e-05
668 636 8.1380208333333329e-05
637 637 0.00048828124999999995
638 637 8.1380208333333329e-05
668 637 8.1380208333333329e-05
669 637 8.1380208333333329e-05
638 638 0.00048828124999999995
639 638 8.1380208333333329e-05
669 638 8.1380208333333329e-05
670 638 8.1380208333333329e-05
639 639 0.00048828124999999995
640 639 8.1380208333333329e-05
670 639 8.1380208333333329e-05
671 639 8.1380208333333329e-05
640 640 0.00048828124999999995
641 640 8.1380208333333329e-05
671 640 8.1380208333333329e-05
672 640 8.1380208333333329e-05
641 641 0.00048828124999999995
642 641 8.1380208333333329e-05
672 641 8.1380208333333329e-05
673 641 8.1380208333333329e-05
642 642 0.00048828124999999995
643 642 8.1380208333333329e-05
673 642 8.1380208333333329e-05
674 642 8.1380208333333329e-05
643 643 0.00048828124999999995
644 643 8.1380208333333329e-05
674 643 8.1380208333333329e-05
675 643 8.1380208333333329e-05
644 644 0.00048828124999999995
645 644 8.1380208333333329e-05
675 644 8.1380208333333329e-05
676 644 8.1380208333333329e-05
645 645 0.00048828124999999995
646 645 8.1380208333333329e-05
676 645 8.1380208333333329e-05
677 645 8.1380208333333329e-05
646 646 0.00048828124999999995
647 646 8.1380208333333329e-05
677 646 8.1380208333333329e-05
678 646 8.1380208333333329e-05
647 647 0.00048828124999999995
648 647 8.1380208333333329e-05
678 647 8.1380208333333329e-05
679 647 8.1380208333333329e-05
648 648 0.00048828124999999995
649 648 8.1380208333333329e-05
679 648 8.1380208333333329e-05
680 648 8.1380208333333329e-05
649 649 0.00048828124999999995
650 649 8.1380208333333329e-05
680 649 8.1380208333333329e-05
681 649 8.1380208333333329e-05
650 650 0.00048828124999999995
651 650 8.1380208333333329e-05
681 650 8.1380208333333329e-05
682 650 8.1380208333333329e-05
651 651 0.00048828124999999995
682 651 8.1380208333333329e-05
652 652 0.00048828124999999995
653 652 8.1380208333333329e-05
683 652 8.1380208333333329e-05
684 652 8.1380208333333329e-05
653 653 0.00048828124999999995
654 653 8.1380208333333329e-05
684 653 8.1380208333333329e-05
685 653 8.1380208333333329e-05
654 654 0.00048828124999999995
655 654 8.1380208333333329e-05
685 654 8.1380208333333329e-05
686 654 8.1380208333333329e-05
655 655 0.00048828124999999995
656 655 8.1380208333333329e-05
686 655 8.1380208333333329e-05
687 655 8.1380208333333329e-05
656 656 0.00048828124999999995
657 656 8.1380208333333329e-05
687 656 8.1380208333333329e-05
688 656 8.1380208333333329e-05
657 657 0.00048828124999999995
658 657 8.1380208333333329e-05
688 657 8.1380208333333329e-05
689 657 8.1380208333333329e-05
658 658 0.00048828124999999995
659 658 8.1380208333333329e-05
689 658 8.1380208333333329e-05
690 658 8.1380208333333329e-05
659 659 0.00048828124999999995
660 659 8.1380208333333329e-05
690 659 8.1380208333333329e-05
691 659 8.1380208333333329e-05
660 660 0.00048828124999999995
661 660 8.1380208333333329e-05
691 660 8.1380208333333329e-05
692 660 8.1380208333333329e-05
661 661 0.00048828124999999995
662 661 8.1380208333333329e-05
692 661 8.1380208333333329e-05
693 661 8.1380208333333329e-05
662 662 0.00048828124999999995
663 662 8.1380208333333329e-05
693 662 8.1380208333333329e-05
694 662 8.1380208333333329e-05
663 663 0.00048828124999999995
664 663 8.1380208333333329e-05
694 663 8.1380208333333329e-05
695 663 8.1380208333333329e-05
664 664 0.00048828124999999995
665 664 8.1380208333333329e-05
695 664 8.1380208333333329e-05
696 664 8.1380208333333329e-05
665 665 0.00048828124999999995
666 665 8.1380208333333329e-05
696 665 8.1380208333333329e-05
697 665 8.1380208333333329e-05
666 666 0.00048828124999999995
667 666 8.1380208333333329e-05
697 666 8.1380208333333329e-05
698 666 8.1380208333333329e-05
667 667 0.00048828124999999995
668 667 8.1380208333333329e-05
698 667 8.1380208333333329e-05
699 667 8.1380208333333329e-05
668 668 0.00048828124999999995
669 668 8.1380208333333329e-05
699 668 8.1380208333333329e-05
700 668 8.1380208333333329e-05
669 669 0.00048828124999999995
670 669 8.1380208333333329e-05
700 669 8.1380208333333329e-05
701 669 8.1380208333333329e-05
670 670 0.00048828124999999995
671 670 8.1380208333333329e-05
701 670 8.1380208333333329e-05
702 670 8.1380208333333329e-05
671 671 0.00048828124999999995
672 671 8.1380208333333329e-05
702 671 8.1380208333333329e-05
703 671 8.1380208333333329e-05
672 672 0.00048828124999999995
673 672 8.1380208333333329e-05
703 672 8.1380208333333329e-05
704 672 8.1380208333333329e-05
673 673 0.00048828124999999995
674 673 8.1380208333333329e-05
704 673 8.1380208333333329e-05
705 673 8.1380208333333329e-05
674 674 0.00048828124999999995
675 674 8.1380208333333329e-05
705 674 8.1380208333333329e-05
706 674 8.1380208333333329e-05
675 675 0.00048828124999999995
676 675 8.1380208333333329e-05
706 675 8.1380208333333329e-05
707 675 8.1380208333333329e-05
676 676 0.00048828124999999995
677 676 8.1380208333333329e-05
707 676 8.1380208333333329e-05
708 676 8.1380208333333329e-05
677 677 0.00048828124999999995
678 677 8.1380208333333329e-05
708 677 8.1380208333333329e-05
709 677 8.1380208333333329e-05
678 678 0.00048828124999999995
679 678 8.1380208333333329e-05
709 678 8.1380208333333329e-05
710 678 8.1380208333333329e-05
679 679 0.00048828124999999995
680 679 8.1380208333333329e-05
710 679 8.1380208333333329e-05
711 679 8.1380208333333329e-05
680 680 0.00048828124999999995
681 680 8.1380208333333329e-05
711 680 8.1380208333333329e-05
712 680 8.1380208333333329e-05
681 681 0.00048828124999999995
682 681 8.1380208333333329e-05
712 681 8.1380208333333329e-05
713 681 8.1380208333333329e-05
682 682 0.00048828124999999995
713 682 8.1380208333333329e-05
683 683 0.00048828124999999995
684 683 8.1380208333333329e-05
714 683 8.1380208333333329e-05
715 683 8.1380208333333329e-05
684 684 0.00048828124999999995
685 684 8.1380208333333329e-05
715 684 8.1380208333333329e-05
716 684 8.1380208333333329e-05
685 685 0.00048828124999999995
686 685 8.1380208333333329e-05
716 685 8.1380208333333329e-05
717 685 8.1380208333333329e-05
686 686 0.00048828124999999995
687 686 8.1380208333333329e-05
717 686 8.1380208333333329e-05
718 686 8.1380208333333329e-05
687 687 0.00048828124999999995
688 687 8.1380208333333329e-05
718 687 8.1380208333333329e-05
719 687 8.1380208333333329e-05
688 688 0.00048828124999999995
689 688 8.1380208333333329e-05
719 688 8.1380208333333329e-05
720 688 8.1380208333333329e-05
689 689 0.00048828124999999995
690 689 8.1380208333333329e-05
720 689 8.1380208333333329e-05
721 689 8.1380208333333329e-05
690 690 0.00048828124999999995
691 690 8.1380208333333329e-05
721 690 8.1380208333333329e-05
722 690 8.1380208333333329e-05
691 691 0.00048828124999999995
692 691 8.1380208333333329e-05
722 691 8.1380208333333329e-05
723 691 8.1380208333333329e-05
692 692 0.00048828124999999995
693 692 8.1380208333333329e-05
723 692 8.1380208333333329e-05
724 692 8.1380208333333329e-05
693 693 0.00048828124999999995
694 693 8.1380208333333329e-05
724 693 8.1380208333333329e-05
725 693 8.1380208333333329e-05
694 694 0.00048828124999999995
695 694 8.1380208333333329e-05
725 694 8.1380208333333329e-05
726 694 8.1380208333333329e-05
695 695 0.00048828124999999995
696 695 8.1380208333333329e-05
726 695 8.1380208333333329e-05
727 695 8.1380208333333329e-05
696 696 0.00048828124999999995
697 696 8.1380208333333329e-05
727 696 8.1380208333333329e-05
728 696 8.1380208333333329e-05
697 697 0.00048828124999999995
698 697 8.1380208333333329e-05
728 697 8.1380208333333329e-05
729 697 8.1380208333333329e-05
698 698 0.00048828124999999995
699 698 8.1380208333333329e-05
729 698 8.1380208333333329e-05
730 698 8.1380208333333329e-05
699 699 0.00048828124999999995
700 699 8.1380208333333329e-05
730 699 8.1380208333333329e-05
731 699 8.1380208333333329e-05
700 700 0.00048828124999999995
701 700 8.1380208333333329e-05
731 700 8.1380208333333329e-05
732 700 8.1380208333333329e-05
701 701 0.00048828124999999995
702 701 8.1380208333333329e-05
732 701 8.1380208333333329e-05
733 701 8.1380208333333329e-05
702 702 0.00048828124999999995
703 702 8.1380208333333329e-05
733 702 8.1380208333333329e-05
734 702 8.1380208333333329e-05
703 703 0.00048828124999999995
704 703 8.1380208333333329e-05
734 703 8.1380208333333329e-05
735 703 8.1380208333333329e-05
704 704 0.00048828124999999995
705 704 8.1380208333333329e-05
735 704 8.1380208333333329e-05
736 704 8.1380208333333329e-05
705 705 0.00048828124999999995
706 705 8.1380208333333329e-05
736 705 8.1380208333333329e-05
737 705 8.1380208333333329e-05
706 706 0.00048828124999999995
707 706 8.1380208333333329e-05
737 706 8.1380208333333329e-05
738 706 8.1380208333333329e-05
707 707 0.00048828124999999995
708 707 8.1380208333333329e-05
738 707 8.1380208333333329e-05
739 707 8.1380208333333329e-05
708 708 0.00048828124999999995
709 708 8.1380208333333329e-05
739 708 8.1380208333333329e-05
740 708 8.1380208333333329e-05
709 709 0.00048828124999999995
710 709 8.1380208333333329e-05
740 709 8.1380208333333329e-05
741 709 8.1380208333333329e-05
710 710 0.00048828124999999995
711 710 8.1380208333333329e-05
741 710 8.1380208333333329e-05
742 710 8.1380208333333329e-05
711 711 0.00048828124999999995
712 711 8.1380208333333329e-05
742 711 8.1380208333333329e-05
743 711 8.1380208333333329e-05
712 712 0.00048828124999999995
713 712 8.1380208333333329e-05
743 712 8.1380208333333329e-05
744 712 8.1380208333333329e-05
713 713 0.00048828124999999995
744 713 8.1380208333333329e-05
714 714 0.00048828124999999995
715 714 8.1380208333333329e-05
745 714 8.1380208333333329e-05
746 714 8.1380208333333329e-05
715 715 0.00048828124999999995
716 715 8.1380208333333329e-05
746 715 8.1380208333333329e-05
747 715 8.1380208333333329e-05
716 716 0.00048828124999999995
717 716 8.1380208333333329e-05
747 716 8.1380208333333329e-05
748 716 8.1380208333333329e-05
717 717 0.00048828124999999995
718 717 8.1380208333333329e-05
748 717 8.1380208333333329e-05
749 717 8.1380208333333329e-05
718 718 0.00048828124999999995
719 718 8.1380208333333329e-05
749 718 8.1380208333333329e-05
750 718 8.1380208333333329e-05
719 719 0.00048828124999999995
720 719 8.1380208333333329e-05
750 719 8.1380208333333329e-05
751 719 8.1380208333333329e-05
720 720 0.00048828124999999995
721 720 8.1380208333333329e-05
751 720 8.1380208333333329e-05
752 720 8.1380208333333329e-05
721 721 0.00048828124999999995
722 721 8.1380208333333329e-05
752 721 8.1380208333333329e-05
753 721 8.1380208333333329e-05
722 722 0.00048828124999999995
723 722 8.1380208333333329e-05
753 722 8.1380208333333329e-05
754 722 8.1380208333333329e-05
723 723 0.00048828124999999995
724 723 8.1380208333333329e-05
754 723 8.1380208333333329e-05
755 723 8.1380208333333329e-05
724 724 0.00048828124999999995
725 724 8.1380208333333329e-05
755 724 8.1380208333333329e-05
756 724 8.1380208333333329e-05
725 725 0.00048828124999999995
726 725 8.1380208333333329e-05
756 725 8.1380208333333329e-05
757 725 8.1380208333333329e-05
726 726 0.00048828124999999995
727 726 8.1380208333333329e-05
757 726 8.1380208333333329e-05
758 726 8.1380208333333329e-05
727 727 0.00048828124999999995
728 727 8.1380208333333329e-05
758 727 8.1380208333333329e-05
759 727 8.1380208333333329e-05
728 728 0.00048828124999999995
729 728 8.1380208333333329e-05
759 728 8.1380208333333329e-05
760 728 8.1380208333333329e-05
729 729 0.00048828124999999995
730 729 8.1380208333333329e-05
760 729 8.1380208333333329e-05
761 729 8.1380208333333329e-05
730 730 0.00048828124999999995
731 730 8.1380208333333329e-05
761 730 8.1380208333333329e-05
762 730 8.1380208333333329e-05
731 731 0.00048828124999999995
732 731 8.1380208333333329e-05
762 731 8.1380208333333329e-05
763 731 8.1380208333333329e-05
732 732 0.00048828124999999995
733 732 8.1380208333333329e-05
763 732 8.1380208333333329e-05
764 732 8.1380208333333329e-05
733 733 0.00048828124999999995
734 733 8.1380208333333329e-05
764 733 8.1380208333333329e-05
765 733 8.1380208333333329e-05
734 734 0.00048828124999999995
735 734 8.1380208333333329e-05
765 734 8.1380208333333329e-05
766 734 8.1380208333333329e-05
735 735 0.00048828124999999995
736 735 8.1380208333333329e-05
766 735 8.1380208333333329e-05
767 735 8.1380208333333329e-05
736 736 0.00048828124999999995
737 736 8.1380208333333329e-05
767 736 8.1380208333333329e-05
768 736 8.1380208333333329e-05
737 737 0.00048828124999999995
738 737 8.1380208333333329e-05
768 737 8.1380208333333329e-05
769 737 8.1380208333333329e-05
738 738 0.00048828124999999995
739 738 8.1380208333333329e-05
769 738 8.1380208333333329e-05
770 738 8.1380208333333329e-05
739 739 0.00048828124999999995
740 739 8.1380208333333329e-05
770 739 8.1380208333333329e-05
771 739 8.1380208333333329e-05
740 740 0.00048828124999999995
741 740 8.1380208333333329e-05
771 740 8.1380208333333329e-05
772 740 8.1380208333333329e-05
741 741 0.00048828124999999995
742 741 8.1380208333333329e-05
772 741 8.1380208333333329e-05
773 741 8.1380208333333329e-05
742 742 0.00048828124999999995
743 742 8.1380208333333329e-05
773 742 8.1380208333333329e-05
774 742 8.1380208333333329e-05
743 743 0.00048828124999999995
744 743 8.1380208333333329e-05
774 743 8.1380208333333329e-05
775 743 8.1380208333333329e-05
744 744 0.00048828124999999995
775 744 8.1380208333333329e-05
745 745 0.00048828124999999995
746 745 8.1380208333333329e-05
776 745 8.1380208333333329e-05
777 745 8.1380208333333329e-05
746 746 0.00048828124999999995
747 746 8.1380208333333329e-05
777 746 8.1380208333333329e-05
778 746 8.1380208333333329e-05
747 747 0.00048828124999999995
748 747 8.1380208333333329e-05
778 747 8.1380208333333329e-05
779 747 8.1380208333333329e-05
748 748 0.00048828124999999995
749 748 8.1380208333333329e-05
779 748 8.1380208333333329e-05
780 748 8.1380208333333329e-05
749 749 0.00048828124999999995
750 749 8.1380208333333329e-05
780 749 8.1380208333333329e-05
781 749 8.1380208333333329e-05
750 750 0.00048828124999999995
751 750 8.1380208333333329e-05
781 750 8.1380208333333329e-05
782 750 8.1380208333333329e-05
751 751 0.00048828124999999995
752 751 8.1380208333333329e-05
782 751 8.1380208333333329e-05
783 751 8.1380208333333329e-05
752 752 0.00048828124999999995
753 752 8.1380208333333329e-05
783 752 8.1380208333333329e-05
784 752 8.1380208333333329e-05
753 753 0.00048828124999999995
754 753 8.1380208333333329e-05
784 753 8.1380208333333329e-05
785 753 8.1380208333333329e-05
754 754 0.00048828124999999995
755 754 8.1380208333333329e-05
785 754 8.1380208333333329e-05
786 754 8.1380208333333329e-05
755 755 0.00048828124999999995
756 755 8.1380208333333329e-05
786 755 8.1380208333333329e-05
787 755 8.1380208333333329e-05
756 756 0.00048828124999999995
757 756 8.1380208333333329e-05
787 756 8.1380208333333329e-05
788 756 8.1380208333333329e-05
757 757 0.00048828124999999995
758 757 8.1380208333333329e-05
788 757 8.1380208333333329e-05
789 757 8.1380208333333329e-05
758 758 0.00048828124999999995
759 758 8.1380208333333329e-05
789 758 8.1380208333333329e-05
790 758 8.1380208333333329e-05
759 759 0.00048828124999999995
760 759 8.1380208333333329e-05
790 759 8.1380208333333329e-05
791 759 8.1380208333333329e-05
760 760 0.00048828124999999995
761 760 8.1380208333333329e-05
791 760 8.1380208333333329e-05
792 760 8.1380208333333329e-05
761 761 0.00048828124999999995
762 761 8.1380208333333329e-05
792 761 8.1380208333333329e-05
793 761 8.1380208333333329e-05
762 762 0.00048828124999999995
763 762 8.1380208333333329e-05
793 762 8.1380208333333329e-05
794 762 8.1380208333333329e-05
763 763 0.00048828124999999995
764 763 8.1380208333333329e-05
794 763 8.1380208333333329e-05
795 763 8.1380208333333329e-05
764 764 0.00048828124999999995
765 764 8.1380208333333329e-05
795 764 8.1380208333333329e-05
796 764 8.1380208333333329e-05
765 765 0.00048828124999999995
766 765 8.1380208333333329e-05
796 765 8.1380208333333329e-05
797 765 8.1380208333333329e-05
766 766 0.00048828124999999995
767 766 8.1380208333333329e-05
797 766 8.1380208333333329e-05
798 766 8.1380208333333329e-05
767 767 0.00048828124999999995
768 767 8.1380208333333329e-05
798 767 8.1380208333333329e-05
799 767 8.1380208333333329e-05
768 768 0.00048828124999999995
769 768 8.1380208333333329e-05
799 768 8.1380208333333329e-05
800 768 8.1380208333333329e-05
769 769 0.00048828124999999995
770 769 8.1380208333333329e-05
800 769 8.1380208333333329e-05
801 769 8.1380208333333329e-05
770 770 0.00048828124999999995
771 770 8.1380208333333329e-05
801 770 8.1380208333333329e-05
802 770 8.1380208333333329e-05
771 771 0.00048828124999999995
772 771 8.1380208333333329e-05
802 771 8.1380208333333329e-05
803 771 8.1380208333333329e-05
772 772 0.00048828124999999995
773 772 8.1380208333333329e-05
803 772 8.1380208333333329e-05
804 772 8.1380208333333329e-05
773 773 0.00048828124999999995
774 773 8.1380208333333329e-05
804 773 8.1380208333333329e-05
805 773 8.1380208333333329e-05
774 774 0.00048828124999999995
775 774 8.1380208333333329e-05
805 774 8.1380208333333329e-05
806 774 8.1380208333333329e-05
775 775 0.00048828124999999995
806 775 8.1380208333333329e-05
776 776 0.00048828124999999995
777 776 8.1380208333333329e-05
807 776 8.1380208333333329e-05
808 776 8.1380208333333329e-05
777 777 0.00048828124999999995
778 777 8.1380208333333329e-05
808 777 8.1380208333333329e-05
809 777 8.1380208333333329e-05
778 778 0.00048828124999999995
779 778 8.1380208333333329e-05
809 778 8.1380208333333329e-05
810 778 8.1380208333333329e-05
779 779 0.00048828124999999995
780 779 8.1380208333333329e-05
810 779 8.1380208333333329e-05
811 779 8.1380208333333329e-05
780 780 0.00048828124999999995
781 780 8.1380208333333329e-05
811 780 8.1380208333333329e-05
812 780 8.1380208333333329e-05
781 781 0.00048828124999999995
782 781 8.1380208333333329e-05
812 781 8.1380208333333329e-05
813 781 8.1380208333333329e-05
782 782 0.00048828124999999995
783 782 8.1380208333333329e-05
813 782 8.1380208333333329e-05
814 782 8.1380208333333329e-05
783 783 0.00048828124999999995
784 783 8.1380208333333329e-05
814 783 8.1380208333333329e-05
815 783 8.1380208333333329e-05
784 784 0.00048828124999999995
785 784 8.1380208333333329e-05
815 784 8.1380208333333329e-05
816 784 8.1380208333333329e-05
785 785 0.00048828124999999995
786 785 8.1380208333333329e-05
816 785 8.1380208333333329e-05
817 785 8.1380208333333329e-05
786 786 0.00048828124999999995
787 786 8.1380208333333329e-05
817 786 8.1380208333333329e-05
818 786 8.1380208333333329e-05
787 787 0.00048828124999999995
788 787 8.1380208333333329e-05
818 787 8.1380208333333329e-05
819 787 8.1380208333333329e-05
788 788 0.00048828124999999995
789 788 8.1380208333333329e-05
819 788 8.1380208333333329e-05
820 788 8.1380208333333329e-05
789 789 0.00048828124999999995
790 789 8.1380208333333329e-05
820 789 8.1380208333333329e-05
821 789 8.1380208333333329e-05
790 790 0.00048828124999999995
791 790 8.1380208333333329e-05
821 790 8.1380208333333329e-05
822 790 8.1380208333333329e-05
791 791 0.00048828124999999995
792 791 8.1380208333333329e-05
822 791 8.1380208333333329e-05
823 791 8.1380208333333329e-05
792 792 0.00048828124999999995
793 792 8.1380208333333329e-05
823 792 8.1380208333333329e-05
824 792 8.1380208333333329e-05
793 793 0.00048828124999999995
794 793 8.1380208333333329e-05
824 793 8.1380208333333329e-05
825 793 8.1380208333333329e-05
794 794 0.00048828124999999995
795 794 8.1380208333333329e-05
825 794 8.1380208333333329e-05
826 794 8.1380208333333329e-05
795 795 0.00048828124999999995
796 795 8.1380208333333329e-05
826 795 8.1380208333333329e-05
827 795 8.1380208333333329e-05
796 796 0.00048828124999999995
797 796 8.1380208333333329e-05
827 796 8.1380208333333329e-05
828 796 8.1380208333333329e-05
797 797 0.00048828124999999995
798 797 8.1380208333333329e-05
828 797 8.1380208333333329e-05
829 797 8.1380208333333329e-05
798 798 0.00048828124999999995
799 798 8.1380208333333329e-05
829 798 8.1380208333333329e-05
830 798 8.1380208333333329e-05
799 799 0.00048828124999999995
800 799 8.1380208333333329e-05
830 799 8.1380208333333329e-05
831 799 8.1380208333333329e-05
800 800 0.00048828124999999995
801 800 8.1380208333333329e-05
831 800 8.1380208333333329e-05
832 800 8.1380208333333329e-05
801 801 0.00048828124999999995
802 801 8.1380208333333329e-05
832 801 8.1380208333333329e-05
833 801 8.1380208333333329e-05
802 802 0.00048828124999999995
803 802 8.1380208333333329e-05
833 802 8.1380208333333329e-05
834 802 8.1380208333333329e-05
803 803 0.00048828124999999995
804 803 8.1380208333333329e-05
834 803 8.1380208333333329e-05
835 803 8.1380208333333329e-05
804 804 0.00048828124999999995
805 804 8.1380208333333329e-05
835 804 8.1380208333333329e-05
836 804 8.1380208333333329e-05
805 805 0.00048828124999999995
806 805 8.1380208333333329e-05
836 805 8.1380208333333329e-05
837 805 8.1380208333333329e-05
806 806 0.00048828124999999995
837 806 8.1380208333333329e-05
807 807 0.00048828124999999995
808 807 8.1380208333333329e-05
838 807 8.1380208333333329e-05
839 807 8.1380208333333329e-05
808 808 0.00048828124999999995
809 808 8.1380208333333329e-05
839 808 8.1380208333333329e-05
840 808 8.1380208333333329e-05
809 809 0.00048828124999999995
810 809 8.1380208333333329e-05
840 809 8.1380208333333329e-05
841 809 8.1380208333333329e-05
810 810 0.00048828124999999995
811 810 8.1380208333333329e-05
841 810 8.1380208333333329e-05
842 810 8.1380208333333329e-05
811 811 0.00048828124999999995
812 811 8.1380208333333329e-05
842 811 8.1380208333333329e-05
843 811 8.1380208333333329e-05
812 812 0.00048828124999999995
813 812 8.1380208333333329e-05
843 812 8.1380208333333329e-05
844 812 8.1380208333333329e-05
813 813 0.00048828124999999995
814 813 8.1380208333333329e-05
844 813 8.1380208333333329e-05
845 813 8.1380208333333329e-05
814 814 0.00048828124999999995
815 814 8.1380208333333329e-05
845 814 8.1380208333333329e-05
846 814 8.1380208333333329e-05
815 815 0.00048828124999999995
816 815 8.1380208333333329e-05
846 815 8.1380208333333329e-05
847 815 8.1380208333333329e-05
816 816 0.00048828124999999995
817 816 8.1380208333333329e-05
847 816 8.1380208333333329e-05
848 816 8.1380208333333329e-05
817 817 0.00048828124999999995
818 817 8.1380208333333329e-05
848 817 8.1380208333333329e-05
849 817 8.1380208333333329e-05
818 818 0.00048828124999999995
819 818 8.1380208333333329e-05
849 818 8.1380208333333329e-05
850 818 8.1380208333333329e-05
819 819 0.00048828124999999995
820 819 8.1380208333333329e-05
850 819 8.1380208333333329e-05
851 819 8.1380208333333329e-05
820 820 0.00048828124999999995
821 820 8.1380208333333329e-05
851 820 8.1380208333333329e-05
852 820 8.1380208333333329e-05
821 821 0.00048828124999999995
822 821 8.1380208333333329e-05
852 821 8.1380208333333329e-05
853 821 8.1380208333333329e-05
822 822 0.00048828124999999995
823 822 8.1380208333333329e-05
853 822 8.1380208333333329e-05
854 822 8.1380208333333329e-05
823 823 0.00048828124999999995
824 823 8.1380208333333329e-05
854 823 8.1380208333333329e-05
855 823 8.1380208333333329e-05
824 824 0.00048828124999999995
825 824 8.1380208333333329e-05
855 824 8.1380208333333329e-05
856 824 8.1380208333333329e-05
825 825 0.00048828124999999995
826 825 8.1380208333333329e-05
856 825 8.1380208333333329e-05
857 825 8.1380208333333329e-05
826 826 0.00048828124999999995
827 826 8.1380208333333329e-05
857 826 8.1380208333333329e-05
858 826 8.1380208333333329e-05
827 827 0.00048828124999999995
828 827 8.1380208333333329e-05
858 827 8.1380208333333329e-05
859 827 8.1380208333333329e-05
828 828 0.00048828124999999995
829 828 8.1380208333333329e-05
859 828 8.1380208333333329e-05
860 828 8.1380208333333329e-05
829 829 0.00048828124999999995
830 829 8.1380208333333329e-05
860 829 8.1380208333333329e-05
861 829 8.1380208333333329e-05
830 830 0.00048828124999999995
831 830 8.1380208333333329e-05
861 830 8.1380208333333329e-05
862 830 8.1380208333333329e-05
831 831 0.00048828124999999995
832 831 8.1380208333333329e-05
862 831 8.1380208333333329e-05
863 831 8.1380208333333329e-05
832 832 0.00048828124999999995
833 832 8.1380208333333329e-05
863 832 8.1380208333333329e-05
864 832 8.1380208333333329e-05
833 833 0.00048828124999999995
834 833 8.1380208333333329e-05
864 833 8.1380208333333329e-05
865 833 8.1380208333333329e-05
834 834 0.00048828124999999995
835 834 8.1380208333333329e-05
865 834 8.1380208333333329e-05
866 834 8.1380208333333329e-05
835 835 0.00048828124999999995
836 835 8.1380208333333329e-05
866 835 8.1380208333333329e-05
867 835 8.1380208333333329e-05
836 836 0.00048828124999999995
837 836 8.1380208333333329e-05
867 836 8.1380208333333329e-05
868 836 8.1380208333333329e-05
837 837 0.00048828124999999995
868 837 8.1380208333333329e-05
838 838 0.00048828124999999995
839 838 8.1380208333333329e-05
869 838 8.1380208333333329e-05
870 838 8.1380208333333329e-05
839 839 0.00048828124999999995
840 839 8.1380208333333329e-05
870 839 8.1380208333333329e-05
871 839 8.1380208333333329e-05
840 840 0.00048828124999999995
841 840 8.1380208333333329e-05
871 840 8.1380208333333329e-05
872 840 8.1380208333333329e-05
841 841 0.00048828124999999995
842 841 8.1380208333333329e-05
872 841 8.1380208333333329e-05
873 841 8.1380208333333329e-05
842 842 0.00048828124999999995
843 842 8.1380208333333329e-05
873 842 8.1380208333333329e-05
874 842 8.1380208333333329e-05
843 843 0.00048828124999999995
844 843 8.1380208333333329e-05
874 843 8.1380208333333329e-05
875 843 8.1380208333333329e-05
844 844 0.00048828124999999995
845 844 8.1380208333333329e-05
875 844 8.1380208333333329e-05
876 844 8.1380208333333329e-05
845 845 0.00048828124999999995
846 845 8.1380208333333329e-05
876 845 8.1380208333333329e-05
877 845 8.1380208333333329e-05
846 846 0.00048828124999999995
847 846 8.1380208333333329e-05
877 846 8.1380208333333329e-05
878 846 8.1380208333333329e-05
847 847 0.00048828124999999995
848 847 8.1380208333333329e-05
878 847 8.1380208333333329e-05
879 847 8.1380208333333329e-05
848 848 0.00048828124999999995
849 848 8.1380208333333329e-05
879 848 8.1380208333333329e-05
880 848 8.1380208333333329e-05
849 849 0.00048828124999999995
850 849 8.1380208333333329e-05
880 849 8.1380208333333329e-05
881 849 8.1380208333333329e-05
850 850 0.00048828124999999995
851 850 8.1380208333333329e-05
881 850 8.1380208333333329e-05
882 850 8.1380208333333329e-05
851 851 0.00048828124999999995
852 851 8.1380208333333329e-05
882 851 8.1380208333333329e-05
883 851 8.1380208333333329e-05
852 852 0.00048828124999999995
853 852 8.1380208333333329e-05
883 852 8.1380208333333329e-05
884 852 8.1380208333333329e-05
853 853 0.00048828124999999995
854 853 8.1380208333333329e-05
884 853 8.1380208333333329e-05
885 853 8.1380208333333329e-05
854 854 0.00048828124999999995
855 854 8.1380208333333329e-05
885 854 8.1380208333333329e-05
886 854 8.1380208333333329e-05
855 855 0.00048828124999999995
856 855 8.1380208333333329e-05
886 855 8.1380208333333329e-05
887 855 8.1380208333333329e-05
856 856 0.00048828124999999995
857 856 8.1380208333333329e-05
887 856 8.1380208333333329e-05
888 856 8.1380208333333329e-05
857 857 0.00048828124999999995
858 857 8.1380208333333329e-05
888 857 8.1380208333333329e-05
889 857 8.1380208333333329e-05
858 858 0.00048828124999999995
859 858 8.1380208333333329e-05
889 858 8.1380208333333329e-05
890 858 8.1380208333333329e-05
859 859 0.00048828124999999995
860 859 8.1380208333333329e-05
890 859 8.1380208333333329e-05
891 859 8.1380208333333329e-05
860 860 0.00048828124999999995
861 860 8.1380208333333329e-05
891 860 8.1380208333333329e-05
892 860 8.1380208333333329e-05
861 861 0.00048828124999999995
862 861 8.1380208333333329e-05
892 861 8.1380208333333329e-05
893 861 8.1380208333333329e-05
862 862 0.00048828124999999995
863 862 8.1380208333333329e-05
893 862 8.1380208333333329e-05
894 862 8.1380208333333329e-05
863 863 0.00048828124999999995
864 863 8.1380208333333329e-05
894 863 8.1380208333333329e-05
895 863 8.1380208333333329e-05
864 864 0.00048828124999999995
865 864 8.1380208333333329e-05
895 864 8.1380208333333329e-05
896 864 8.1380208333333329e-05
865 865 0.00048828124999999995
866 865 8.1380208333333329e-05
896 865 8.1380208333333329e-05
897 865 8.1380208333333329e-05
866 866 0.00048828124999999995
867 866 8.1380208333333329e-05
897 866 8.1380208333333329e-05
898 866 8.1380208333333329e-05
867 867 0.00048828124999999995
868 867 8.1380208333333329e-05
898 867 8.1380208333333329e-05
899 867 8.1380208333333329e-05
868 868 0.00048828124999999995
899 868 8.1380208333333329e-05
869 869 0.00048828124999999995
870 869 8.1380208333333329e-05
900 869 8.1380208333333329e-05
901 869 8.1380208333333329e-05
870 870 0.00048828124999999995
871 870 8.1380208333333329e-05
901 870 8.1380208333333329e-05
902 870 8.1380208333333329e-05
871 871 0.00048828124999999995
872 871 8.1380208333333329e-05
902 871 8.1380208333333329e-05
903 871 8.1380208333333329e-05
872 872 0.00048828124999999995
873 872 8.1380208333333329e-05
903 872 8.1380208333333329e-05
904 872 8.1380208333333329e-05
873 873 0.00048828124999999995
874 873 8.1380208333333329e-05
904 873 8.1380208333333329e-05
905 873 8.1380208333333329e-05
874 874 0.00048828124999999995
875 874 8.1380208333333329e-05
905 874 8.1380208333333329e-05
906 874 8.1380208333333329e-05
875 875 0.00048828124999999995
876 875 8.1380208333333329e-05
906 875 8.1380208333333329e-05
907 875 8.1380208333333329e-05
876 876 0.00048828124999999995
877 876 8.1380208333333329e-05
907 876 8.1380208333333329e-05
908 876 8.1380208333333329e-05
877 877 0.00048828124999999995
878 877 8.1380208333333329e-05
908 877 8.1380208333333329e-05
909 877 8.1380208333333329e-05
878 878 0.00048828124999999995
879 878 8.1380208333333329e-05
909 878 8.1380208333333329e-05
910 878 8.1380208333333329e-05
879 879 0.00048828124999999995
880 879 8.1380208333333329e-05
910 879 8.1380208333333329e-05
911 879 8.1380208333333329e-05
880 880 0.00048828124999999995
881 880 8.1380208333333329e-05
911 880 8.1380208333333329e-05
912 880 8.1380208333333329e-05
881 881 0.00048828124999999995
882 881 8.1380208333333329e-05
912 881 8.1380208333333329e-05
913 881 8.1380208333333329e-05
882 882 0.00048828124999999995
883 882 8.1380208333333329e-05
913 882 8.1380208333333329e-05
914 882 8.1380208333333329e-05
883 883 0.00048828124999999995
884 883 8.1380208333333329e-05
914 883 8.1380208333333329e-05
915 883 8.1380208333333329e-05
884 884 0.00048828124999999995
885 884 8.1380208333333329e-05
915 884 8.1380208333333329e-05
916 884 8.1380208333333329e-05
885 885 0.00048828124999999995
886 885 8.1380208333333329e-05
916 885 8.1380208333333329e-05
917 885 8.1380208333333329e-05
886 886 0.00048828124999999995
887 886 8.1380208333333329e-05
917 886 8.1380208333333329e-05
918 886 8.1380208333333329e-05
887 887 0.00048828124999999995
888 887 8.1380208333333329e-05
918 887 8.1380208333333329e-05
919 887 8.1380208333333329e-05
888 888 0.00048828124999999995
889 888 8.1380208333333329e-05
919 888 8.1380208333333329e-05
920 888 8.1380208333333329e-05
889 889 0.00048828124999999995
890 889 8.1380208333333329e-05
920 889 8.1380208333333329e-05
921 889 8.1380208333333329e-05
890 890 0.00048828124999999995
891 890 8.1380208333333329e-05
921 890 8.1380208333333329e-05
922 890 8.1380208333333329e-05
891 891 0.00048828124999999995
892 891 8.1380208333333329e-05
922 891 8.1380208333333329e-05
923 891 8.1380208333333329e-05
892 892 0.00048828124999999995
893 892 8.1380208333333329e-05
923 892 8.1380208333333329e-05
924 892 8.1380208333333329e-05
893 893 0.00048828124999999995
894 893 8.1380208333333329e-05
924 893 8.1380208333333329e-05
925 893 8.1380208333333329e-05
894 894 0.00048828124999999995
895 894 8.1380208333333329e-05
925 894 8.1380208333333329e-05
926 894 8.1380208333333329e-05
895 895 0.00048828124999999995
896 895 8.1380208333333329e-05
926 895 8.1380208333333329e-05
927 895 8.1380208333333329e-05
896 896 0.00048828124999999995
897 896 8.1380208333333329e-05
927 896 8.1380208333333329e-05
928 896 8.1380208333333329e-05
897 897 0.00048828124999999995
898 897 8.1380208333333329e-05
928 897 8.1380208333333329e-05
929 897 8.1380208333333329e-05
898 898 0.00048828124999999995
899 898 8.1380208333333329e-05
929 898 8.1380208333333329e-05
930 898 8.1380208333333329e-05
899 899 0.00048828124999999995
930 899 8.1380208333333329e-05
900 900 0.00048828124999999995
901 900 8.1380208333333329e-05
931 900 8.1380208333333329e-05
932 900 8.1380208333333329e-05
901 901 0.00048828124999999995
902 901 8.1380208333333329e-05
932 901 8.1380208333333329e-05
933 901 8.1380208333333329e-05
902 902 0.00048828124999999995
903 902 8.1380208333333329e-05
933 902 8.1380208333333329e-05
934 902 8.1380208333333329e-05
903 903 0.00048828124999999995
904 903 8.1380208333333329e-05
934 903 8.1380208333333329e-05
935 903 8.1380208333333329e-05
904 904 0.00048828124999999995
905 904 8.1380208333333329e-05
935 904 8.1380208333333329e-05
936 904 8.1380208333333329e-05
905 905 0.00048828124999999995
906 905 8.1380208333333329e-05
936 905 8.1380208333333329e-05
937 905 8.1380208333333329e-05
906 906 0.00048828124999999995
907 906 8.1380208333333329e-05
937 906 8.1380208333333329e-05
938 906 8.1380208333333329e-05
907 907 0.00048828124999999995
908 907 8.1380208333333329e-05
938 907 8.1380208333333329e-05
939 907 8.1380208333333329e-05
908 908 0.00048828124999999995
909 908 8.1380208333333329e-05
939 908 8.1380208333333329e-05
940 908 8.1380208333333329e-05
909 909 0.00048828124999999995
910 909 8.1380208333333329e-05
940 909 8.1380208333333329e-05
941 909 8.1380208333333329e-05
910 910 0.00048828124999999995
911 910 8.1380208333333329e-05
941 910 8.1380208333333329e-05
942 910 8.1380208333333329e-05
911 911 0.00048828124999999995
912 911 8.1380208333333329e-05
942 911 8.1380208333333329e-05
943 911 8.1380208333333329e-05
912 912 0.00048828124999999995
913 912 8.1380208333333329e-05
943 912 8.1380208333333329e-05
944 912 8.1380208333333329e-05
913 913 0.00048828124999999995
914 913 8.1380208333333329e-05
944 913 8.1380208333333329e-05
945 913 8.1380208333333329e-05
914 914 0.00048828124999999995
915 914 8.1380208333333329e-05
945 914 8.1380208333333329e-05
946 914 8.1380208333333329e-05
915 915 0.00048828124999999995
916 915 8.1380208333333329e-05
946 915 8.1380208333333329e-05
947 915 8.1380208333333329e-05
916 916 0.00048828124999999995
917 916 8.1380208333333329e-05
947 916 8.1380208333333329e-05
948 916 8.1380208333333329e-05
917 917 0.00048828124999999995
918 917 8.1380208333333329e-05
948 917 8.1380208333333329e-05
949 917 8.1380208333333329e-05
918 918 0.00048828124999999995
919 918 8.1380208333333329e-05
949 918 8.1380208333333329e-05
950 918 8.1380208333333329e-05
919 919 0.00048828124999999995
920 919 8.1380208333333329e-05
950 919 8.1380208333333329e-05
951 919 8.1380208333333329e-05
920 920 0.00048828124999999995
921 920 8.1380208333333329e-05
951 920 8.1380208333333329e-05
952 920 8.1380208333333329e-05
921 921 0.00048828124999999995
922 921 8.1380208333333329e-05
952 921 8.1380208333333329e-05
953 921 8.1380208333333329e-05
922 922 0.00048828124999999995
923 922 8.1380208333333329e-05
953 922 8.1380208333333329e-05
954 922 8.1380208333333329e-05
923 923 0.00048828124999999995
924 923 8.1380208333333329e-05
954 923 8.1380208333333329e-05
955 923 8.1380208333333329e-05
924 924 0.00048828124999999995
925 924 8.1380208333333329e-05
955 924 8.1380208333333329e-05
956 924 8.1380208333333329e-05
925 925 0.00048828124999999995
926 925 8.1380208333333329e-05
956 925 8.1380208333333329e-05
957 925 8.1380208333333329e-05
926 926 0.00048828124999999995
927 926 8.1380208333333329e-05
957 926 8.1380208333333329e-05
958 926 8.1380208333333329e-05
927 927 0.00048828124999999995
928 927 8.1380208333333329e-05
958 927 8.1380208333333329e-05
959 927 8.1380208333333329e-05
928 928 0.00048828124999999995
929 928 8.1380208333333329e-05
959 928 8.1380208333333329e-05
960 928 8.1380208333333329e-05
929 929 0.00048828124999999995
930 929 8.1380208333333329e-05
960 929 8.1380208333333329e-05
961 929 8.1380208333333329e-05
930 930 0.00048828124999999995
961 930 8.1380208333333329e-05
931 931 0.00048828124999999995
932 931 8.1380208333333329e-05
932 932 0.00048828124999999995
933 932 8.1380208333333329e-05
933 933 0.00048828124999999995
934 933 8.1380208333333329e-05
934 934 0.00048828124999999995
935 934 8.1380208333333329e-05
935 935 0.00048828124999999995
936 935 8.1380208333333329e-05
936 936 0.00048828124999999995
937 936 8.1380208333333329e-05
937 937 0.00048828124999999995
938 937 8.1380208333333329e-05
938 938 0.00048828124999999995
939 938 8.1380208333333329e-05
939 939 0.00048828124999999995
940 939 8.1380208333333329e-05
940 940 0.00048828124999999995
941 940 8.1380208333333329e-05
941 941 0.00048828124999999995
942 941 8.1380208333333329e-05
942 942 0.00048828124999999995
943 942 8.1380208333333329e-05
943 943 0.00048828124999999995
944 943 8.1380208333333329e-05
944 944 0.00048828124999999995
945 944 8.1380208333333329e-05
945 945 0.00048828124999999995
946 945 8.1380208333333329e-05
946 946 0.00048828124999999995
947 946 8.1380208333333329e-05
947 947 0.00048828124999999995
948 947 8.1380208333333329e-05
948 948 0.00048828124999999995
949 948 8.1380208333333329e-05
949 949 0.00048828124999999995
950 949 8.1380208333333329e-05
950 950 0.00048828124999999995
951 950 8.1380208333333329e-05
951 951 0.00048828124999999995
952 951 8.1380208333333329e-05
952 952 0.00048828124999999995
953 952 8.1380208333333329e-05
953 953 0.00048828124999999995
954 953 8.1380208333333329e-05
954 954 0.00048828124999999995
955 954 8.1380208333333329e-05
955 955 0.00048828124999999995
956 955 8.1380208333333329e-05
956 956 0.00048828124999999995
957 956 8.1380208333333329e-05
957 957 0.00048828124999999995
958 957 8.1380208333333329e-05
958 958 0.00048828124999999995
959 958 8.1380208333333329e-05
959 959 0.00048828124999999995
960 959 8.1380208333333329e-05
960 960 0.00048828124999999995
961 960 8.1380208333333329e-05
961 961 0.00048828124999999995
