%%MatrixMarket matrix coordinate real symmetric
% square_p2_n32 mass M[int,int], mesh=unit_square_32 p=2, interior-restricted
% lower triangle only (row >= col); mirror for the full matrix
3969 3969 24027
1 1 0.00019531249999999998
2 1 1.0850694444444445e-05
32 1 1.0850694444444445e-05
33 1 1.0850694444444445e-05
962 1 1.6276041666666666e-05
963 1 1.6276041666666666e-05
964 1 2.7126736111111112e-06
1025 1 1.6276041666666666e-05
1026 1 2.7126736111111112e-06
1027 1 1.6276041666666666e-05
1028 1 1.6276041666666666e-05
1029 1 1.6276041666666666e-05
1031 1 2.7126736111111112e-06
1122 1 2.7126736111111112e-06
2 2 0.00019531249999999998
3 2 1.0850694444444445e-05
33 2 1.0850694444444445e-05
34 2 1.0850694444444445e-05
963 2 2.7126736111111112e-06
964 2 1.6276041666666666e-05
965 2 1.6276041666666666e-05
966 2 2.7126736111111112e-06
1027 2 1.6276041666666666e-05
1029 2 2.7126736111111112e-06
1030 2 1.6276041666666666e-05
1031 2 1.6276041666666666e-05
1032 2 1.6276041666666666e-05
1034 2 2.7126736111111112e-06
1125 2 2.7126736111111112e-06
3 3 0.00019531249999999998
4 3 1.0850694444444445e-05
34 3 1.0850694444444445e-05
35 3 1.0850694444444445e-05
965 3 2.7126736111111112e-06
966 3 1.6276041666666666e-05
967 3 1.6276041666666666e-05
968 3 2.7126736111111112e-06
1030 3 1.6276041666666666e-05
1032 3 2.7126736111111112e-06
1033 3 1.6276041666666666e-05
1034 3 1.6276041666666666e-05
1035 3 1.6276041666666666e-05
1037 3 2.7126736111111112e-06
1128 3 2.7126736111111112e-06
4 4 0.00019531249999999998
5 4 1.0850694444444445e-05
35 4 1.0850694444444445e-05
36 4 1.0850694444444445e-05
967 4 2.7126736111111112e-06
968 4 1.6276041666666666e-05
969 4 1.6276041666666666e-05
970 4 2.7126736111111112e-06
1033 4 1.6276041666666666e-05
1035 4 2.7126736111111112e-06
1036 4 1.6276041666666666e-05
1037 4 1.6276041666666666e-05
1038 4 1.6276041666666666e-05
1040 4 2.7126736111111112e-06
1131 4 2.7126736111111112e-06
5 5 0.00019531249999999998
6 5 1.0850694444444445e-05
36 5 1.0850694444444445e-05
37 5 1.0850694444444445e-05
969 5 2.7126736111111112e-06
970 5 1.6276041666666666e-05
971 5 1.6276041666666666e-05
972 5 2.7126736111111112e-06
1036 5 1.6276041666666666e-05
1038 5 2.7126736111111112e-06
1039 5 1.6276041666666666e-05
1040 5 1.6276041666666666e-05
1041 5 1.6276041666666666e-05
1043 5 2.7126736111111112e-06
1134 5 2.7126736111111112e-06
6 6 0.00019531249999999998
7 6 1.0850694444444445e-05
37 6 1.0850694444444445e-05
38 6 1.0850694444444445e-05
971 6 2.7126736111111112e-06
972 6 1.6276041666666666e-05
973 6 1.6276041666666666e-05
974 6 2.7126736111111112e-06
1039 6 1.6276041666666666e-05
1041 6 2.7126736111111112e-06
1042 6 1.6276041666666666e-05
1043 6 1.6276041666666666e-05
1044 6 1.6276041666666666e-05
1046 6 2.7126736111111112e-06
1137 6 2.7126736111111112e-06
7 7 0.00019531249999999998
8 7 1.0850694444444445e-05
38 7 1.0850694444444445e-05
39 7 1.0850694444444445e-05
973 7 2.7126736111111112e-06
974 7 1.6276041666666666e-05
975 7 1.6276041666666666e-05
976 7 2.7126736111111112e-06
1042 7 1.6276041666666666e-05
1044 7 2.7126736111111112e-06
1045 7 1.6276041666666666e-05
1046 7 1.6276041666666666e-05
1047 7 1.6276041666666666e-05
1049 7 2.7126736111111112e-06
1140 7 2.7126736111111112e-06
8 8 0.00019531249999999998
9 8 1.0850694444444445e-05
39 8 1.0850694444444445e-05
40 8 1.0850694444444445e-05
975 8 2.7126736111111112e-06
976 8 1.6276041666666666e-05
977 8 1.6276041666666666e-05
978 8 2.7126736111111112e-06
1045 8 1.6276041666666666e-05
1047 8 2.7126736111111112e-06
1048 8 1.6276041666666666e-05
1049 8 1.6276041666666666e-05
1050 8 1.6276041666666666e-05
1052 8 2.7126736111111112e-06
1143 8 2.7126736111111112e-06
9 9 0.00019531249999999998
10 9 1.0850694444444445e-05
40 9 1.0850694444444445e-05
41 9 1.0850694444444445e-05
977 9 2.7126736111111112e-06
978 9 1.6276041666666666e-05
979 9 1.6276041666666666e-05
980 9 2.7126736111111112e-06
1048 9 1.6276041666666666e-05
1050 9 2.7126736111111112e-06
1051 9 1.6276041666666666e-05
1052 9 1.6276041666666666e-05
1053 9 1.6276041666666666e-05
1055 9 2.7126736111111112e-06
1146 9 2.7126736111111112e-06
10 10 0.00019531249999999998
11 10 1.0850694444444445e-05
41 10 1.0850694444444445e-05
42 10 1.0850694444444445e-05
979 10 2.7126736111111112e-06
980 10 1.6276041666666666e-05
981 10 1.6276041666666666e-05
982 10 2.7126736111111112e-06
1051 10 1.6276041666666666e-05
1053 10 2.7126736111111112e-06
1054 10 1.6276041666666666e-05
1055 10 1.6276041666666666e-05
1056 10 1.6276041666666666e-05
1058 10 2.7126736111111112e-06
1149 10 2.7126736111111112e-06
11 11 0.00019531249999999998
12 11 1.0850694444444445e-05
42 11 1.0850694444444445e-05
43 11 1.0850694444444445e-05
981 11 2.7126736111111112e-06
982 11 1.6276041666666666e-05
983 11 1.6276041666666666e-05
984 11 2.7126736111111112e-06
1054 11 1.6276041666666666e-05
1056 11 2.7126736111111112e-06
1057 11 1.6276041666666666e-05
1058 11 1.6276041666666666e-05
1059 11 1.6276041666666666e-05
1061 11 2.7126736111111112e-06
1152 11 2.7126736111111112e-06
12 12 0.00019531249999999998
13 12 1.0850694444444445e-05
43 12 1.0850694444444445e-05
44 12 1.0850694444444445e-05
983 12 2.7126736111111112e-06
984 12 1.6276041666666666e-05
985 12 1.6276041666666666e-05
986 12 2.7126736111111112e-06
1057 12 1.6276041666666666e-05
1059 12 2.7126736111111112e-06
1060 12 1.6276041666666666e-05
1061 12 1.6276041666666666e-05
1062 12 1.6276041666666666e-05
1064 12 2.7126736111111112e-06
1155 12 2.7126736111111112e-06
13 13 0.00019531249999999998
14 13 1.0850694444444445e-05
44 13 1.0850694444444445e-05
45 13 1.0850694444444445e-05
985 13 2.7126736111111112e-06
986 13 1.6276041666666666e-05
987 13 1.6276041666666666e-05
988 13 2.7126736111111112e-06
1060 13 1.6276041666666666e-05
1062 13 2.7126736111111112e-06
1063 13 1.6276041666666666e-05
1064 13 1.6276041666666666e-05
1065 13 1.6276041666666666e-05
1067 13 2.7126736111111112e-06
1158 13 2.7126736111111112e-06
14 14 0.00019531249999999998
15 14 1.0850694444444445e-05
45 14 1.0850694444444445e-05
46 14 1.0850694444444445e-05
987 14 2.7126736111111112e-06
988 14 1.6276041666666666e-05
989 14 1.6276041666666666e-05
990 14 2.7126736111111112e-06
1063 14 1.6276041666666666e-05
1065 14 2.7126736111111112e-06
1066 14 1.6276041666666666e-05
1067 14 1.6276041666666666e-05
1068 14 1.6276041666666666e-05
1070 14 2.7126736111111112e-06
1161 14 2.7126736111111112e-06
15 15 0.00019531249999999998
16 15 1.0850694444444445e-05
46 15 1.0850694444444445e-05
47 15 1.0850694444444445e-05
989 15 2.7126736111111112e-06
990 15 1.6276041666666666e-05
991 15 1.6276041666666666e-05
992 15 2.7126736111111112e-06
1066 15 1.6276041666666666e-05
1068 15 2.7126736111111112e-06
1069 15 1.6276041666666666e-05
1070 15 1.6276041666666666e-05
1071 15 1.6276041666666666e-05
1073 15 2.7126736111111112e-06
1164 15 2.7126736111111112e-06
16 16 0.00019531249999999998
17 16 1.0850694444444445e-05
47 16 1.0850694444444445e-05
48 16 1.0850694444444445e-05
991 16 2.7126736111111112e-06
992 16 1.6276041666666666e-05
993 16 1.6276041666666666e-05
994 16 2.7126736111111112e-06
1069 16 1.6276041666666666e-05
1071 16 2.7126736111111112e-06
1072 16 1.6276041666666666e-05
1073 16 1.6276041666666666e-05
1074 16 1.6276041666666666e-05
1076 16 2.7126736111111112e-06
1167 16 2.7126736111111112e-06
17 17 0.00019531249999999998
18 17 1.0850694444444445e-05
48 17 1.0850694444444445e-05
49 17 1.0850694444444445e-05
993 17 2.7126736111111112e-06
994 17 1.6276041666666666e-05
995 17 1.6276041666666666e-05
996 17 2.7126736111111112e-06
1072 17 1.6276041666666666e-05
1074 17 2.7126736111111112e-06
1075 17 1.6276041666666666e-05
1076 17 1.6276041666666666e-05
1077 17 1.6276041666666666e-05
1079 17 2.7126736111111112e-06
1170 17 2.7126736111111112e-06
18 18 0.00019531249999999998
19 18 1.0850694444444445e-05
49 18 1.0850694444444445e-05
50 18 1.0850694444444445e-05
995 18 2.7126736111111112e-06
996 18 1.6276041666666666e-05
997 18 1.6276041666666666e-05
998 18 2.7126736111111112e-06
1075 18 1.6276041666666666e-05
1077 18 2.7126736111111112e-06
1078 18 1.6276041666666666e-05
1079 18 1.6276041666666666e-05
1080 18 1.6276041666666666e-05
1082 18 2.7126736111111112e-06
1173 18 2.7126736111111112e-06
19 19 0.00019531249999999998
20 19 1.0850694444444445e-05
50 19 1.0850694444444445e-05
51 19 1.0850694444444445e-05
997 19 2.7126736111111112e-06
998 19 1.6276041666666666e-05
999 19 1.6276041666666666e-05
1000 19 2.7126736111111112e-06
1078 19 1.6276041666666666e-05
1080 19 2.7126736111111112e-06
1081 19 1.6276041666666666e-05
1082 19 1.6276041666666666e-05
1083 19 1.6276041666666666e-05
1085 19 2.7126736111111112e-06
1176 19 2.7126736111111112e-06
20 20 0.00019531249999999998
21 20 1.0850694444444445e-05
51 20 1.0850694444444445e-05
52 20 1.0850694444444445e-05
999 20 2.7126736111111112e-06
1000 20 1.6276041666666666e-05
1001 20 1.6276041666666666e-05
1002 20 2.7126736111111112e-06
1081 20 1.6276041666666666e-05
1083 20 2.7126736111111112e-06
1084 20 1.6276041666666666e-05
1085 20 1.6276041666666666e-05
1086 20 1.6276041666666666e-05
1088 20 2.7126736111111112e-06
1179 20 2.7126736111111112e-06
21 21 0.00019531249999999998
22 21 1.0850694444444445e-05
52 21 1.0850694444444445e-05
53 21 1.0850694444444445e-05
1001 21 2.7126736111111112e-06
1002 21 1.6276041666666666e-05
1003 21 1.6276041666666666e-05
1004 21 2.7126736111111112e-06
1084 21 1.6276041666666666e-05
1086 21 2.7126736111111112e-06
1087 21 1.6276041666666666e-05
1088 21 1.6276041666666666e-05
1089 21 1.6276041666666666e-05
1091 21 2.7126736111111112e-06
1182 21 2.7126736111111112e-06
22 22 0.00019531249999999998
23 22 1.0850694444444445e-05
53 22 1.0850694444444445e-05
54 22 1.0850694444444445e-05
1003 22 2.7126736111111112e-06
1004 22 1.6276041666666666e-05
1005 22 1.6276041666666666e-05
1006 22 2.7126736111111112e-06
1087 22 1.6276041666666666e-05
1089 22 2.7126736111111112e-06
1090 22 1.6276041666666666e-05
1091 22 1.6276041666666666e-05
1092 22 1.6276041666666666e-05
1094 22 2.7126736111111112e-06
1185 22 2.7126736111111112e-06
23 23 0.00019531249999999998
24 23 1.0850694444444445e-05
54 23 1.0850694444444445e-05
55 23 1.0850694444444445e-05
1005 23 2.7126736111111112e-06
1006 23 1.6276041666666666e-05
1007 23 1.6276041666666666e-05
1008 23 2.7126736111111112e-06
1090 23 1.6276041666666666e-05
1092 23 2.7126736111111112e-06
1093 23 1.6276041666666666e-05
1094 23 1.6276041666666666e-05
1095 23 1.6276041666666666e-05
1097 23 2.7126736111111112e-06
1188 23 2.7126736111111112e-06
24 24 0.00019531249999999998
25 24 1.0850694444444445e-05
55 24 1.0850694444444445e-05
56 24 1.0850694444444445e-05
1007 24 2.7126736111111112e-06
1008 24 1.6276041666666666e-05
1009 24 1.6276041666666666e-05
1010 24 2.7126736111111112e-06
1093 24 1.6276041666666666e-05
1095 24 2.7126736111111112e-06
1096 24 1.6276041666666666e-05
1097 24 1.6276041666666666e-05
1098 24 1.6276041666666666e-05
1100 24 2.7126736111111112e-06
1191 24 2.7126736111111112e-06
25 25 0.00019531249999999998
26 25 1.0850694444444445e-05
56 25 1.0850694444444445e-05
57 25 1.0850694444444445e-05
1009 25 2.7126736111111112e-06
1010 25 1.6276041666666666e-05
1011 25 1.6276041666666666e-05
1012 25 2.7126736111111112e-06
1096 25 1.6276041666666666e-05
1098 25 2.7126736111111112e-06
1099 25 1.6276041666666666e-05
1100 25 1.6276041666666666e-05
1101 25 1.6276041666666666e-05
1103 25 2.7126736111111112e-06
1194 25 2.7126736111111112e-06
26 26 0.00019531249999999998
27 26 1.0850694444444445e-05
57 26 1.0850694444444445e-05
58 26 1.0850694444444445e-05
1011 26 2.7126736111111112e-06
1012 26 1.6276041666666666e-05
1013 26 1.6276041666666666e-05
1014 26 2.7126736111111112e-06
1099 26 1.6276041666666666e-05
1101 26 2.7126736111111112e-06
1102 26 1.6276041666666666e-05
1103 26 1.6276041666666666e-05
1104 26 1.6276041666666666e-05
1106 26 2.7126736111111112e-06
1197 26 2.7126736111111112e-06
27 27 0.00019531249999999998
28 27 1.0850694444444445e-05
58 27 1.0850694444444445e-05
59 27 1.0850694444444445e-05
1013 27 2.7126736111111112e-06
1014 27 1.6276041666666666e-05
1015 27 1.6276041666666666e-05
1016 27 2.7126736111111112e-06
1102 27 1.6276041666666666e-05
1104 27 2.7126736111111112e-06
1105 27 1.6276041666666666e-05
1106 27 1.6276041666666666e-05
1107 27 1.6276041666666666e-05
1109 27 2.7126736111111112e-06
1200 27 2.7126736111111112e-06
28 28 0.00019531249999999998
29 28 1.0850694444444445e-05
59 28 1.0850694444444445e-05
60 28 1.0850694444444445e-05
1015 28 2.7126736111111112e-06
1016 28 1.6276041666666666e-05
1017 28 1.6276041666666666e-05
1018 28 2.7126736111111112e-06
1105 28 1.6276041666666666e-05
1107 28 2.7126736111111112e-06
1108 28 1.6276041666666666e-05
1109 28 1.6276041666666666e-05
1110 28 1.6276041666666666e-05
1112 28 2.7126736111111112e-06
1203 28 2.7126736111111112e-06
29 29 0.00019531249999999998
30 29 1.0850694444444445e-05
60 29 1.0850694444444445e-05
61 29 1.0850694444444445e-05
1017 29 2.7126736111111112e-06
1018 29 1.6276041666666666e-05
1019 29 1.6276041666666666e-05
1020 29 2.7126736111111112e-06
1108 29 1.6276041666666666e-05
1110 29 2.7126736111111112e-06
1111 29 1.6276041666666666e-05
1112 29 1.6276041666666666e-05
1113 29 1.6276041666666666e-05
1115 29 2.7126736111111112e-06
1206 29 2.7126736111111112e-06
30 30 0.00019531249999999998
31 30 1.0850694444444445e-05
61 30 1.0850694444444445e-05
62 30 1.0850694444444445e-05
1019 30 2.7126736111111112e-06
1020 30 1.6276041666666666e-05
1021 30 1.6276041666666666e-05
1022 30 2.7126736111111112e-06
1111 30 1.6276041666666666e-05
1113 30 2.7126736111111112e-06
1114 30 1.6276041666666666e-05
1115 30 1.6276041666666666e-05
1116 30 1.6276041666666666e-05
1118 30 2.7126736111111112e-06
1209 30 2.7126736111111112e-06
31 31 0.00019531249999999998
62 31 1.0850694444444445e-05
1021 31 2.7126736111111112e-06
1022 31 1.6276041666666666e-05
1023 31 1.6276041666666666e-05
1024 31 2.7126736111111112e-06
1114 31 1.6276041666666666e-05
1116 31 2.7126736111111112e-06
1117 31 1.6276041666666666e-05
1118 31 1.6276041666666666e-05
1119 31 1.6276041666666666e-05
1212 31 2.7126736111111112e-06
32 32 0.00019531249999999998
33 32 1.0850694444444445e-05
63 32 1.0850694444444445e-05
64 32 1.0850694444444445e-05
1025 32 2.7126736111111112e-06
1026 32 1.6276041666666666e-05
1028 32 1.6276041666666666e-05
1029 32 2.7126736111111112e-06
1120 32 1.6276041666666666e-05
1121 32 2.7126736111111112e-06
1122 32 1.6276041666666666e-05
1123 32 1.6276041666666666e-05
1124 32 1.6276041666666666e-05
1126 32 2.7126736111111112e-06
1217 32 2.7126736111111112e-06
33 33 0.00019531249999999998
34 33 1.0850694444444445e-05
64 33 1.0850694444444445e-05
65 33 1.0850694444444445e-05
1027 33 2.7126736111111112e-06
1028 33 2.7126736111111112e-06
1029 33 1.6276041666666666e-05
1031 33 1.6276041666666666e-05
1032 33 2.7126736111111112e-06
1122 33 1.6276041666666666e-05
1124 33 2.7126736111111112e-06
1125 33 1.6276041666666666e-05
1126 33 1.6276041666666666e-05
1127 33 1.6276041666666666e-05
1129 33 2.7126736111111112e-06
1220 33 2.7126736111111112e-06
34 34 0.00019531249999999998
35 34 1.0850694444444445e-05
65 34 1.0850694444444445e-05
66 34 1.0850694444444445e-05
1030 34 2.7126736111111112e-06
1031 34 2.7126736111111112e-06
1032 34 1.6276041666666666e-05
1034 34 1.6276041666666666e-05
1035 34 2.7126736111111112e-06
1125 34 1.6276041666666666e-05
1127 34 2.7126736111111112e-06
1128 34 1.6276041666666666e-05
1129 34 1.6276041666666666e-05
1130 34 1.6276041666666666e-05
1132 34 2.7126736111111112e-06
1223 34 2.7126736111111112e-06
35 35 0.00019531249999999998
36 35 1.0850694444444445e-05
66 35 1.0850694444444445e-05
67 35 1.0850694444444445e-05
1033 35 2.7126736111111112e-06
1034 35 2.7126736111111112e-06
1035 35 1.6276041666666666e-05
1037 35 1.6276041666666666e-05
1038 35 2.7126736111111112e-06
1128 35 1.6276041666666666e-05
1130 35 2.7126736111111112e-06
1131 35 1.6276041666666666e-05
1132 35 1.6276041666666666e-05
1133 35 1.6276041666666666e-05
1135 35 2.7126736111111112e-06
1226 35 2.7126736111111112e-06
36 36 0.00019531249999999998
37 36 1.0850694444444445e-05
67 36 1.0850694444444445e-05
68 36 1.0850694444444445e-05
1036 36 2.7126736111111112e-06
1037 36 2.7126736111111112e-06
1038 36 1.6276041666666666e-05
1040 36 1.6276041666666666e-05
1041 36 2.7126736111111112e-06
1131 36 1.6276041666666666e-05
1133 36 2.7126736111111112e-06
1134 36 1.6276041666666666e-05
1135 36 1.6276041666666666e-05
1136 36 1.6276041666666666e-05
1138 36 2.7126736111111112e-06
1229 36 2.7126736111111112e-06
37 37 0.00019531249999999998
38 37 1.0850694444444445e-05
68 37 1.0850694444444445e-05
69 37 1.0850694444444445e-05
1039 37 2.7126736111111112e-06
1040 37 2.7126736111111112e-06
1041 37 1.6276041666666666e-05
1043 37 1.6276041666666666e-05
1044 37 2.7126736111111112e-06
1134 37 1.6276041666666666e-05
1136 37 2.7126736111111112e-06
1137 37 1.6276041666666666e-05
1138 37 1.6276041666666666e-05
1139 37 1.6276041666666666e-05
1141 37 2.7126736111111112e-06
1232 37 2.7126736111111112e-06
38 38 0.00019531249999999998
39 38 1.0850694444444445e-05
69 38 1.0850694444444445e-05
70 38 1.0850694444444445e-05
1042 38 2.7126736111111112e-06
1043 38 2.7126736111111112e-06
1044 38 1.6276041666666666e-05
1046 38 1.6276041666666666e-05
1047 38 2.7126736111111112e-06
1137 38 1.6276041666666666e-05
1139 38 2.7126736111111112e-06
1140 38 1.6276041666666666e-05
1141 38 1.6276041666666666e-05
1142 38 1.6276041666666666e-05
1144 38 2.7126736111111112e-06
1235 38 2.7126736111111112e-06
39 39 0.00019531249999999998
40 39 1.0850694444444445e-05
70 39 1.0850694444444445e-05
71 39 1.0850694444444445e-05
1045 39 2.7126736111111112e-06
1046 39 2.7126736111111112e-06
1047 39 1.6276041666666666e-05
1049 39 1.6276041666666666e-05
1050 39 2.7126736111111112e-06
1140 39 1.6276041666666666e-05
1142 39 2.7126736111111112e-06
1143 39 1.6276041666666666e-05
1144 39 1.6276041666666666e-05
1145 39 1.6276041666666666e-05
1147 39 2.7126736111111112e-06
1238 39 2.7126736111111112e-06
40 40 0.00019531249999999998
41 40 1.0850694444444445e-05
71 40 1.0850694444444445e-05
72 40 1.0850694444444445e-05
1048 40 2.7126736111111112e-06
1049 40 2.7126736111111112e-06
1050 40 1.6276041666666666e-05
1052 40 1.6276041666666666e-05
1053 40 2.7126736111111112e-06
1143 40 1.6276041666666666e-05
1145 40 2.7126736111111112e-06
1146 40 1.6276041666666666e-05
1147 40 1.6276041666666666e-05
1148 40 1.6276041666666666e-05
1150 40 2.7126736111111112e-06
1241 40 2.7126736111111112e-06
41 41 0.00019531249999999998
42 41 1.0850694444444445e-05
72 41 1.0850694444444445e-05
73 41 1.0850694444444445e-05
1051 41 2.7126736111111112e-06
1052 41 2.7126736111111112e-06
1053 41 1.6276041666666666e-05
1055 41 1.6276041666666666e-05
1056 41 2.7126736111111112e-06
1146 41 1.6276041666666666e-05
1148 41 2.7126736111111112e-06
1149 41 1.6276041666666666e-05
1150 41 1.6276041666666666e-05
1151 41 1.6276041666666666e-05
1153 41 2.7126736111111112e-06
1244 41 2.7126736111111112e-06
42 42 0.00019531249999999998
43 42 1.0850694444444445e-05
73 42 1.0850694444444445e-05
74 42 1.0850694444444445e-05
1054 42 2.7126736111111112e-06
1055 42 2.7126736111111112e-06
1056 42 1.6276041666666666e-05
1058 42 1.6276041666666666e-05
1059 42 2.7126736111111112e-06
1149 42 1.6276041666666666e-05
1151 42 2.7126736111111112e-06
1152 42 1.6276041666666666e-05
1153 42 1.6276041666666666e-05
1154 42 1.6276041666666666e-05
1156 42 2.7126736111111112e-06
1247 42 2.7126736111111112e-06
43 43 0.00019531249999999998
44 43 1.0850694444444445e-05
74 43 1.0850694444444445e-05
75 43 1.0850694444444445e-05
1057 43 2.7126736111111112e-06
1058 43 2.7126736111111112e-06
1059 43 1.6276041666666666e-05
1061 43 1.6276041666666666e-05
1062 43 2.7126736111111112e-06
1152 43 1.6276041666666666e-05
1154 43 2.7126736111111112e-06
1155 43 1.6276041666666666e-05
1156 43 1.6276041666666666e-05
1157 43 1.6276041666666666e-05
1159 43 2.7126736111111112e-06
1250 43 2.7126736111111112e-06
44 44 0.00019531249999999998
45 44 1.0850694444444445e-05
75 44 1.0850694444444445e-05
76 44 1.0850694444444445e-05
1060 44 2.7126736111111112e-06
1061 44 2.7126736111111112e-06
1062 44 1.6276041666666666e-05
1064 44 1.6276041666666666e-05
1065 44 2.7126736111111112e-06
1155 44 1.6276041666666666e-05
1157 44 2.7126736111111112e-06
1158 44 1.6276041666666666e-05
1159 44 1.6276041666666666e-05
1160 44 1.6276041666666666e-05
1162 44 2.7126736111111112e-06
1253 44 2.7126736111111112e-06
45 45 0.00019531249999999998
46 45 1.0850694444444445e-05
76 45 1.0850694444444445e-05
77 45 1.0850694444444445e-05
1063 45 2.7126736111111112e-06
1064 45 2.7126736111111112e-06
1065 45 1.6276041666666666e-05
1067 45 1.6276041666666666e-05
1068 45 2.7126736111111112e-06
1158 45 1.6276041666666666e-05
1160 45 2.7126736111111112e-06
1161 45 1.6276041666666666e-05
1162 45 1.6276041666666666e-05
1163 45 1.6276041666666666e-05
1165 45 2.7126736111111112e-06
1256 45 2.7126736111111112e-06
46 46 0.00019531249999999998
47 46 1.0850694444444445e-05
77 46 1.0850694444444445e-05
78 46 1.0850694444444445e-05
1066 46 2.7126736111111112e-06
1067 46 2.7126736111111112e-06
1068 46 1.6276041666666666e-05
1070 46 1.6276041666666666e-05
1071 46 2.7126736111111112e-06
1161 46 1.6276041666666666e-05
1163 46 2.7126736111111112e-06
1164 46 1.6276041666666666e-05
1165 46 1.6276041666666666e-05
1166 46 1.6276041666666666e-05
1168 46 2.7126736111111112e-06
1259 46 2.7126736111111112e-06
47 47 0.00019531249999999998
48 47 1.0850694444444445e-05
78 47 1.0850694444444445e-05
79 47 1.0850694444444445e-05
1069 47 2.7126736111111112e-06
1070 47 2.7126736111111112e-06
1071 47 1.6276041666666666e-05
1073 47 1.6276041666666666e-05
1074 47 2.7126736111111112e-06
1164 47 1.6276041666666666e-05
1166 47 2.7126736111111112e-06
1167 47 1.6276041666666666e-05
1168 47 1.6276041666666666e-05
1169 47 1.6276041666666666e-05
1171 47 2.7126736111111112e-06
1262 47 2.7126736111111112e-06
48 48 0.00019531249999999998
49 48 1.0850694444444445e-05
79 48 1.0850694444444445e-05
80 48 1.0850694444444445e-05
1072 48 2.7126736111111112e-06
1073 48 2.7126736111111112e-06
1074 48 1.6276041666666666e-05
1076 48 1.6276041666666666e-05
1077 48 2.7126736111111112e-06
1167 48 1.6276041666666666e-05
1169 48 2.7126736111111112e-06
1170 48 1.6276041666666666e-05
1171 48 1.6276041666666666e-05
1172 48 1.6276041666666666e-05
1174 48 2.7126736111111112e-06
1265 48 2.7126736111111112e-06
49 49 0.00019531249999999998
50 49 1.0850694444444445e-05
80 49 1.0850694444444445e-05
81 49 1.0850694444444445e-05
1075 49 2.7126736111111112e-06
1076 49 2.7126736111111112e-06
1077 49 1.6276041666666666e-05
1079 49 1.6276041666666666e-05
1080 49 2.7126736111111112e-06
1170 49 1.6276041666666666e-05
1172 49 2.7126736111111112e-06
1173 49 1.6276041666666666e-05
1174 49 1.6276041666666666e-05
1175 49 1.6276041666666666e-05
1177 49 2.7126736111111112e-06
1268 49 2.7126736111111112e-06
50 50 0.00019531249999999998
51 50 1.0850694444444445e-05
81 50 1.0850694444444445e-05
82 50 1.0850694444444445e-05
1078 50 2.7126736111111112e-06
1079 50 2.7126736111111112e-06
1080 50 1.6276041666666666e-05
1082 50 1.6276041666666666e-05
1083 50 2.7126736111111112e-06
1173 50 1.6276041666666666e-05
1175 50 2.7126736111111112e-06
1176 50 1.6276041666666666e-05
1177 50 1.6276041666666666e-05
1178 50 1.6276041666666666e-05
1180 50 2.7126736111111112e-06
1271 50 2.7126736111111112e-06
51 51 0.00019531249999999998
52 51 1.0850694444444445e-05
82 51 1.0850694444444445e-05
83 51 1.0850694444444445e-05
1081 51 2.7126736111111112e-06
1082 51 2.7126736111111112e-06
1083 51 1.6276041666666666e-05
1085 51 1.6276041666666666e-05
1086 51 2.7126736111111112e-06
1176 51 1.6276041666666666e-05
1178 51 2.7126736111111112e-06
1179 51 1.6276041666666666e-05
1180 51 1.6276041666666666e-05
1181 51 1.6276041666666666e-05
1183 51 2.7126736111111112e-06
1274 51 2.7126736111111112e-06
52 52 0.00019531249999999998
53 52 1.0850694444444445e-05
83 52 1.0850694444444445e-05
84 52 1.0850694444444445e-05
1084 52 2.7126736111111112e-06
1085 52 2.7126736111111112e-06
1086 52 1.6276041666666666e-05
1088 52 1.6276041666666666e-05
1089 52 2.7126736111111112e-06
1179 52 1.6276041666666666e-05
1181 52 2.7126736111111112e-06
1182 52 1.6276041666666666e-05
1183 52 1.6276041666666666e-05
1184 52 1.6276041666666666e-05
1186 52 2.7126736111111112e-06
1277 52 2.7126736111111112e-06
53 53 0.00019531249999999998
54 53 1.0850694444444445e-05
84 53 1.0850694444444445e-05
85 53 1.0850694444444445e-05
1087 53 2.7126736111111112e-06
1088 53 2.7126736111111112e-06
1089 53 1.6276041666666666e-05
1091 53 1.6276041666666666e-05
1092 53 2.7126736111111112e-06
1182 53 1.6276041666666666e-05
1184 53 2.7126736111111112e-06
1185 53 1.6276041666666666e-05
1186 53 1.6276041666666666e-05
1187 53 1.6276041666666666e-05
1189 53 2.7126736111111112e-06
1280 53 2.7126736111111112e-06
54 54 0.00019531249999999998
55 54 1.0850694444444445e-05
85 54 1.0850694444444445e-05
86 54 1.0850694444444445e-05
1090 54 2.7126736111111112e-06
1091 54 2.7126736111111112e-06
1092 54 1.6276041666666666e-05
1094 54 1.6276041666666666e-05
1095 54 2.7126736111111112e-06
1185 54 1.6276041666666666e-05
1187 54 2.7126736111111112e-06
1188 54 1.6276041666666666e-05
1189 54 1.6276041666666666e-05
1190 54 1.6276041666666666e-05
1192 54 2.7126736111111112e-06
1283 54 2.7126736111111112e-06
55 55 0.00019531249999999998
56 55 1.0850694444444445e-05
86 55 1.0850694444444445e-05
87 55 1.0850694444444445e-05
1093 55 2.7126736111111112e-06
1094 55 2.7126736111111112e-06
1095 55 1.6276041666666666e-05
1097 55 1.6276041666666666e-05
1098 55 2.7126736111111112e-06
1188 55 1.6276041666666666e-05
1190 55 2.7126736111111112e-06
1191 55 1.6276041666666666e-05
1192 55 1.6276041666666666e-05
1193 55 1.6276041666666666e-05
1195 55 2.7126736111111112e-06
1286 55 2.7126736111111112e-06
56 56 0.00019531249999999998
57 56 1.0850694444444445e-05
87 56 1.0850694444444445e-05
88 56 1.0850694444444445e-05
1096 56 2.7126736111111112e-06
1097 56 2.7126736111111112e-06
1098 56 1.6276041666666666e-05
1100 56 1.6276041666666666e-05
1101 56 2.7126736111111112e-06
1191 56 1.6276041666666666e-05
1193 56 2.7126736111111112e-06
1194 56 1.6276041666666666e-05
1195 56 1.6276041666666666e-05
1196 56 1.6276041666666666e-05
1198 56 2.7126736111111112e-06
1289 56 2.7126736111111112e-06
57 57 0.00019531249999999998
58 57 1.0850694444444445e-05
88 57 1.0850694444444445e-05
89 57 1.0850694444444445e-05
1099 57 2.7126736111111112e-06
1100 57 2.7126736111111112e-06
1101 57 1.6276041666666666e-05
1103 57 1.6276041666666666e-05
1104 57 2.7126736111111112e-06
1194 57 1.6276041666666666e-05
1196 57 2.7126736111111112e-06
1197 57 1.6276041666666666e-05
1198 57 1.6276041666666666e-05
1199 57 1.6276041666666666e-05
1201 57 2.7126736111111112e-06
1292 57 2.7126736111111112e-06
58 58 0.00019531249999999998
59 58 1.0850694444444445e-05
89 58 1.0850694444444445e-05
90 58 1.0850694444444445e-05
1102 58 2.7126736111111112e-06
1103 58 2.7126736111111112e-06
1104 58 1.6276041666666666e-05
1106 58 1.6276041666666666e-05
1107 58 2.7126736111111112e-06
1197 58 1.6276041666666666e-05
1199 58 2.7126736111111112e-06
1200 58 1.6276041666666666e-05
1201 58 1.6276041666666666e-05
1202 58 1.6276041666666666e-05
1204 58 2.7126736111111112e-06
1295 58 2.7126736111111112e-06
59 59 0.00019531249999999998
60 59 1.0850694444444445e-05
90 59 1.0850694444444445e-05
91 59 1.0850694444444445e-05
1105 59 2.7126736111111112e-06
1106 59 2.7126736111111112e-06
1107 59 1.6276041666666666e-05
1109 59 1.6276041666666666e-05
1110 59 2.7126736111111112e-06
1200 59 1.6276041666666666e-05
1202 59 2.7126736111111112e-06
1203 59 1.6276041666666666e-05
1204 59 1.6276041666666666e-05
1205 59 1.6276041666666666e-05
1207 59 2.7126736111111112e-06
1298 59 2.7126736111111112e-06
60 60 0.00019531249999999998
61 60 1.0850694444444445e-05
91 60 1.0850694444444445e-05
92 60 1.0850694444444445e-05
1108 60 2.7126736111111112e-06
1109 60 2.7126736111111112e-06
1110 60 1.6276041666666666e-05
1112 60 1.6276041666666666e-05
1113 60 2.7126736111111112e-06
1203 60 1.6276041666666666e-05
1205 60 2.7126736111111112e-06
1206 60 1.6276041666666666e-05
1207 60 1.6276041666666666e-05
1208 60 1.6276041666666666e-05
1210 60 2.7126736111111112e-06
1301 60 2.7126736111111112e-06
61 61 0.00019531249999999998
62 61 1.0850694444444445e-05
92 61 1.0850694444444445e-05
93 61 1.0850694444444445e-05
1111 61 2.7126736111111112e-06
1112 61 2.7126736111111112e-06
1113 61 1.6276041666666666e-05
1115 61 1.6276041666666666e-05
1116 61 2.7126736111111112e-06
1206 61 1.6276041666666666e-05
1208 61 2.7126736111111112e-06
1209 61 1.6276041666666666e-05
1210 61 1.6276041666666666e-05
1211 61 1.6276041666666666e-05
1213 61 2.7126736111111112e-06
1304 61 2.7126736111111112e-06
62 62 0.00019531249999999998
93 62 1.0850694444444445e-05
1114 62 2.7126736111111112e-06
1115 62 2.7126736111111112e-06
1116 62 1.6276041666666666e-05
1118 62 1.6276041666666666e-05
1119 62 2.7126736111111112e-06
1209 62 1.6276041666666666e-05
1211 62 2.7126736111111112e-06
1212 62 1.6276041666666666e-05
1213 62 1.6276041666666666e-05
1214 62 1.6276041666666666e-05
1307 62 2.7126736111111112e-06
63 63 0.00019531249999999998
64 63 1.0850694444444445e-05
94 63 1.0850694444444445e-05
95 63 1.0850694444444445e-05
1120 63 2.7126736111111112e-06
1121 63 1.6276041666666666e-05
1123 63 1.6276041666666666e-05
1124 63 2.7126736111111112e-06
1215 63 1.6276041666666666e-05
1216 63 2.7126736111111112e-06
1217 63 1.6276041666666666e-05
1218 63 1.6276041666666666e-05
1219 63 1.6276041666666666e-05
1221 63 2.7126736111111112e-06
1312 63 2.7126736111111112e-06
64 64 0.00019531249999999998
65 64 1.0850694444444445e-05
95 64 1.0850694444444445e-05
96 64 1.0850694444444445e-05
1122 64 2.7126736111111112e-06
1123 64 2.7126736111111112e-06
1124 64 1.6276041666666666e-05
1126 64 1.6276041666666666e-05
1127 64 2.7126736111111112e-06
1217 64 1.6276041666666666e-05
1219 64 2.7126736111111112e-06
1220 64 1.6276041666666666e-05
1221 64 1.6276041666666666e-05
1222 64 1.6276041666666666e-05
1224 64 2.7126736111111112e-06
1315 64 2.7126736111111112e-06
65 65 0.00019531249999999998
66 65 1.0850694444444445e-05
96 65 1.0850694444444445e-05
97 65 1.0850694444444445e-05
1125 65 2.7126736111111112e-06
1126 65 2.7126736111111112e-06
1127 65 1.6276041666666666e-05
1129 65 1.6276041666666666e-05
1130 65 2.7126736111111112e-06
1220 65 1.6276041666666666e-05
1222 65 2.7126736111111112e-06
1223 65 1.6276041666666666e-05
1224 65 1.6276041666666666e-05
1225 65 1.6276041666666666e-05
1227 65 2.7126736111111112e-06
1318 65 2.7126736111111112e-06
66 66 0.00019531249999999998
67 66 1.0850694444444445e-05
97 66 1.0850694444444445e-05
98 66 1.0850694444444445e-05
1128 66 2.7126736111111112e-06
1129 66 2.7126736111111112e-06
1130 66 1.6276041666666666e-05
1132 66 1.6276041666666666e-05
1133 66 2.7126736111111112e-06
1223 66 1.6276041666666666e-05
1225 66 2.7126736111111112e-06
1226 66 1.6276041666666666e-05
1227 66 1.6276041666666666e-05
1228 66 1.6276041666666666e-05
1230 66 2.7126736111111112e-06
1321 66 2.7126736111111112e-06
67 67 0.00019531249999999998
68 67 1.0850694444444445e-05
98 67 1.0850694444444445e-05
99 67 1.0850694444444445e-05
1131 67 2.7126736111111112e-06
1132 67 2.7126736111111112e-06
1133 67 1.6276041666666666e-05
1135 67 1.6276041666666666e-05
1136 67 2.7126736111111112e-06
1226 67 1.6276041666666666e-05
1228 67 2.7126736111111112e-06
1229 67 1.6276041666666666e-05
1230 67 1.6276041666666666e-05
1231 67 1.6276041666666666e-05
1233 67 2.7126736111111112e-06
1324 67 2.7126736111111112e-06
68 68 0.00019531249999999998
69 68 1.0850694444444445e-05
99 68 1.0850694444444445e-05
100 68 1.0850694444444445e-05
1134 68 2.7126736111111112e-06
1135 68 2.7126736111111112e-06
1136 68 1.6276041666666666e-05
1138 68 1.6276041666666666e-05
1139 68 2.7126736111111112e-06
1229 68 1.6276041666666666e-05
1231 68 2.7126736111111112e-06
1232 68 1.6276041666666666e-05
1233 68 1.6276041666666666e-05
1234 68 1.6276041666666666e-05
1236 68 2.7126736111111112e-06
1327 68 2.7126736111111112e-06
69 69 0.00019531249999999998
70 69 1.0850694444444445e-05
100 69 1.0850694444444445e-05
101 69 1.0850694444444445e-05
1137 69 2.7126736111111112e-06
1138 69 2.7126736111111112e-06
1139 69 1.6276041666666666e-05
1141 69 1.6276041666666666e-05
1142 69 2.7126736111111112e-06
1232 69 1.6276041666666666e-05
1234 69 2.7126736111111112e-06
1235 69 1.6276041666666666e-05
1236 69 1.6276041666666666e-05
1237 69 1.6276041666666666e-05
1239 69 2.7126736111111112e-06
1330 69 2.7126736111111112e-06
70 70 0.00019531249999999998
71 70 1.0850694444444445e-05
101 70 1.0850694444444445e-05
102 70 1.0850694444444445e-05
1140 70 2.7126736111111112e-06
1141 70 2.7126736111111112e-06
1142 70 1.6276041666666666e-05
1144 70 1.6276041666666666e-05
1145 70 2.7126736111111112e-06
1235 70 1.6276041666666666e-05
1237 70 2.7126736111111112e-06
1238 70 1.6276041666666666e-05
1239 70 1.6276041666666666e-05
1240 70 1.6276041666666666e-05
1242 70 2.7126736111111112e-06
1333 70 2.7126736111111112e-06
71 71 0.00019531249999999998
72 71 1.0850694444444445e-05
102 71 1.0850694444444445e-05
103 71 1.0850694444444445e-05
1143 71 2.7126736111111112e-06
1144 71 2.7126736111111112e-06
1145 71 1.6276041666666666e-05
1147 71 1.6276041666666666e-05
1148 71 2.7126736111111112e-06
1238 71 1.6276041666666666e-05
1240 71 2.7126736111111112e-06
1241 71 1.6276041666666666e-05
1242 71 1.6276041666666666e-05
1243 71 1.6276041666666666e-05
1245 71 2.7126736111111112e-06
1336 71 2.7126736111111112e-06
72 72 0.00019531249999999998
73 72 1.0850694444444445e-05
103 72 1.0850694444444445e-05
104 72 1.0850694444444445e-05
1146 72 2.7126736111111112e-06
1147 72 2.7126736111111112e-06
1148 72 1.6276041666666666e-05
1150 72 1.6276041666666666e-05
1151 72 2.7126736111111112e-06
1241 72 1.6276041666666666e-05
1243 72 2.7126736111111112e-06
1244 72 1.6276041666666666e-05
1245 72 1.6276041666666666e-05
1246 72 1.6276041666666666e-05
1248 72 2.7126736111111112e-06
1339 72 2.7126736111111112e-06
73 73 0.00019531249999999998
74 73 1.0850694444444445e-05
104 73 1.0850694444444445e-05
105 73 1.0850694444444445e-05
1149 73 2.7126736111111112e-06
1150 73 2.7126736111111112e-06
1151 73 1.6276041666666666e-05
1153 73 1.6276041666666666e-05
1154 73 2.7126736111111112e-06
1244 73 1.6276041666666666e-05
1246 73 2.7126736111111112e-06
1247 73 1.6276041666666666e-05
1248 73 1.6276041666666666e-05
1249 73 1.6276041666666666e-05
1251 73 2.7126736111111112e-06
1342 73 2.7126736111111112e-06
74 74 0.00019531249999999998
75 74 1.0850694444444445e-05
105 74 1.0850694444444445e-05
106 74 1.0850694444444445e-05
1152 74 2.7126736111111112e-06
1153 74 2.7126736111111112e-06
1154 74 1.6276041666666666e-05
1156 74 1.6276041666666666e-05
1157 74 2.7126736111111112e-06
1247 74 1.6276041666666666e-05
1249 74 2.7126736111111112e-06
1250 74 1.6276041666666666e-05
1251 74 1.6276041666666666e-05
1252 74 1.6276041666666666e-05
1254 74 2.7126736111111112e-06
1345 74 2.7126736111111112e-06
75 75 0.00019531249999999998
76 75 1.0850694444444445e-05
106 75 1.0850694444444445e-05
107 75 1.0850694444444445e-05
1155 75 2.7126736111111112e-06
1156 75 2.7126736111111112e-06
1157 75 1.6276041666666666e-05
1159 75 1.6276041666666666e-05
1160 75 2.7126736111111112e-06
1250 75 1.6276041666666666e-05
1252 75 2.7126736111111112e-06
1253 75 1.6276041666666666e-05
1254 75 1.6276041666666666e-05
1255 75 1.6276041666666666e-05
1257 75 2.7126736111111112e-06
1348 75 2.7126736111111112e-06
76 76 0.00019531249999999998
77 76 1.0850694444444445e-05
107 76 1.0850694444444445e-05
108 76 1.0850694444444445e-05
1158 76 2.7126736111111112e-06
1159 76 2.7126736111111112e-06
1160 76 1.6276041666666666e-05
1162 76 1.6276041666666666e-05
1163 76 2.7126736111111112e-06
1253 76 1.6276041666666666e-05
1255 76 2.7126736111111112e-06
1256 76 1.6276041666666666e-05
1257 76 1.6276041666666666e-05
1258 76 1.6276041666666666e-05
1260 76 2.7126736111111112e-06
1351 76 2.7126736111111112e-06
77 77 0.00019531249999999998
78 77 1.0850694444444445e-05
108 77 1.0850694444444445e-05
109 77 1.0850694444444445e-05
1161 77 2.7126736111111112e-06
1162 77 2.7126736111111112e-06
1163 77 1.6276041666666666e-05
1165 77 1.6276041666666666e-05
1166 77 2.7126736111111112e-06
1256 77 1.6276041666666666e-05
1258 77 2.7126736111111112e-06
1259 77 1.6276041666666666e-05
1260 77 1.6276041666666666e-05
1261 77 1.6276041666666666e-05
1263 77 2.7126736111111112e-06
1354 77 2.7126736111111112e-06
78 78 0.00019531249999999998
79 78 1.0850694444444445e-05
109 78 1.0850694444444445e-05
110 78 1.0850694444444445e-05
1164 78 2.7126736111111112e-06
1165 78 2.7126736111111112e-06
1166 78 1.6276041666666666e-05
1168 78 1.6276041666666666e-05
1169 78 2.7126736111111112e-06
1259 78 1.6276041666666666e-05
1261 78 2.7126736111111112e-06
1262 78 1.6276041666666666e-05
1263 78 1.6276041666666666e-05
1264 78 1.6276041666666666e-05
1266 78 2.7126736111111112e-06
1357 78 2.7126736111111112e-06
79 79 0.00019531249999999998
80 79 1.0850694444444445e-05
110 79 1.0850694444444445e-05
111 79 1.0850694444444445e-05
1167 79 2.7126736111111112e-06
1168 79 2.7126736111111112e-06
1169 79 1.6276041666666666e-05
1171 79 1.6276041666666666e-05
1172 79 2.7126736111111112e-06
1262 79 1.6276041666666666e-05
1264 79 2.7126736111111112e-06
1265 79 1.6276041666666666e-05
1266 79 1.6276041666666666e-05
1267 79 1.6276041666666666e-05
1269 79 2.7126736111111112e-06
1360 79 2.7126736111111112e-06
80 80 0.00019531249999999998
81 80 1.0850694444444445e-05
111 80 1.0850694444444445e-05
112 80 1.0850694444444445e-05
1170 80 2.7126736111111112e-06
1171 80 2.7126736111111112e-06
1172 80 1.6276041666666666e-05
1174 80 1.6276041666666666e-05
1175 80 2.7126736111111112e-06
1265 80 1.6276041666666666e-05
1267 80 2.7126736111111112e-06
1268 80 1.6276041666666666e-05
1269 80 1.6276041666666666e-05
1270 80 1.6276041666666666e-05
1272 80 2.7126736111111112e-06
1363 80 2.7126736111111112e-06
81 81 0.00019531249999999998
82 81 1.0850694444444445e-05
112 81 1.0850694444444445e-05
113 81 1.0850694444444445e-05
1173 81 2.7126736111111112e-06
1174 81 2.7126736111111112e-06
1175 81 1.6276041666666666e-05
1177 81 1.6276041666666666e-05
1178 81 2.7126736111111112e-06
1268 81 1.6276041666666666e-05
1270 81 2.7126736111111112e-06
1271 81 1.6276041666666666e-05
1272 81 1.6276041666666666e-05
1273 81 1.6276041666666666e-05
1275 81 2.7126736111111112e-06
1366 81 2.7126736111111112e-06
82 82 0.00019531249999999998
83 82 1.0850694444444445e-05
113 82 1.0850694444444445e-05
114 82 1.0850694444444445e-05
1176 82 2.7126736111111112e-06
1177 82 2.7126736111111112e-06
1178 82 1.6276041666666666e-05
1180 82 1.6276041666666666e-05
1181 82 2.7126736111111112e-06
1271 82 1.6276041666666666e-05
1273 82 2.7126736111111112e-06
1274 82 1.6276041666666666e-05
1275 82 1.6276041666666666e-05
1276 82 1.6276041666666666e-05
1278 82 2.7126736111111112e-06
1369 82 2.7126736111111112e-06
83 83 0.00019531249999999998
84 83 1.0850694444444445e-05
114 83 1.0850694444444445e-05
115 83 1.0850694444444445e-05
1179 83 2.7126736111111112e-06
1180 83 2.7126736111111112e-06
1181 83 1.6276041666666666e-05
1183 83 1.6276041666666666e-05
1184 83 2.7126736111111112e-06
1274 83 1.6276041666666666e-05
1276 83 2.7126736111111112e-06
1277 83 1.6276041666666666e-05
1278 83 1.6276041666666666e-05
1279 83 1.6276041666666666e-05
1281 83 2.7126736111111112e-06
1372 83 2.7126736111111112e-06
84 84 0.00019531249999999998
85 84 1.0850694444444445e-05
115 84 1.0850694444444445e-05
116 84 1.0850694444444445e-05
1182 84 2.7126736111111112e-06
1183 84 2.7126736111111112e-06
1184 84 1.6276041666666666e-05
1186 84 1.6276041666666666e-05
1187 84 2.7126736111111112e-06
1277 84 1.6276041666666666e-05
1279 84 2.7126736111111112e-06
1280 84 1.6276041666666666e-05
1281 84 1.6276041666666666e-05
1282 84 1.6276041666666666e-05
1284 84 2.7126736111111112e-06
1375 84 2.7126736111111112e-06
85 85 0.00019531249999999998
86 85 1.0850694444444445e-05
116 85 1.0850694444444445e-05
117 85 1.0850694444444445e-05
1185 85 2.7126736111111112e-06
1186 85 2.7126736111111112e-06
1187 85 1.6276041666666666e-05
1189 85 1.6276041666666666e-05
1190 85 2.7126736111111112e-06
1280 85 1.6276041666666666e-05
1282 85 2.7126736111111112e-06
1283 85 1.6276041666666666e-05
1284 85 1.6276041666666666e-05
1285 85 1.6276041666666666e-05
1287 85 2.7126736111111112e-06
1378 85 2.7126736111111112e-06
86 86 0.00019531249999999998
87 86 1.0850694444444445e-05
117 86 1.0850694444444445e-05
118 86 1.0850694444444445e-05
1188 86 2.7126736111111112e-06
1189 86 2.7126736111111112e-06
1190 86 1.6276041666666666e-05
1192 86 1.6276041666666666e-05
1193 86 2.7126736111111112e-06
1283 86 1.6276041666666666e-05
1285 86 2.7126736111111112e-06
1286 86 1.6276041666666666e-05
1287 86 1.6276041666666666e-05
1288 86 1.6276041666666666e-05
1290 86 2.7126736111111112e-06
1381 86 2.7126736111111112e-06
87 87 0.00019531249999999998
88 87 1.0850694444444445e-05
118 87 1.0850694444444445e-05
119 87 1.0850694444444445e-05
1191 87 2.7126736111111112e-06
1192 87 2.7126736111111112e-06
1193 87 1.6276041666666666e-05
1195 87 1.6276041666666666e-05
1196 87 2.7126736111111112e-06
1286 87 1.6276041666666666e-05
1288 87 2.7126736111111112e-06
1289 87 1.6276041666666666e-05
1290 87 1.6276041666666666e-05
1291 87 1.6276041666666666e-05
1293 87 2.7126736111111112e-06
1384 87 2.7126736111111112e-06
88 88 0.00019531249999999998
89 88 1.0850694444444445e-05
119 88 1.0850694444444445e-05
120 88 1.0850694444444445e-05
1194 88 2.7126736111111112e-06
1195 88 2.7126736111111112e-06
1196 88 1.6276041666666666e-05
1198 88 1.6276041666666666e-05
1199 88 2.7126736111111112e-06
1289 88 1.6276041666666666e-05
1291 88 2.7126736111111112e-06
1292 88 1.6276041666666666e-05
1293 88 1.6276041666666666e-05
1294 88 1.6276041666666666e-05
1296 88 2.7126736111111112e-06
1387 88 2.7126736111111112e-06
89 89 0.00019531249999999998
90 89 1.0850694444444445e-05
120 89 1.0850694444444445e-05
121 89 1.0850694444444445e-05
1197 89 2.7126736111111112e-06
1198 89 2.7126736111111112e-06
1199 89 1.6276041666666666e-05
1201 89 1.6276041666666666e-05
1202 89 2.7126736111111112e-06
1292 89 1.6276041666666666e-05
1294 89 2.7126736111111112e-06
1295 89 1.6276041666666666e-05
1296 89 1.6276041666666666e-05
1297 89 1.6276041666666666e-05
1299 89 2.7126736111111112e-06
1390 89 2.7126736111111112e-06
90 90 0.00019531249999999998
91 90 1.0850694444444445e-05
121 90 1.0850694444444445e-05
122 90 1.0850694444444445e-05
1200 90 2.7126736111111112e-06
1201 90 2.7126736111111112e-06
1202 90 1.6276041666666666e-05
1204 90 1.6276041666666666e-05
1205 90 2.7126736111111112e-06
1295 90 1.6276041666666666e-05
1297 90 2.7126736111111112e-06
1298 90 1.6276041666666666e-05
1299 90 1.6276041666666666e-05
1300 90 1.6276041666666666e-05
1302 90 2.7126736111111112e-06
1393 90 2.7126736111111112e-06
91 91 0.00019531249999999998
92 91 1.0850694444444445e-05
122 91 1.0850694444444445e-05
123 91 1.0850694444444445e-05
1203 91 2.7126736111111112e-06
1204 91 2.7126736111111112e-06
1205 91 1.6276041666666666e-05
1207 91 1.6276041666666666e-05
1208 91 2.7126736111111112e-06
1298 91 1.6276041666666666e-05
1300 91 2.7126736111111112e-06
1301 91 1.6276041666666666e-05
1302 91 1.6276041666666666e-05
1303 91 1.6276041666666666e-05
1305 91 2.7126736111111112e-06
1396 91 2.7126736111111112e-06
92 92 0.00019531249999999998
93 92 1.0850694444444445e-05
123 92 1.0850694444444445e-05
124 92 1.0850694444444445e-05
1206 92 2.7126736111111112e-06
1207 92 2.7126736111111112e-06
1208 92 1.6276041666666666e-05
1210 92 1.6276041666666666e-05
1211 92 2.7126736111111112e-06
1301 92 1.6276041666666666e-05
1303 92 2.7126736111111112e-06
1304 92 1.6276041666666666e-05
1305 92 1.6276041666666666e-05
1306 92 1.6276041666666666e-05
1308 92 2.7126736111111112e-06
1399 92 2.7126736111111112e-06
93 93 0.00019531249999999998
124 93 1.0850694444444445e-05
1209 93 2.7126736111111112e-06
1210 93 2.7126736111111112e-06
1211 93 1.6276041666666666e-05
1213 93 1.6276041666666666e-05
1214 93 2.7126736111111112e-06
1304 93 1.6276041666666666e-05
1306 93 2.7126736111111112e-06
1307 93 1.6276041666666666e-05
1308 93 1.6276041666666666e-05
1309 93 1.6276041666666666e-05
1402 93 2.7126736111111112e-06
94 94 0.00019531249999999998
95 94 1.0850694444444445e-05
125 94 1.0850694444444445e-05
126 94 1.0850694444444445e-05
1215 94 2.7126736111111112e-06
1216 94 1.6276041666666666e-05
1218 94 1.6276041666666666e-05
1219 94 2.7126736111111112e-06
1310 94 1.6276041666666666e-05
1311 94 2.7126736111111112e-06
1312 94 1.6276041666666666e-05
1313 94 1.6276041666666666e-05
1314 94 1.6276041666666666e-05
1316 94 2.7126736111111112e-06
1407 94 2.7126736111111112e-06
95 95 0.00019531249999999998
96 95 1.0850694444444445e-05
126 95 1.0850694444444445e-05
127 95 1.0850694444444445e-05
1217 95 2.7126736111111112e-06
1218 95 2.7126736111111112e-06
1219 95 1.6276041666666666e-05
1221 95 1.6276041666666666e-05
1222 95 2.7126736111111112e-06
1312 95 1.6276041666666666e-05
1314 95 2.7126736111111112e-06
1315 95 1.6276041666666666e-05
1316 95 1.6276041666666666e-05
1317 95 1.6276041666666666e-05
1319 95 2.7126736111111112e-06
1410 95 2.7126736111111112e-06
96 96 0.00019531249999999998
97 96 1.0850694444444445e-05
127 96 1.0850694444444445e-05
128 96 1.0850694444444445e-05
1220 96 2.7126736111111112e-06
1221 96 2.7126736111111112e-06
1222 96 1.6276041666666666e-05
1224 96 1.6276041666666666e-05
1225 96 2.7126736111111112e-06
1315 96 1.6276041666666666e-05
1317 96 2.7126736111111112e-06
1318 96 1.6276041666666666e-05
1319 96 1.6276041666666666e-05
1320 96 1.6276041666666666e-05
1322 96 2.7126736111111112e-06
1413 96 2.7126736111111112e-06
97 97 0.00019531249999999998
98 97 1.0850694444444445e-05
128 97 1.0850694444444445e-05
129 97 1.0850694444444445e-05
1223 97 2.7126736111111112e-06
1224 97 2.7126736111111112e-06
1225 97 1.6276041666666666e-05
1227 97 1.6276041666666666e-05
1228 97 2.7126736111111112e-06
1318 97 1.6276041666666666e-05
1320 97 2.7126736111111112e-06
1321 97 1.6276041666666666e-05
1322 97 1.6276041666666666e-05
1323 97 1.6276041666666666e-05
1325 97 2.7126736111111112e-06
1416 97 2.7126736111111112e-06
98 98 0.00019531249999999998
99 98 1.0850694444444445e-05
129 98 1.0850694444444445e-05
130 98 1.0850694444444445e-05
1226 98 2.7126736111111112e-06
1227 98 2.7126736111111112e-06
1228 98 1.6276041666666666e-05
1230 98 1.6276041666666666e-05
1231 98 2.7126736111111112e-06
1321 98 1.6276041666666666e-05
1323 98 2.7126736111111112e-06
1324 98 1.6276041666666666e-05
1325 98 1.6276041666666666e-05
1326 98 1.6276041666666666e-05
1328 98 2.7126736111111112e-06
1419 98 2.7126736111111112e-06
99 99 0.00019531249999999998
100 99 1.0850694444444445e-05
130 99 1.0850694444444445e-05
131 99 1.0850694444444445e-05
1229 99 2.7126736111111112e-06
1230 99 2.7126736111111112e-06
1231 99 1.6276041666666666e-05
1233 99 1.6276041666666666e-05
1234 99 2.7126736111111112e-06
1324 99 1.6276041666666666e-05
1326 99 2.7126736111111112e-06
1327 99 1.6276041666666666e-05
1328 99 1.6276041666666666e-05
1329 99 1.6276041666666666e-05
1331 99 2.7126736111111112e-06
1422 99 2.7126736111111112e-06
100 100 0.00019531249999999998
101 100 1.0850694444444445e-05
131 100 1.0850694444444445e-05
132 100 1.0850694444444445e-05
1232 100 2.7126736111111112e-06
1233 100 2.7126736111111112e-06
1234 100 1.6276041666666666e-05
1236 100 1.6276041666666666e-05
1237 100 2.7126736111111112e-06
1327 100 1.6276041666666666e-05
1329 100 2.7126736111111112e-06
1330 100 1.6276041666666666e-05
1331 100 1.6276041666666666e-05
1332 100 1.6276041666666666e-05
1334 100 2.7126736111111112e-06
1425 100 2.7126736111111112e-06
101 101 0.00019531249999999998
102 101 1.0850694444444445e-05
132 101 1.0850694444444445e-05
133 101 1.0850694444444445e-05
1235 101 2.7126736111111112e-06
1236 101 2.7126736111111112e-06
1237 101 1.6276041666666666e-05
1239 101 1.6276041666666666e-05
1240 101 2.7126736111111112e-06
1330 101 1.6276041666666666e-05
1332 101 2.7126736111111112e-06
1333 101 1.6276041666666666e-05
1334 101 1.6276041666666666e-05
1335 101 1.6276041666666666e-05
1337 101 2.7126736111111112e-06
1428 101 2.7126736111111112e-06
102 102 0.00019531249999999998
103 102 1.0850694444444445e-05
133 102 1.0850694444444445e-05
134 102 1.0850694444444445e-05
1238 102 2.7126736111111112e-06
1239 102 2.7126736111111112e-06
1240 102 1.6276041666666666e-05
1242 102 1.6276041666666666e-05
1243 102 2.7126736111111112e-06
1333 102 1.6276041666666666e-05
1335 102 2.7126736111111112e-06
1336 102 1.6276041666666666e-05
1337 102 1.6276041666666666e-05
1338 102 1.6276041666666666e-05
1340 102 2.7126736111111112e-06
1431 102 2.7126736111111112e-06
103 103 0.00019531249999999998
104 103 1.0850694444444445e-05
134 103 1.0850694444444445e-05
135 103 1.0850694444444445e-05
1241 103 2.7126736111111112e-06
1242 103 2.7126736111111112e-06
1243 103 1.6276041666666666e-05
1245 103 1.6276041666666666e-05
1246 103 2.7126736111111112e-06
1336 103 1.6276041666666666e-05
1338 103 2.7126736111111112e-06
1339 103 1.6276041666666666e-05
1340 103 1.6276041666666666e-05
1341 103 1.6276041666666666e-05
1343 103 2.7126736111111112e-06
1434 103 2.7126736111111112e-06
104 104 0.00019531249999999998
105 104 1.0850694444444445e-05
135 104 1.0850694444444445e-05
136 104 1.0850694444444445e-05
1244 104 2.7126736111111112e-06
1245 104 2.7126736111111112e-06
1246 104 1.6276041666666666e-05
1248 104 1.6276041666666666e-05
1249 104 2.7126736111111112e-06
1339 104 1.6276041666666666e-05
1341 104 2.7126736111111112e-06
1342 104 1.6276041666666666e-05
1343 104 1.6276041666666666e-05
1344 104 1.6276041666666666e-05
1346 104 2.7126736111111112e-06
1437 104 2.7126736111111112e-06
105 105 0.00019531249999999998
106 105 1.0850694444444445e-05
136 105 1.0850694444444445e-05
137 105 1.0850694444444445e-05
1247 105 2.7126736111111112e-06
1248 105 2.7126736111111112e-06
1249 105 1.6276041666666666e-05
1251 105 1.6276041666666666e-05
1252 105 2.7126736111111112e-06
1342 105 1.6276041666666666e-05
1344 105 2.7126736111111112e-06
1345 105 1.6276041666666666e-05
1346 105 1.6276041666666666e-05
1347 105 1.6276041666666666e-05
1349 105 2.7126736111111112e-06
1440 105 2.7126736111111112e-06
106 106 0.00019531249999999998
107 106 1.0850694444444445e-05
137 106 1.0850694444444445e-05
138 106 1.0850694444444445e-05
1250 106 2.7126736111111112e-06
1251 106 2.7126736111111112e-06
1252 106 1.6276041666666666e-05
1254 106 1.6276041666666666e-05
1255 106 2.7126736111111112e-06
1345 106 1.6276041666666666e-05
1347 106 2.7126736111111112e-06
1348 106 1.6276041666666666e-05
1349 106 1.6276041666666666e-05
1350 106 1.6276041666666666e-05
1352 106 2.7126736111111112e-06
1443 106 2.7126736111111112e-06
107 107 0.00019531249999999998
108 107 1.0850694444444445e-05
138 107 1.0850694444444445e-05
139 107 1.0850694444444445e-05
1253 107 2.7126736111111112e-06
1254 107 2.7126736111111112e-06
1255 107 1.6276041666666666e-05
1257 107 1.6276041666666666e-05
1258 107 2.7126736111111112e-06
1348 107 1.6276041666666666e-05
1350 107 2.7126736111111112e-06
1351 107 1.6276041666666666e-05
1352 107 1.6276041666666666e-05
1353 107 1.6276041666666666e-05
1355 107 2.7126736111111112e-06
1446 107 2.7126736111111112e-06
108 108 0.00019531249999999998
109 108 1.0850694444444445e-05
139 108 1.0850694444444445e-05
140 108 1.0850694444444445e-05
1256 108 2.7126736111111112e-06
1257 108 2.7126736111111112e-06
1258 108 1.6276041666666666e-05
1260 108 1.6276041666666666e-05
1261 108 2.7126736111111112e-06
1351 108 1.6276041666666666e-05
1353 108 2.7126736111111112e-06
1354 108 1.6276041666666666e-05
1355 108 1.6276041666666666e-05
1356 108 1.6276041666666666e-05
1358 108 2.7126736111111112e-06
1449 108 2.7126736111111112e-06
109 109 0.00019531249999999998
110 109 1.0850694444444445e-05
140 109 1.0850694444444445e-05
141 109 1.0850694444444445e-05
1259 109 2.7126736111111112e-06
1260 109 2.7126736111111112e-06
1261 109 1.6276041666666666e-05
1263 109 1.6276041666666666e-05
1264 109 2.7126736111111112e-06
1354 109 1.6276041666666666e-05
1356 109 2.7126736111111112e-06
1357 109 1.6276041666666666e-05
1358 109 1.6276041666666666e-05
1359 109 1.6276041666666666e-05
1361 109 2.7126736111111112e-06
1452 109 2.7126736111111112e-06
110 110 0.00019531249999999998
111 110 1.0850694444444445e-05
141 110 1.0850694444444445e-05
142 110 1.0850694444444445e-05
1262 110 2.7126736111111112e-06
1263 110 2.7126736111111112e-06
1264 110 1.6276041666666666e-05
1266 110 1.6276041666666666e-05
1267 110 2.7126736111111112e-06
1357 110 1.6276041666666666e-05
1359 110 2.7126736111111112e-06
1360 110 1.6276041666666666e-05
1361 110 1.6276041666666666e-05
1362 110 1.6276041666666666e-05
1364 110 2.7126736111111112e-06
1455 110 2.7126736111111112e-06
111 111 0.00019531249999999998
112 111 1.0850694444444445e-05
142 111 1.0850694444444445e-05
143 111 1.0850694444444445e-05
1265 111 2.7126736111111112e-06
1266 111 2.7126736111111112e-06
1267 111 1.6276041666666666e-05
1269 111 1.6276041666666666e-05
1270 111 2.7126736111111112e-06
1360 111 1.6276041666666666e-05
1362 111 2.7126736111111112e-06
1363 111 1.6276041666666666e-05
1364 111 1.6276041666666666e-05
1365 111 1.6276041666666666e-05
1367 111 2.7126736111111112e-06
1458 111 2.7126736111111112e-06
112 112 0.00019531249999999998
113 112 1.0850694444444445e-05
143 112 1.0850694444444445e-05
144 112 1.0850694444444445e-05
1268 112 2.7126736111111112e-06
1269 112 2.7126736111111112e-06
1270 112 1.6276041666666666e-05
1272 112 1.6276041666666666e-05
1273 112 2.7126736111111112e-06
1363 112 1.6276041666666666e-05
1365 112 2.7126736111111112e-06
1366 112 1.6276041666666666e-05
1367 112 1.6276041666666666e-05
1368 112 1.6276041666666666e-05
1370 112 2.7126736111111112e-06
1461 112 2.7126736111111112e-06
113 113 0.00019531249999999998
114 113 1.0850694444444445e-05
144 113 1.0850694444444445e-05
145 113 1.0850694444444445e-05
1271 113 2.7126736111111112e-06
1272 113 2.7126736111111112e-06
1273 113 1.6276041666666666e-05
1275 113 1.6276041666666666e-05
1276 113 2.7126736111111112e-06
1366 113 1.6276041666666666e-05
1368 113 2.7126736111111112e-06
1369 113 1.6276041666666666e-05
1370 113 1.6276041666666666e-05
1371 113 1.6276041666666666e-05
1373 113 2.7126736111111112e-06
1464 113 2.7126736111111112e-06
114 114 0.00019531249999999998
115 114 1.0850694444444445e-05
145 114 1.0850694444444445e-05
146 114 1.0850694444444445e-05
1274 114 2.7126736111111112e-06
1275 114 2.7126736111111112e-06
1276 114 1.6276041666666666e-05
1278 114 1.6276041666666666e-05
1279 114 2.7126736111111112e-06
1369 114 1.6276041666666666e-05
1371 114 2.7126736111111112e-06
1372 114 1.6276041666666666e-05
1373 114 1.6276041666666666e-05
1374 114 1.6276041666666666e-05
1376 114 2.7126736111111112e-06
1467 114 2.7126736111111112e-06
115 115 0.00019531249999999998
116 115 1.0850694444444445e-05
146 115 1.0850694444444445e-05
147 115 1.0850694444444445e-05
1277 115 2.7126736111111112e-06
1278 115 2.7126736111111112e-06
1279 115 1.6276041666666666e-05
1281 115 1.6276041666666666e-05
1282 115 2.7126736111111112e-06
1372 115 1.6276041666666666e-05
1374 115 2.7126736111111112e-06
1375 115 1.6276041666666666e-05
1376 115 1.6276041666666666e-05
1377 115 1.6276041666666666e-05
1379 115 2.7126736111111112e-06
1470 115 2.7126736111111112e-06
116 116 0.00019531249999999998
117 116 1.0850694444444445e-05
147 116 1.0850694444444445e-05
148 116 1.0850694444444445e-05
1280 116 2.7126736111111112e-06
1281 116 2.7126736111111112e-06
1282 116 1.6276041666666666e-05
1284 116 1.6276041666666666e-05
1285 116 2.7126736111111112e-06
1375 116 1.6276041666666666e-05
1377 116 2.7126736111111112e-06
1378 116 1.6276041666666666e-05
1379 116 1.6276041666666666e-05
1380 116 1.6276041666666666e-05
1382 116 2.7126736111111112e-06
1473 116 2.7126736111111112e-06
117 117 0.00019531249999999998
118 117 1.0850694444444445e-05
148 117 1.0850694444444445e-05
149 117 1.0850694444444445e-05
1283 117 2.7126736111111112e-06
1284 117 2.7126736111111112e-06
1285 117 1.6276041666666666e-05
1287 117 1.6276041666666666e-05
1288 117 2.7126736111111112e-06
1378 117 1.6276041666666666e-05
1380 117 2.7126736111111112e-06
1381 117 1.6276041666666666e-05
1382 117 1.6276041666666666e-05
1383 117 1.6276041666666666e-05
1385 117 2.7126736111111112e-06
1476 117 2.7126736111111112e-06
118 118 0.00019531249999999998
119 118 1.0850694444444445e-05
149 118 1.0850694444444445e-05
150 118 1.0850694444444445e-05
1286 118 2.7126736111111112e-06
1287 118 2.7126736111111112e-06
1288 118 1.6276041666666666e-05
1290 118 1.6276041666666666e-05
1291 118 2.7126736111111112e-06
1381 118 1.6276041666666666e-05
1383 118 2.7126736111111112e-06
1384 118 1.6276041666666666e-05
1385 118 1.6276041666666666e-05
1386 118 1.6276041666666666e-05
1388 118 2.7126736111111112e-06
1479 118 2.7126736111111112e-06
119 119 0.00019531249999999998
120 119 1.0850694444444445e-05
150 119 1.0850694444444445e-05
151 119 1.0850694444444445e-05
1289 119 2.7126736111111112e-06
1290 119 2.7126736111111112e-06
1291 119 1.6276041666666666e-05
1293 119 1.6276041666666666e-05
1294 119 2.7126736111111112e-06
1384 119 1.6276041666666666e-05
1386 119 2.7126736111111112e-06
1387 119 1.6276041666666666e-05
1388 119 1.6276041666666666e-05
1389 119 1.6276041666666666e-05
1391 119 2.7126736111111112e-06
1482 119 2.7126736111111112e-06
120 120 0.00019531249999999998
121 120 1.0850694444444445e-05
151 120 1.0850694444444445e-05
152 120 1.0850694444444445e-05
1292 120 2.7126736111111112e-06
1293 120 2.7126736111111112e-06
1294 120 1.6276041666666666e-05
1296 120 1.6276041666666666e-05
1297 120 2.7126736111111112e-06
1387 120 1.6276041666666666e-05
1389 120 2.7126736111111112e-06
1390 120 1.6276041666666666e-05
1391 120 1.6276041666666666e-05
1392 120 1.6276041666666666e-05
1394 120 2.7126736111111112e-06
1485 120 2.7126736111111112e-06
121 121 0.00019531249999999998
122 121 1.0850694444444445e-05
152 121 1.0850694444444445e-05
153 121 1.0850694444444445e-05
1295 121 2.7126736111111112e-06
1296 121 2.7126736111111112e-06
1297 121 1.6276041666666666e-05
1299 121 1.6276041666666666e-05
1300 121 2.7126736111111112e-06
1390 121 1.6276041666666666e-05
1392 121 2.7126736111111112e-06
1393 121 1.6276041666666666e-05
1394 121 1.6276041666666666e-05
1395 121 1.6276041666666666e-05
1397 121 2.7126736111111112e-06
1488 121 2.7126736111111112e-06
122 122 0.00019531249999999998
123 122 1.0850694444444445e-05
153 122 1.0850694444444445e-05
154 122 1.0850694444444445e-05
1298 122 2.7126736111111112e-06
1299 122 2.7126736111111112e-06
1300 122 1.6276041666666666e-05
1302 122 1.6276041666666666e-05
1303 122 2.7126736111111112e-06
1393 122 1.6276041666666666e-05
1395 122 2.7126736111111112e-06
1396 122 1.6276041666666666e-05
1397 122 1.6276041666666666e-05
1398 122 1.6276041666666666e-05
1400 122 2.7126736111111112e-06
1491 122 2.7126736111111112e-06
123 123 0.00019531249999999998
124 123 1.0850694444444445e-05
154 123 1.0850694444444445e-05
155 123 1.0850694444444445e-05
1301 123 2.7126736111111112e-06
1302 123 2.7126736111111112e-06
1303 123 1.6276041666666666e-05
1305 123 1.6276041666666666e-05
1306 123 2.7126736111111112e-06
1396 123 1.6276041666666666e-05
1398 123 2.7126736111111112e-06
1399 123 1.6276041666666666e-05
1400 123 1.6276041666666666e-05
1401 123 1.6276041666666666e-05
1403 123 2.7126736111111112e-06
1494 123 2.7126736111111112e-06
124 124 0.00019531249999999998
155 124 1.0850694444444445e-05
1304 124 2.7126736111111112e-06
1305 124 2.7126736111111112e-06
1306 124 1.6276041666666666e-05
1308 124 1.6276041666666666e-05
1309 124 2.7126736111111112e-06
1399 124 1.6276041666666666e-05
1401 124 2.7126736111111112e-06
1402 124 1.6276041666666666e-05
1403 124 1.6276041666666666e-05
1404 124 1.6276041666666666e-05
1497 124 2.7126736111111112e-06
125 125 0.00019531249999999998
126 125 1.0850694444444445e-05
156 125 1.0850694444444445e-05
157 125 1.0850694444444445e-05
1310 125 2.7126736111111112e-06
1311 125 1.6276041666666666e-05
1313 125 1.6276041666666666e-05
1314 125 2.7126736111111112e-06
1405 125 1.6276041666666666e-05
1406 125 2.7126736111111112e-06
1407 125 1.6276041666666666e-05
1408 125 1.6276041666666666e-05
1409 125 1.6276041666666666e-05
1411 125 2.7126736111111112e-06
1502 125 2.7126736111111112e-06
126 126 0.00019531249999999998
127 126 1.0850694444444445e-05
157 126 1.0850694444444445e-05
158 126 1.0850694444444445e-05
1312 126 2.7126736111111112e-06
1313 126 2.7126736111111112e-06
1314 126 1.6276041666666666e-05
1316 126 1.6276041666666666e-05
1317 126 2.7126736111111112e-06
1407 126 1.6276041666666666e-05
1409 126 2.7126736111111112e-06
1410 126 1.6276041666666666e-05
1411 126 1.6276041666666666e-05
1412 126 1.6276041666666666e-05
1414 126 2.7126736111111112e-06
1505 126 2.7126736111111112e-06
127 127 0.00019531249999999998
128 127 1.0850694444444445e-05
158 127 1.0850694444444445e-05
159 127 1.0850694444444445e-05
1315 127 2.7126736111111112e-06
1316 127 2.7126736111111112e-06
1317 127 1.6276041666666666e-05
1319 127 1.6276041666666666e-05
1320 127 2.7126736111111112e-06
1410 127 1.6276041666666666e-05
1412 127 2.7126736111111112e-06
1413 127 1.6276041666666666e-05
1414 127 1.6276041666666666e-05
1415 127 1.6276041666666666e-05
1417 127 2.7126736111111112e-06
1508 127 2.7126736111111112e-06
128 128 0.00019531249999999998
129 128 1.0850694444444445e-05
159 128 1.0850694444444445e-05
160 128 1.0850694444444445e-05
1318 128 2.7126736111111112e-06
1319 128 2.7126736111111112e-06
1320 128 1.6276041666666666e-05
1322 128 1.6276041666666666e-05
1323 128 2.7126736111111112e-06
1413 128 1.6276041666666666e-05
1415 128 2.7126736111111112e-06
1416 128 1.6276041666666666e-05
1417 128 1.6276041666666666e-05
1418 128 1.6276041666666666e-05
1420 128 2.7126736111111112e-06
1511 128 2.7126736111111112e-06
129 129 0.00019531249999999998
130 129 1.0850694444444445e-05
160 129 1.0850694444444445e-05
161 129 1.0850694444444445e-05
1321 129 2.7126736111111112e-06
1322 129 2.7126736111111112e-06
1323 129 1.6276041666666666e-05
1325 129 1.6276041666666666e-05
1326 129 2.7126736111111112e-06
1416 129 1.6276041666666666e-05
1418 129 2.7126736111111112e-06
1419 129 1.6276041666666666e-05
1420 129 1.6276041666666666e-05
1421 129 1.6276041666666666e-05
1423 129 2.7126736111111112e-06
1514 129 2.7126736111111112e-06
130 130 0.00019531249999999998
131 130 1.0850694444444445e-05
161 130 1.0850694444444445e-05
162 130 1.0850694444444445e-05
1324 130 2.7126736111111112e-06
1325 130 2.7126736111111112e-06
1326 130 1.6276041666666666e-05
1328 130 1.6276041666666666e-05
1329 130 2.7126736111111112e-06
1419 130 1.6276041666666666e-05
1421 130 2.7126736111111112e-06
1422 130 1.6276041666666666e-05
1423 130 1.6276041666666666e-05
1424 130 1.6276041666666666e-05
1426 130 2.7126736111111112e-06
1517 130 2.7126736111111112e-06
131 131 0.00019531249999999998
132 131 1.0850694444444445e-05
162 131 1.0850694444444445e-05
163 131 1.0850694444444445e-05
1327 131 2.7126736111111112e-06
1328 131 2.7126736111111112e-06
1329 131 1.6276041666666666e-05
1331 131 1.6276041666666666e-05
1332 131 2.7126736111111112e-06
1422 131 1.6276041666666666e-05
1424 131 2.7126736111111112e-06
1425 131 1.6276041666666666e-05
1426 131 1.6276041666666666e-05
1427 131 1.6276041666666666e-05
1429 131 2.7126736111111112e-06
1520 131 2.7126736111111112e-06
132 132 0.00019531249999999998
133 132 1.0850694444444445e-05
163 132 1.0850694444444445e-05
164 132 1.0850694444444445e-05
1330 132 2.7126736111111112e-06
1331 132 2.7126736111111112e-06
1332 132 1.6276041666666666e-05
1334 132 1.6276041666666666e-05
1335 132 2.7126736111111112e-06
1425 132 1.6276041666666666e-05
1427 132 2.7126736111111112e-06
1428 132 1.6276041666666666e-05
1429 132 1.6276041666666666e-05
1430 132 1.6276041666666666e-05
1432 132 2.7126736111111112e-06
1523 132 2.7126736111111112e-06
133 133 0.00019531249999999998
134 133 1.0850694444444445e-05
164 133 1.0850694444444445e-05
165 133 1.0850694444444445e-05
1333 133 2.7126736111111112e-06
1334 133 2.7126736111111112e-06
1335 133 1.6276041666666666e-05
1337 133 1.6276041666666666e-05
1338 133 2.7126736111111112e-06
1428 133 1.6276041666666666e-05
1430 133 2.7126736111111112e-06
1431 133 1.6276041666666666e-05
1432 133 1.6276041666666666e-05
1433 133 1.6276041666666666e-05
1435 133 2.7126736111111112e-06
1526 133 2.7126736111111112e-06
134 134 0.00019531249999999998
135 134 1.0850694444444445e-05
165 134 1.0850694444444445e-05
166 134 1.0850694444444445e-05
1336 134 2.7126736111111112e-06
1337 134 2.7126736111111112e-06
1338 134 1.6276041666666666e-05
1340 134 1.6276041666666666e-05
1341 134 2.7126736111111112e-06
1431 134 1.6276041666666666e-05
1433 134 2.7126736111111112e-06
1434 134 1.6276041666666666e-05
1435 134 1.6276041666666666e-05
1436 134 1.6276041666666666e-05
1438 134 2.7126736111111112e-06
1529 134 2.7126736111111112e-06
135 135 0.00019531249999999998
136 135 1.0850694444444445e-05
166 135 1.0850694444444445e-05
167 135 1.0850694444444445e-05
1339 135 2.7126736111111112e-06
1340 135 2.7126736111111112e-06
1341 135 1.6276041666666666e-05
1343 135 1.6276041666666666e-05
1344 135 2.7126736111111112e-06
1434 135 1.6276041666666666e-05
1436 135 2.7126736111111112e-06
1437 135 1.6276041666666666e-05
1438 135 1.6276041666666666e-05
1439 135 1.6276041666666666e-05
1441 135 2.7126736111111112e-06
1532 135 2.7126736111111112e-06
136 136 0.00019531249999999998
137 136 1.0850694444444445e-05
167 136 1.0850694444444445e-05
168 136 1.0850694444444445e-05
1342 136 2.7126736111111112e-06
1343 136 2.7126736111111112e-06
1344 136 1.6276041666666666e-05
1346 136 1.6276041666666666e-05
1347 136 2.7126736111111112e-06
1437 136 1.6276041666666666e-05
1439 136 2.7126736111111112e-06
1440 136 1.6276041666666666e-05
1441 136 1.6276041666666666e-05
1442 136 1.6276041666666666e-05
1444 136 2.7126736111111112e-06
1535 136 2.7126736111111112e-06
137 137 0.00019531249999999998
138 137 1.0850694444444445e-05
168 137 1.0850694444444445e-05
169 137 1.0850694444444445e-05
1345 137 2.7126736111111112e-06
1346 137 2.7126736111111112e-06
1347 137 1.6276041666666666e-05
1349 137 1.6276041666666666e-05
1350 137 2.7126736111111112e-06
1440 137 1.6276041666666666e-05
1442 137 2.7126736111111112e-06
1443 137 1.6276041666666666e-05
1444 137 1.6276041666666666e-05
1445 137 1.6276041666666666e-05
1447 137 2.7126736111111112e-06
1538 137 2.7126736111111112e-06
138 138 0.00019531249999999998
139 138 1.0850694444444445e-05
169 138 1.0850694444444445e-05
170 138 1.0850694444444445e-05
1348 138 2.7126736111111112e-06
1349 138 2.7126736111111112e-06
1350 138 1.6276041666666666e-05
1352 138 1.6276041666666666e-05
1353 138 2.7126736111111112e-06
1443 138 1.6276041666666666e-05
1445 138 2.7126736111111112e-06
1446 138 1.6276041666666666e-05
1447 138 1.6276041666666666e-05
1448 138 1.6276041666666666e-05
1450 138 2.7126736111111112e-06
1541 138 2.7126736111111112e-06
139 139 0.00019531249999999998
140 139 1.0850694444444445e-05
170 139 1.0850694444444445e-05
171 139 1.0850694444444445e-05
1351 139 2.7126736111111112e-06
1352 139 2.7126736111111112e-06
1353 139 1.6276041666666666e-05
1355 139 1.6276041666666666e-05
1356 139 2.7126736111111112e-06
1446 139 1.6276041666666666e-05
1448 139 2.7126736111111112e-06
1449 139 1.6276041666666666e-05
1450 139 1.6276041666666666e-05
1451 139 1.6276041666666666e-05
1453 139 2.7126736111111112e-06
1544 139 2.7126736111111112e-06
140 140 0.00019531249999999998
141 140 1.0850694444444445e-05
171 140 1.0850694444444445e-05
172 140 1.0850694444444445e-05
1354 140 2.7126736111111112e-06
1355 140 2.7126736111111112e-06
1356 140 1.6276041666666666e-05
1358 140 1.6276041666666666e-05
1359 140 2.7126736111111112e-06
1449 140 1.6276041666666666e-05
1451 140 2.7126736111111112e-06
1452 140 1.6276041666666666e-05
1453 140 1.6276041666666666e-05
1454 140 1.6276041666666666e-05
1456 140 2.7126736111111112e-06
1547 140 2.7126736111111112e-06
141 141 0.00019531249999999998
142 141 1.0850694444444445e-05
172 141 1.0850694444444445e-05
173 141 1.0850694444444445e-05
1357 141 2.7126736111111112e-06
1358 141 2.7126736111111112e-06
1359 141 1.6276041666666666e-05
1361 141 1.6276041666666666e-05
1362 141 2.7126736111111112e-06
1452 141 1.6276041666666666e-05
1454 141 2.7126736111111112e-06
1455 141 1.6276041666666666e-05
1456 141 1.6276041666666666e-05
1457 141 1.6276041666666666e-05
1459 141 2.7126736111111112e-06
1550 141 2.7126736111111112e-06
142 142 0.00019531249999999998
143 142 1.0850694444444445e-05
173 142 1.0850694444444445e-05
174 142 1.0850694444444445e-05
1360 142 2.7126736111111112e-06
1361 142 2.7126736111111112e-06
1362 142 1.6276041666666666e-05
1364 142 1.6276041666666666e-05
1365 142 2.7126736111111112e-06
1455 142 1.6276041666666666e-05
1457 142 2.7126736111111112e-06
1458 142 1.6276041666666666e-05
1459 142 1.6276041666666666e-05
1460 142 1.6276041666666666e-05
1462 142 2.7126736111111112e-06
1553 142 2.7126736111111112e-06
143 143 0.00019531249999999998
144 143 1.0850694444444445e-05
174 143 1.0850694444444445e-05
175 143 1.0850694444444445e-05
1363 143 2.7126736111111112e-06
1364 143 2.7126736111111112e-06
1365 143 1.6276041666666666e-05
1367 143 1.6276041666666666e-05
1368 143 2.7126736111111112e-06
1458 143 1.6276041666666666e-05
1460 143 2.7126736111111112e-06
1461 143 1.6276041666666666e-05
1462 143 1.6276041666666666e-05
1463 143 1.6276041666666666e-05
1465 143 2.7126736111111112e-06
1556 143 2.7126736111111112e-06
144 144 0.00019531249999999998
145 144 1.0850694444444445e-05
175 144 1.0850694444444445e-05
176 144 1.0850694444444445e-05
1366 144 2.7126736111111112e-06
1367 144 2.7126736111111112e-06
1368 144 1.6276041666666666e-05
1370 144 1.6276041666666666e-05
1371 144 2.7126736111111112e-06
1461 144 1.6276041666666666e-05
1463 144 2.7126736111111112e-06
1464 144 1.6276041666666666e-05
1465 144 1.6276041666666666e-05
1466 144 1.6276041666666666e-05
1468 144 2.7126736111111112e-06
1559 144 2.7126736111111112e-06
145 145 0.00019531249999999998
146 145 1.0850694444444445e-05
176 145 1.0850694444444445e-05
177 145 1.0850694444444445e-05
1369 145 2.7126736111111112e-06
1370 145 2.7126736111111112e-06
1371 145 1.6276041666666666e-05
1373 145 1.6276041666666666e-05
1374 145 2.7126736111111112e-06
1464 145 1.6276041666666666e-05
1466 145 2.7126736111111112e-06
1467 145 1.6276041666666666e-05
1468 145 1.6276041666666666e-05
1469 145 1.6276041666666666e-05
1471 145 2.7126736111111112e-06
1562 145 2.7126736111111112e-06
146 146 0.00019531249999999998
147 146 1.0850694444444445e-05
177 146 1.0850694444444445e-05
178 146 1.0850694444444445e-05
1372 146 2.7126736111111112e-06
1373 146 2.7126736111111112e-06
1374 146 1.6276041666666666e-05
1376 146 1.6276041666666666e-05
1377 146 2.7126736111111112e-06
1467 146 1.6276041666666666e-05
1469 146 2.7126736111111112e-06
1470 146 1.6276041666666666e-05
1471 146 1.6276041666666666e-05
1472 146 1.6276041666666666e-05
1474 146 2.7126736111111112e-06
1565 146 2.7126736111111112e-06
147 147 0.00019531249999999998
148 147 1.0850694444444445e-05
178 147 1.0850694444444445e-05
179 147 1.0850694444444445e-05
1375 147 2.7126736111111112e-06
1376 147 2.7126736111111112e-06
1377 147 1.6276041666666666e-05
1379 147 1.6276041666666666e-05
1380 147 2.7126736111111112e-06
1470 147 1.6276041666666666e-05
1472 147 2.7126736111111112e-06
1473 147 1.6276041666666666e-05
1474 147 1.6276041666666666e-05
1475 147 1.6276041666666666e-05
1477 147 2.7126736111111112e-06
1568 147 2.7126736111111112e-06
148 148 0.00019531249999999998
149 148 1.0850694444444445e-05
179 148 1.0850694444444445e-05
180 148 1.0850694444444445e-05
1378 148 2.7126736111111112e-06
1379 148 2.7126736111111112e-06
1380 148 1.6276041666666666e-05
1382 148 1.6276041666666666e-05
1383 148 2.7126736111111112e-06
1473 148 1.6276041666666666e-05
1475 148 2.7126736111111112e-06
1476 148 1.6276041666666666e-05
1477 148 1.6276041666666666e-05
1478 148 1.6276041666666666e-05
1480 148 2.7126736111111112e-06
1571 148 2.7126736111111112e-06
149 149 0.00019531249999999998
150 149 1.0850694444444445e-05
180 149 1.0850694444444445e-05
181 149 1.0850694444444445e-05
1381 149 2.7126736111111112e-06
1382 149 2.7126736111111112e-06
1383 149 1.6276041666666666e-05
1385 149 1.6276041666666666e-05
1386 149 2.7126736111111112e-06
1476 149 1.6276041666666666e-05
1478 149 2.7126736111111112e-06
1479 149 1.6276041666666666e-05
1480 149 1.6276041666666666e-05
1481 149 1.6276041666666666e-05
1483 149 2.7126736111111112e-06
1574 149 2.7126736111111112e-06
150 150 0.00019531249999999998
151 150 1.0850694444444445e-05
181 150 1.0850694444444445e-05
182 150 1.0850694444444445e-05
1384 150 2.7126736111111112e-06
1385 150 2.7126736111111112e-06
1386 150 1.6276041666666666e-05
1388 150 1.6276041666666666e-05
1389 150 2.7126736111111112e-06
1479 150 1.6276041666666666e-05
1481 150 2.7126736111111112e-06
1482 150 1.6276041666666666e-05
1483 150 1.6276041666666666e-05
1484 150 1.6276041666666666e-05
1486 150 2.7126736111111112e-06
1577 150 2.7126736111111112e-06
151 151 0.00019531249999999998
152 151 1.0850694444444445e-05
182 151 1.0850694444444445e-05
183 151 1.0850694444444445e-05
1387 151 2.7126736111111112e-06
1388 151 2.7126736111111112e-06
1389 151 1.6276041666666666e-05
1391 151 1.6276041666666666e-05
1392 151 2.7126736111111112e-06
1482 151 1.6276041666666666e-05
1484 151 2.7126736111111112e-06
1485 151 1.6276041666666666e-05
1486 151 1.6276041666666666e-05
1487 151 1.6276041666666666e-05
1489 151 2.7126736111111112e-06
1580 151 2.7126736111111112e-06
152 152 0.00019531249999999998
153 152 1.0850694444444445e-05
183 152 1.0850694444444445e-05
184 152 1.0850694444444445e-05
1390 152 2.7126736111111112e-06
1391 152 2.7126736111111112e-06
1392 152 1.6276041666666666e-05
1394 152 1.6276041666666666e-05
1395 152 2.7126736111111112e-06
1485 152 1.6276041666666666e-05
1487 152 2.7126736111111112e-06
1488 152 1.6276041666666666e-05
1489 152 1.6276041666666666e-05
1490 152 1.6276041666666666e-05
1492 152 2.7126736111111112e-06
1583 152 2.7126736111111112e-06
153 153 0.00019531249999999998
154 153 1.0850694444444445e-05
184 153 1.0850694444444445e-05
185 153 1.0850694444444445e-05
1393 153 2.7126736111111112e-06
1394 153 2.7126736111111112e-06
1395 153 1.6276041666666666e-05
1397 153 1.6276041666666666e-05
1398 153 2.7126736111111112e-06
1488 153 1.6276041666666666e-05
1490 153 2.7126736111111112e-06
1491 153 1.6276041666666666e-05
1492 153 1.6276041666666666e-05
1493 153 1.6276041666666666e-05
1495 153 2.7126736111111112e-06
1586 153 2.7126736111111112e-06
154 154 0.00019531249999999998
155 154 1.0850694444444445e-05
185 154 1.0850694444444445e-05
186 154 1.0850694444444445e-05
1396 154 2.7126736111111112e-06
1397 154 2.7126736111111112e-06
1398 154 1.6276041666666666e-05
1400 154 1.6276041666666666e-05
1401 154 2.7126736111111112e-06
1491 154 1.6276041666666666e-05
1493 154 2.7126736111111112e-06
1494 154 1.6276041666666666e-05
1495 154 1.6276041666666666e-05
1496 154 1.6276041666666666e-05
1498 154 2.7126736111111112e-06
1589 154 2.7126736111111112e-06
155 155 0.00019531249999999998
186 155 1.0850694444444445e-05
1399 155 2.7126736111111112e-06
1400 155 2.7126736111111112e-06
1401 155 1.6276041666666666e-05
1403 155 1.6276041666666666e-05
1404 155 2.7126736111111112e-06
1494 155 1.6276041666666666e-05
1496 155 2.7126736111111112e-06
1497 155 1.6276041666666666e-05
1498 155 1.6276041666666666e-05
1499 155 1.6276041666666666e-05
1592 155 2.7126736111111112e-06
156 156 0.00019531249999999998
157 156 1.0850694444444445e-05
187 156 1.0850694444444445e-05
188 156 1.0850694444444445e-05
1405 156 2.7126736111111112e-06
1406 156 1.6276041666666666e-05
1408 156 1.6276041666666666e-05
1409 156 2.7126736111111112e-06
1500 156 1.6276041666666666e-05
1501 156 2.7126736111111112e-06
1502 156 1.6276041666666666e-05
1503 156 1.6276041666666666e-05
1504 156 1.6276041666666666e-05
1506 156 2.7126736111111112e-06
1597 156 2.7126736111111112e-06
157 157 0.00019531249999999998
158 157 1.0850694444444445e-05
188 157 1.0850694444444445e-05
189 157 1.0850694444444445e-05
1407 157 2.7126736111111112e-06
1408 157 2.7126736111111112e-06
1409 157 1.6276041666666666e-05
1411 157 1.6276041666666666e-05
1412 157 2.7126736111111112e-06
1502 157 1.6276041666666666e-05
1504 157 2.7126736111111112e-06
1505 157 1.6276041666666666e-05
1506 157 1.6276041666666666e-05
1507 157 1.6276041666666666e-05
1509 157 2.7126736111111112e-06
1600 157 2.7126736111111112e-06
158 158 0.00019531249999999998
159 158 1.0850694444444445e-05
189 158 1.0850694444444445e-05
190 158 1.0850694444444445e-05
1410 158 2.7126736111111112e-06
1411 158 2.7126736111111112e-06
1412 158 1.6276041666666666e-05
1414 158 1.6276041666666666e-05
1415 158 2.7126736111111112e-06
1505 158 1.6276041666666666e-05
1507 158 2.7126736111111112e-06
1508 158 1.6276041666666666e-05
1509 158 1.6276041666666666e-05
1510 158 1.6276041666666666e-05
1512 158 2.7126736111111112e-06
1603 158 2.7126736111111112e-06
159 159 0.00019531249999999998
160 159 1.0850694444444445e-05
190 159 1.0850694444444445e-05
191 159 1.0850694444444445e-05
1413 159 2.7126736111111112e-06
1414 159 2.7126736111111112e-06
1415 159 1.6276041666666666e-05
1417 159 1.6276041666666666e-05
1418 159 2.7126736111111112e-06
1508 159 1.6276041666666666e-05
1510 159 2.7126736111111112e-06
1511 159 1.6276041666666666e-05
1512 159 1.6276041666666666e-05
1513 159 1.6276041666666666e-05
1515 159 2.7126736111111112e-06
1606 159 2.7126736111111112e-06
160 160 0.00019531249999999998
161 160 1.0850694444444445e-05
191 160 1.0850694444444445e-05
192 160 1.0850694444444445e-05
1416 160 2.7126736111111112e-06
1417 160 2.7126736111111112e-06
1418 160 1.6276041666666666e-05
1420 160 1.6276041666666666e-05
1421 160 2.7126736111111112e-06
1511 160 1.6276041666666666e-05
1513 160 2.7126736111111112e-06
1514 160 1.6276041666666666e-05
1515 160 1.6276041666666666e-05
1516 160 1.6276041666666666e-05
1518 160 2.7126736111111112e-06
1609 160 2.7126736111111112e-06
161 161 0.00019531249999999998
162 161 1.0850694444444445e-05
192 161 1.0850694444444445e-05
193 161 1.0850694444444445e-05
1419 161 2.7126736111111112e-06
1420 161 2.7126736111111112e-06
1421 161 1.6276041666666666e-05
1423 161 1.6276041666666666e-05
1424 161 2.7126736111111112e-06
1514 161 1.6276041666666666e-05
1516 161 2.7126736111111112e-06
1517 161 1.6276041666666666e-05
1518 161 1.6276041666666666e-05
1519 161 1.6276041666666666e-05
1521 161 2.7126736111111112e-06
1612 161 2.7126736111111112e-06
162 162 0.00019531249999999998
163 162 1.0850694444444445e-05
193 162 1.0850694444444445e-05
194 162 1.0850694444444445e-05
1422 162 2.7126736111111112e-06
1423 162 2.7126736111111112e-06
1424 162 1.6276041666666666e-05
1426 162 1.6276041666666666e-05
1427 162 2.7126736111111112e-06
1517 162 1.6276041666666666e-05
1519 162 2.7126736111111112e-06
1520 162 1.6276041666666666e-05
1521 162 1.6276041666666666e-05
1522 162 1.6276041666666666e-05
1524 162 2.7126736111111112e-06
1615 162 2.7126736111111112e-06
163 163 0.00019531249999999998
164 163 1.0850694444444445e-05
194 163 1.0850694444444445e-05
195 163 1.0850694444444445e-05
1425 163 2.7126736111111112e-06
1426 163 2.7126736111111112e-06
1427 163 1.6276041666666666e-05
1429 163 1.6276041666666666e-05
1430 163 2.7126736111111112e-06
1520 163 1.6276041666666666e-05
1522 163 2.7126736111111112e-06
1523 163 1.6276041666666666e-05
1524 163 1.6276041666666666e-05
1525 163 1.6276041666666666e-05
1527 163 2.7126736111111112e-06
1618 163 2.7126736111111112e-06
164 164 0.00019531249999999998
165 164 1.0850694444444445e-05
195 164 1.0850694444444445e-05
196 164 1.0850694444444445e-05
1428 164 2.7126736111111112e-06
1429 164 2.7126736111111112e-06
1430 164 1.6276041666666666e-05
1432 164 1.6276041666666666e-05
1433 164 2.7126736111111112e-06
1523 164 1.6276041666666666e-05
1525 164 2.7126736111111112e-06
1526 164 1.6276041666666666e-05
1527 164 1.6276041666666666e-05
1528 164 1.6276041666666666e-05
1530 164 2.7126736111111112e-06
1621 164 2.7126736111111112e-06
165 165 0.00019531249999999998
166 165 1.0850694444444445e-05
196 165 1.0850694444444445e-05
197 165 1.0850694444444445e-05
1431 165 2.7126736111111112e-06
1432 165 2.7126736111111112e-06
1433 165 1.6276041666666666e-05
1435 165 1.6276041666666666e-05
1436 165 2.7126736111111112e-06
1526 165 1.6276041666666666e-05
1528 165 2.7126736111111112e-06
1529 165 1.6276041666666666e-05
1530 165 1.6276041666666666e-05
1531 165 1.6276041666666666e-05
1533 165 2.7126736111111112e-06
1624 165 2.7126736111111112e-06
166 166 0.00019531249999999998
167 166 1.0850694444444445e-05
197 166 1.0850694444444445e-05
198 166 1.0850694444444445e-05
1434 166 2.7126736111111112e-06
1435 166 2.7126736111111112e-06
1436 166 1.6276041666666666e-05
1438 166 1.6276041666666666e-05
1439 166 2.7126736111111112e-06
1529 166 1.6276041666666666e-05
1531 166 2.7126736111111112e-06
1532 166 1.6276041666666666e-05
1533 166 1.6276041666666666e-05
1534 166 1.6276041666666666e-05
1536 166 2.7126736111111112e-06
1627 166 2.7126736111111112e-06
167 167 0.00019531249999999998
168 167 1.0850694444444445e-05
198 167 1.0850694444444445e-05
199 167 1.0850694444444445e-05
1437 167 2.7126736111111112e-06
1438 167 2.7126736111111112e-06
1439 167 1.6276041666666666e-05
1441 167 1.6276041666666666e-05
1442 167 2.7126736111111112e-06
1532 167 1.6276041666666666e-05
1534 167 2.7126736111111112e-06
1535 167 1.6276041666666666e-05
1536 167 1.6276041666666666e-05
1537 167 1.6276041666666666e-05
1539 167 2.7126736111111112e-06
1630 167 2.7126736111111112e-06
168 168 0.00019531249999999998
169 168 1.0850694444444445e-05
199 168 1.0850694444444445e-05
200 168 1.0850694444444445e-05
1440 168 2.7126736111111112e-06
1441 168 2.7126736111111112e-06
1442 168 1.6276041666666666e-05
1444 168 1.6276041666666666e-05
1445 168 2.7126736111111112e-06
1535 168 1.6276041666666666e-05
1537 168 2.7126736111111112e-06
1538 168 1.6276041666666666e-05
1539 168 1.6276041666666666e-05
1540 168 1.6276041666666666e-05
1542 168 2.7126736111111112e-06
1633 168 2.7126736111111112e-06
169 169 0.00019531249999999998
170 169 1.0850694444444445e-05
200 169 1.0850694444444445e-05
201 169 1.0850694444444445e-05
1443 169 2.7126736111111112e-06
1444 169 2.7126736111111112e-06
1445 169 1.6276041666666666e-05
1447 169 1.6276041666666666e-05
1448 169 2.7126736111111112e-06
1538 169 1.6276041666666666e-05
1540 169 2.7126736111111112e-06
1541 169 1.6276041666666666e-05
1542 169 1.6276041666666666e-05
1543 169 1.6276041666666666e-05
1545 169 2.7126736111111112e-06
1636 169 2.7126736111111112e-06
170 170 0.00019531249999999998
171 170 1.0850694444444445e-05
201 170 1.0850694444444445e-05
202 170 1.0850694444444445e-05
1446 170 2.7126736111111112e-06
1447 170 2.7126736111111112e-06
1448 170 1.6276041666666666e-05
1450 170 1.6276041666666666e-05
1451 170 2.7126736111111112e-06
1541 170 1.6276041666666666e-05
1543 170 2.7126736111111112e-06
1544 170 1.6276041666666666e-05
1545 170 1.6276041666666666e-05
1546 170 1.6276041666666666e-05
1548 170 2.7126736111111112e-06
1639 170 2.7126736111111112e-06
171 171 0.00019531249999999998
172 171 1.0850694444444445e-05
202 171 1.0850694444444445e-05
203 171 1.0850694444444445e-05
1449 171 2.7126736111111112e-06
1450 171 2.7126736111111112e-06
1451 171 1.6276041666666666e-05
1453 171 1.6276041666666666e-05
1454 171 2.7126736111111112e-06
1544 171 1.6276041666666666e-05
1546 171 2.7126736111111112e-06
1547 171 1.6276041666666666e-05
1548 171 1.6276041666666666e-05
1549 171 1.6276041666666666e-05
1551 171 2.7126736111111112e-06
1642 171 2.7126736111111112e-06
172 172 0.00019531249999999998
173 172 1.0850694444444445e-05
203 172 1.0850694444444445e-05
204 172 1.0850694444444445e-05
1452 172 2.7126736111111112e-06
1453 172 2.7126736111111112e-06
1454 172 1.6276041666666666e-05
1456 172 1.6276041666666666e-05
1457 172 2.7126736111111112e-06
1547 172 1.6276041666666666e-05
1549 172 2.7126736111111112e-06
1550 172 1.6276041666666666e-05
1551 172 1.6276041666666666e-05
1552 172 1.6276041666666666e-05
1554 172 2.7126736111111112e-06
1645 172 2.7126736111111112e-06
173 173 0.00019531249999999998
174 173 1.0850694444444445e-05
204 173 1.0850694444444445e-05
205 173 1.0850694444444445e-05
1455 173 2.7126736111111112e-06
1456 173 2.7126736111111112e-06
1457 173 1.6276041666666666e-05
1459 173 1.6276041666666666e-05
1460 173 2.7126736111111112e-06
1550 173 1.6276041666666666e-05
1552 173 2.7126736111111112e-06
1553 173 1.6276041666666666e-05
1554 173 1.6276041666666666e-05
1555 173 1.6276041666666666e-05
1557 173 2.7126736111111112e-06
1648 173 2.7126736111111112e-06
174 174 0.00019531249999999998
175 174 1.0850694444444445e-05
205 174 1.0850694444444445e-05
206 174 1.0850694444444445e-05
1458 174 2.7126736111111112e-06
1459 174 2.7126736111111112e-06
1460 174 1.6276041666666666e-05
1462 174 1.6276041666666666e-05
1463 174 2.7126736111111112e-06
1553 174 1.6276041666666666e-05
1555 174 2.7126736111111112e-06
1556 174 1.6276041666666666e-05
1557 174 1.6276041666666666e-05
1558 174 1.6276041666666666e-05
1560 174 2.7126736111111112e-06
1651 174 2.7126736111111112e-06
175 175 0.00019531249999999998
176 175 1.0850694444444445e-05
206 175 1.0850694444444445e-05
207 175 1.0850694444444445e-05
1461 175 2.7126736111111112e-06
1462 175 2.7126736111111112e-06
1463 175 1.6276041666666666e-05
1465 175 1.6276041666666666e-05
1466 175 2.7126736111111112e-06
1556 175 1.6276041666666666e-05
1558 175 2.7126736111111112e-06
1559 175 1.6276041666666666e-05
1560 175 1.6276041666666666e-05
1561 175 1.6276041666666666e-05
1563 175 2.7126736111111112e-06
1654 175 2.7126736111111112e-06
176 176 0.00019531249999999998
177 176 1.0850694444444445e-05
207 176 1.0850694444444445e-05
208 176 1.0850694444444445e-05
1464 176 2.7126736111111112e-06
1465 176 2.7126736111111112e-06
1466 176 1.6276041666666666e-05
1468 176 1.6276041666666666e-05
1469 176 2.7126736111111112e-06
1559 176 1.6276041666666666e-05
1561 176 2.7126736111111112e-06
1562 176 1.6276041666666666e-05
1563 176 1.6276041666666666e-05
1564 176 1.6276041666666666e-05
1566 176 2.7126736111111112e-06
1657 176 2.7126736111111112e-06
177 177 0.00019531249999999998
178 177 1.0850694444444445e-05
208 177 1.0850694444444445e-05
209 177 1.0850694444444445e-05
1467 177 2.7126736111111112e-06
1468 177 2.7126736111111112e-06
1469 177 1.6276041666666666e-05
1471 177 1.6276041666666666e-05
1472 177 2.7126736111111112e-06
1562 177 1.6276041666666666e-05
1564 177 2.7126736111111112e-06
1565 177 1.6276041666666666e-05
1566 177 1.6276041666666666e-05
1567 177 1.6276041666666666e-05
1569 177 2.7126736111111112e-06
1660 177 2.7126736111111112e-06
178 178 0.00019531249999999998
179 178 1.0850694444444445e-05
209 178 1.0850694444444445e-05
210 178 1.0850694444444445e-05
1470 178 2.7126736111111112e-06
1471 178 2.7126736111111112e-06
1472 178 1.6276041666666666e-05
1474 178 1.6276041666666666e-05
1475 178 2.7126736111111112e-06
1565 178 1.6276041666666666e-05
1567 178 2.7126736111111112e-06
1568 178 1.6276041666666666e-05
1569 178 1.6276041666666666e-05
1570 178 1.6276041666666666e-05
1572 178 2.7126736111111112e-06
1663 178 2.7126736111111112e-06
179 179 0.00019531249999999998
180 179 1.0850694444444445e-05
210 179 1.0850694444444445e-05
211 179 1.0850694444444445e-05
1473 179 2.7126736111111112e-06
1474 179 2.7126736111111112e-06
1475 179 1.6276041666666666e-05
1477 179 1.6276041666666666e-05
1478 179 2.7126736111111112e-06
1568 179 1.6276041666666666e-05
1570 179 2.7126736111111112e-06
1571 179 1.6276041666666666e-05
1572 179 1.6276041666666666e-05
1573 179 1.6276041666666666e-05
1575 179 2.7126736111111112e-06
1666 179 2.7126736111111112e-06
180 180 0.00019531249999999998
181 180 1.0850694444444445e-05
211 180 1.0850694444444445e-05
212 180 1.0850694444444445e-05
1476 180 2.7126736111111112e-06
1477 180 2.7126736111111112e-06
1478 180 1.6276041666666666e-05
1480 180 1.6276041666666666e-05
1481 180 2.7126736111111112e-06
1571 180 1.6276041666666666e-05
1573 180 2.7126736111111112e-06
1574 180 1.6276041666666666e-05
1575 180 1.6276041666666666e-05
1576 180 1.6276041666666666e-05
1578 180 2.7126736111111112e-06
1669 180 2.7126736111111112e-06
181 181 0.00019531249999999998
182 181 1.0850694444444445e-05
212 181 1.0850694444444445e-05
213 181 1.0850694444444445e-05
1479 181 2.7126736111111112e-06
1480 181 2.7126736111111112e-06
1481 181 1.6276041666666666e-05
1483 181 1.6276041666666666e-05
1484 181 2.7126736111111112e-06
1574 181 1.6276041666666666e-05
1576 181 2.7126736111111112e-06
1577 181 1.6276041666666666e-05
1578 181 1.6276041666666666e-05
1579 181 1.6276041666666666e-05
1581 181 2.7126736111111112e-06
1672 181 2.7126736111111112e-06
182 182 0.00019531249999999998
183 182 1.0850694444444445e-05
213 182 1.0850694444444445e-05
214 182 1.0850694444444445e-05
1482 182 2.7126736111111112e-06
1483 182 2.7126736111111112e-06
1484 182 1.6276041666666666e-05
1486 182 1.6276041666666666e-05
1487 182 2.7126736111111112e-06
1577 182 1.6276041666666666e-05
1579 182 2.7126736111111112e-06
1580 182 1.6276041666666666e-05
1581 182 1.6276041666666666e-05
1582 182 1.6276041666666666e-05
1584 182 2.7126736111111112e-06
1675 182 2.7126736111111112e-06
183 183 0.00019531249999999998
184 183 1.0850694444444445e-05
214 183 1.0850694444444445e-05
215 183 1.0850694444444445e-05
1485 183 2.7126736111111112e-06
1486 183 2.7126736111111112e-06
1487 183 1.6276041666666666e-05
1489 183 1.6276041666666666e-05
1490 183 2.7126736111111112e-06
1580 183 1.6276041666666666e-05
1582 183 2.7126736111111112e-06
1583 183 1.6276041666666666e-05
1584 183 1.6276041666666666e-05
1585 183 1.6276041666666666e-05
1587 183 2.7126736111111112e-06
1678 183 2.7126736111111112e-06
184 184 0.00019531249999999998
185 184 1.0850694444444445e-05
215 184 1.0850694444444445e-05
216 184 1.0850694444444445e-05
1488 184 2.7126736111111112e-06
1489 184 2.7126736111111112e-06
1490 184 1.6276041666666666e-05
1492 184 1.6276041666666666e-05
1493 184 2.7126736111111112e-06
1583 184 1.6276041666666666e-05
1585 184 2.7126736111111112e-06
1586 184 1.6276041666666666e-05
1587 184 1.6276041666666666e-05
1588 184 1.6276041666666666e-05
1590 184 2.7126736111111112e-06
1681 184 2.7126736111111112e-06
185 185 0.00019531249999999998
186 185 1.0850694444444445e-05
216 185 1.0850694444444445e-05
217 185 1.0850694444444445e-05
1491 185 2.7126736111111112e-06
1492 185 2.7126736111111112e-06
1493 185 1.6276041666666666e-05
1495 185 1.6276041666666666e-05
1496 185 2.7126736111111112e-06
1586 185 1.6276041666666666e-05
1588 185 2.7126736111111112e-06
1589 185 1.6276041666666666e-05
1590 185 1.6276041666666666e-05
1591 185 1.6276041666666666e-05
1593 185 2.7126736111111112e-06
1684 185 2.7126736111111112e-06
186 186 0.00019531249999999998
217 186 1.0850694444444445e-05
1494 186 2.7126736111111112e-06
1495 186 2.7126736111111112e-06
1496 186 1.6276041666666666e-05
1498 186 1.6276041666666666e-05
1499 186 2.7126736111111112e-06
1589 186 1.6276041666666666e-05
1591 186 2.7126736111111112e-06
1592 186 1.6276041666666666e-05
1593 186 1.6276041666666666e-05
1594 186 1.6276041666666666e-05
1687 186 2.7126736111111112e-06
187 187 0.00019531249999999998
188 187 1.0850694444444445e-05
218 187 1.0850694444444445e-05
219 187 1.0850694444444445e-05
1500 187 2.7126736111111112e-06
1501 187 1.6276041666666666e-05
1503 187 1.6276041666666666e-05
1504 187 2.7126736111111112e-06
1595 187 1.6276041666666666e-05
1596 187 2.7126736111111112e-06
1597 187 1.6276041666666666e-05
1598 187 1.6276041666666666e-05
1599 187 1.6276041666666666e-05
1601 187 2.7126736111111112e-06
1692 187 2.7126736111111112e-06
188 188 0.00019531249999999998
189 188 1.0850694444444445e-05
219 188 1.0850694444444445e-05
220 188 1.0850694444444445e-05
1502 188 2.7126736111111112e-06
1503 188 2.7126736111111112e-06
1504 188 1.6276041666666666e-05
1506 188 1.6276041666666666e-05
1507 188 2.7126736111111112e-06
1597 188 1.6276041666666666e-05
1599 188 2.7126736111111112e-06
1600 188 1.6276041666666666e-05
1601 188 1.6276041666666666e-05
1602 188 1.6276041666666666e-05
1604 188 2.7126736111111112e-06
1695 188 2.7126736111111112e-06
189 189 0.00019531249999999998
190 189 1.0850694444444445e-05
220 189 1.0850694444444445e-05
221 189 1.0850694444444445e-05
1505 189 2.7126736111111112e-06
1506 189 2.7126736111111112e-06
1507 189 1.6276041666666666e-05
1509 189 1.6276041666666666e-05
1510 189 2.7126736111111112e-06
1600 189 1.6276041666666666e-05
1602 189 2.7126736111111112e-06
1603 189 1.6276041666666666e-05
1604 189 1.6276041666666666e-05
1605 189 1.6276041666666666e-05
1607 189 2.7126736111111112e-06
1698 189 2.7126736111111112e-06
190 190 0.00019531249999999998
191 190 1.0850694444444445e-05
221 190 1.0850694444444445e-05
222 190 1.0850694444444445e-05
1508 190 2.7126736111111112e-06
1509 190 2.7126736111111112e-06
1510 190 1.6276041666666666e-05
1512 190 1.6276041666666666e-05
1513 190 2.7126736111111112e-06
1603 190 1.6276041666666666e-05
1605 190 2.7126736111111112e-06
1606 190 1.6276041666666666e-05
1607 190 1.6276041666666666e-05
1608 190 1.6276041666666666e-05
1610 190 2.7126736111111112e-06
1701 190 2.7126736111111112e-06
191 191 0.00019531249999999998
192 191 1.0850694444444445e-05
222 191 1.0850694444444445e-05
223 191 1.0850694444444445e-05
1511 191 2.7126736111111112e-06
1512 191 2.7126736111111112e-06
1513 191 1.6276041666666666e-05
1515 191 1.6276041666666666e-05
1516 191 2.7126736111111112e-06
1606 191 1.6276041666666666e-05
1608 191 2.7126736111111112e-06
1609 191 1.6276041666666666e-05
1610 191 1.6276041666666666e-05
1611 191 1.6276041666666666e-05
1613 191 2.7126736111111112e-06
1704 191 2.7126736111111112e-06
192 192 0.00019531249999999998
193 192 1.0850694444444445e-05
223 192 1.0850694444444445e-05
224 192 1.0850694444444445e-05
1514 192 2.7126736111111112e-06
1515 192 2.7126736111111112e-06
1516 192 1.6276041666666666e-05
1518 192 1.6276041666666666e-05
1519 192 2.7126736111111112e-06
1609 192 1.6276041666666666e-05
1611 192 2.7126736111111112e-06
1612 192 1.6276041666666666e-05
1613 192 1.6276041666666666e-05
1614 192 1.6276041666666666e-05
1616 192 2.7126736111111112e-06
1707 192 2.7126736111111112e-06
193 193 0.00019531249999999998
194 193 1.0850694444444445e-05
224 193 1.0850694444444445e-05
225 193 1.0850694444444445e-05
1517 193 2.7126736111111112e-06
1518 193 2.7126736111111112e-06
1519 193 1.6276041666666666e-05
1521 193 1.6276041666666666e-05
1522 193 2.7126736111111112e-06
1612 193 1.6276041666666666e-05
1614 193 2.7126736111111112e-06
1615 193 1.6276041666666666e-05
1616 193 1.6276041666666666e-05
1617 193 1.6276041666666666e-05
1619 193 2.7126736111111112e-06
1710 193 2.7126736111111112e-06
194 194 0.00019531249999999998
195 194 1.0850694444444445e-05
225 194 1.0850694444444445e-05
226 194 1.0850694444444445e-05
1520 194 2.7126736111111112e-06
1521 194 2.7126736111111112e-06
1522 194 1.6276041666666666e-05
1524 194 1.6276041666666666e-05
1525 194 2.7126736111111112e-06
1615 194 1.6276041666666666e-05
1617 194 2.7126736111111112e-06
1618 194 1.6276041666666666e-05
1619 194 1.6276041666666666e-05
1620 194 1.6276041666666666e-05
1622 194 2.7126736111111112e-06
1713 194 2.7126736111111112e-06
195 195 0.00019531249999999998
196 195 1.0850694444444445e-05
226 195 1.0850694444444445e-05
227 195 1.0850694444444445e-05
1523 195 2.7126736111111112e-06
1524 195 2.7126736111111112e-06
1525 195 1.6276041666666666e-05
1527 195 1.6276041666666666e-05
1528 195 2.7126736111111112e-06
1618 195 1.6276041666666666e-05
1620 195 2.7126736111111112e-06
1621 195 1.6276041666666666e-05
1622 195 1.6276041666666666e-05
1623 195 1.6276041666666666e-05
1625 195 2.7126736111111112e-06
1716 195 2.7126736111111112e-06
196 196 0.00019531249999999998
197 196 1.0850694444444445e-05
227 196 1.0850694444444445e-05
228 196 1.0850694444444445e-05
1526 196 2.7126736111111112e-06
1527 196 2.7126736111111112e-06
1528 196 1.6276041666666666e-05
1530 196 1.6276041666666666e-05
1531 196 2.7126736111111112e-06
1621 196 1.6276041666666666e-05
1623 196 2.7126736111111112e-06
1624 196 1.6276041666666666e-05
1625 196 1.6276041666666666e-05
1626 196 1.6276041666666666e-05
1628 196 2.7126736111111112e-06
1719 196 2.7126736111111112e-06
197 197 0.00019531249999999998
198 197 1.0850694444444445e-05
228 197 1.0850694444444445e-05
229 197 1.0850694444444445e-05
1529 197 2.7126736111111112e-06
1530 197 2.7126736111111112e-06
1531 197 1.6276041666666666e-05
1533 197 1.6276041666666666e-05
1534 197 2.7126736111111112e-06
1624 197 1.6276041666666666e-05
1626 197 2.7126736111111112e-06
1627 197 1.6276041666666666e-05
1628 197 1.6276041666666666e-05
1629 197 1.6276041666666666e-05
1631 197 2.7126736111111112e-06
1722 197 2.7126736111111112e-06
198 198 0.00019531249999999998
199 198 1.0850694444444445e-05
229 198 1.0850694444444445e-05
230 198 1.0850694444444445e-05
1532 198 2.7126736111111112e-06
1533 198 2.7126736111111112e-06
1534 198 1.6276041666666666e-05
1536 198 1.6276041666666666e-05
1537 198 2.7126736111111112e-06
1627 198 1.6276041666666666e-05
1629 198 2.7126736111111112e-06
1630 198 1.6276041666666666e-05
1631 198 1.6276041666666666e-05
1632 198 1.6276041666666666e-05
1634 198 2.7126736111111112e-06
1725 198 2.7126736111111112e-06
199 199 0.00019531249999999998
200 199 1.0850694444444445e-05
230 199 1.0850694444444445e-05
231 199 1.0850694444444445e-05
1535 199 2.7126736111111112e-06
1536 199 2.7126736111111112e-06
1537 199 1.6276041666666666e-05
1539 199 1.6276041666666666e-05
1540 199 2.7126736111111112e-06
1630 199 1.6276041666666666e-05
1632 199 2.7126736111111112e-06
1633 199 1.6276041666666666e-05
1634 199 1.6276041666666666e-05
1635 199 1.6276041666666666e-05
1637 199 2.7126736111111112e-06
1728 199 2.7126736111111112e-06
200 200 0.00019531249999999998
201 200 1.0850694444444445e-05
231 200 1.0850694444444445e-05
232 200 1.0850694444444445e-05
1538 200 2.7126736111111112e-06
1539 200 2.7126736111111112e-06
1540 200 1.6276041666666666e-05
1542 200 1.6276041666666666e-05
1543 200 2.7126736111111112e-06
1633 200 1.6276041666666666e-05
1635 200 2.7126736111111112e-06
1636 200 1.6276041666666666e-05
1637 200 1.6276041666666666e-05
1638 200 1.6276041666666666e-05
1640 200 2.7126736111111112e-06
1731 200 2.7126736111111112e-06
201 201 0.00019531249999999998
202 201 1.0850694444444445e-05
232 201 1.0850694444444445e-05
233 201 1.0850694444444445e-05
1541 201 2.7126736111111112e-06
1542 201 2.7126736111111112e-06
1543 201 1.6276041666666666e-05
1545 201 1.6276041666666666e-05
1546 201 2.7126736111111112e-06
1636 201 1.6276041666666666e-05
1638 201 2.7126736111111112e-06
1639 201 1.6276041666666666e-05
1640 201 1.6276041666666666e-05
1641 201 1.6276041666666666e-05
1643 201 2.7126736111111112e-06
1734 201 2.7126736111111112e-06
202 202 0.00019531249999999998
203 202 1.0850694444444445e-05
233 202 1.0850694444444445e-05
234 202 1.0850694444444445e-05
1544 202 2.7126736111111112e-06
1545 202 2.7126736111111112e-06
1546 202 1.6276041666666666e-05
1548 202 1.6276041666666666e-05
1549 202 2.7126736111111112e-06
1639 202 1.6276041666666666e-05
1641 202 2.7126736111111112e-06
1642 202 1.6276041666666666e-05
1643 202 1.6276041666666666e-05
1644 202 1.6276041666666666e-05
1646 202 2.7126736111111112e-06
1737 202 2.7126736111111112e-06
203 203 0.00019531249999999998
204 203 1.0850694444444445e-05
234 203 1.0850694444444445e-05
235 203 1.0850694444444445e-05
1547 203 2.7126736111111112e-06
1548 203 2.7126736111111112e-06
1549 203 1.6276041666666666e-05
1551 203 1.6276041666666666e-05
1552 203 2.7126736111111112e-06
1642 203 1.6276041666666666e-05
1644 203 2.7126736111111112e-06
1645 203 1.6276041666666666e-05
1646 203 1.6276041666666666e-05
1647 203 1.6276041666666666e-05
1649 203 2.7126736111111112e-06
1740 203 2.7126736111111112e-06
204 204 0.00019531249999999998
205 204 1.0850694444444445e-05
235 204 1.0850694444444445e-05
236 204 1.0850694444444445e-05
1550 204 2.7126736111111112e-06
1551 204 2.7126736111111112e-06
1552 204 1.6276041666666666e-05
1554 204 1.6276041666666666e-05
1555 204 2.7126736111111112e-06
1645 204 1.6276041666666666e-05
1647 204 2.7126736111111112e-06
1648 204 1.6276041666666666e-05
1649 204 1.6276041666666666e-05
1650 204 1.6276041666666666e-05
1652 204 2.7126736111111112e-06
1743 204 2.7126736111111112e-06
205 205 0.00019531249999999998
206 205 1.0850694444444445e-05
236 205 1.0850694444444445e-05
237 205 1.0850694444444445e-05
1553 205 2.7126736111111112e-06
1554 205 2.7126736111111112e-06
1555 205 1.6276041666666666e-05
1557 205 1.6276041666666666e-05
1558 205 2.7126736111111112e-06
1648 205 1.6276041666666666e-05
1650 205 2.7126736111111112e-06
1651 205 1.6276041666666666e-05
1652 205 1.6276041666666666e-05
1653 205 1.6276041666666666e-05
1655 205 2.7126736111111112e-06
1746 205 2.7126736111111112e-06
206 206 0.00019531249999999998
207 206 1.0850694444444445e-05
237 206 1.0850694444444445e-05
238 206 1.0850694444444445e-05
1556 206 2.7126736111111112e-06
1557 206 2.7126736111111112e-06
1558 206 1.6276041666666666e-05
1560 206 1.6276041666666666e-05
1561 206 2.7126736111111112e-06
1651 206 1.6276041666666666e-05
1653 206 2.7126736111111112e-06
1654 206 1.6276041666666666e-05
1655 206 1.6276041666666666e-05
1656 206 1.6276041666666666e-05
1658 206 2.7126736111111112e-06
1749 206 2.7126736111111112e-06
207 207 0.00019531249999999998
208 207 1.0850694444444445e-05
238 207 1.0850694444444445e-05
239 207 1.0850694444444445e-05
1559 207 2.7126736111111112e-06
1560 207 2.7126736111111112e-06
1561 207 1.6276041666666666e-05
1563 207 1.6276041666666666e-05
1564 207 2.7126736111111112e-06
1654 207 1.6276041666666666e-05
1656 207 2.7126736111111112e-06
1657 207 1.6276041666666666e-05
1658 207 1.6276041666666666e-05
1659 207 1.6276041666666666e-05
1661 207 2.7126736111111112e-06
1752 207 2.7126736111111112e-06
208 208 0.00019531249999999998
209 208 1.0850694444444445e-05
239 208 1.0850694444444445e-05
240 208 1.0850694444444445e-05
1562 208 2.7126736111111112e-06
1563 208 2.7126736111111112e-06
1564 208 1.6276041666666666e-05
1566 208 1.6276041666666666e-05
1567 208 2.7126736111111112e-06
1657 208 1.6276041666666666e-05
1659 208 2.7126736111111112e-06
1660 208 1.6276041666666666e-05
1661 208 1.6276041666666666e-05
1662 208 1.6276041666666666e-05
1664 208 2.7126736111111112e-06
1755 208 2.7126736111111112e-06
209 209 0.00019531249999999998
210 209 1.0850694444444445e-05
240 209 1.0850694444444445e-05
241 209 1.0850694444444445e-05
1565 209 2.7126736111111112e-06
1566 209 2.7126736111111112e-06
1567 209 1.6276041666666666e-05
1569 209 1.6276041666666666e-05
1570 209 2.7126736111111112e-06
1660 209 1.6276041666666666e-05
1662 209 2.7126736111111112e-06
1663 209 1.6276041666666666e-05
1664 209 1.6276041666666666e-05
1665 209 1.6276041666666666e-05
1667 209 2.7126736111111112e-06
1758 209 2.7126736111111112e-06
210 210 0.00019531249999999998
211 210 1.0850694444444445e-05
241 210 1.0850694444444445e-05
242 210 1.0850694444444445e-05
1568 210 2.7126736111111112e-06
1569 210 2.7126736111111112e-06
1570 210 1.6276041666666666e-05
1572 210 1.6276041666666666e-05
1573 210 2.7126736111111112e-06
1663 210 1.6276041666666666e-05
1665 210 2.7126736111111112e-06
1666 210 1.6276041666666666e-05
1667 210 1.6276041666666666e-05
1668 210 1.6276041666666666e-05
1670 210 2.7126736111111112e-06
1761 210 2.7126736111111112e-06
211 211 0.00019531249999999998
212 211 1.0850694444444445e-05
242 211 1.0850694444444445e-05
243 211 1.0850694444444445e-05
1571 211 2.7126736111111112e-06
1572 211 2.7126736111111112e-06
1573 211 1.6276041666666666e-05
1575 211 1.6276041666666666e-05
1576 211 2.7126736111111112e-06
1666 211 1.6276041666666666e-05
1668 211 2.7126736111111112e-06
1669 211 1.6276041666666666e-05
1670 211 1.6276041666666666e-05
1671 211 1.6276041666666666e-05
1673 211 2.7126736111111112e-06
1764 211 2.7126736111111112e-06
212 212 0.00019531249999999998
213 212 1.0850694444444445e-05
243 212 1.0850694444444445e-05
244 212 1.0850694444444445e-05
1574 212 2.7126736111111112e-06
1575 212 2.7126736111111112e-06
1576 212 1.6276041666666666e-05
1578 212 1.6276041666666666e-05
1579 212 2.7126736111111112e-06
1669 212 1.6276041666666666e-05
1671 212 2.7126736111111112e-06
1672 212 1.6276041666666666e-05
1673 212 1.6276041666666666e-05
1674 212 1.6276041666666666e-05
1676 212 2.7126736111111112e-06
1767 212 2.7126736111111112e-06
213 213 0.00019531249999999998
214 213 1.0850694444444445e-05
244 213 1.0850694444444445e-05
245 213 1.0850694444444445e-05
1577 213 2.7126736111111112e-06
1578 213 2.7126736111111112e-06
1579 213 1.6276041666666666e-05
1581 213 1.6276041666666666e-05
1582 213 2.7126736111111112e-06
1672 213 1.6276041666666666e-05
1674 213 2.7126736111111112e-06
1675 213 1.6276041666666666e-05
1676 213 1.6276041666666666e-05
1677 213 1.6276041666666666e-05
1679 213 2.7126736111111112e-06
1770 213 2.7126736111111112e-06
214 214 0.00019531249999999998
215 214 1.0850694444444445e-05
245 214 1.0850694444444445e-05
246 214 1.0850694444444445e-05
1580 214 2.7126736111111112e-06
1581 214 2.7126736111111112e-06
1582 214 1.6276041666666666e-05
1584 214 1.6276041666666666e-05
1585 214 2.7126736111111112e-06
1675 214 1.6276041666666666e-05
1677 214 2.7126736111111112e-06
1678 214 1.6276041666666666e-05
1679 214 1.6276041666666666e-05
1680 214 1.6276041666666666e-05
1682 214 2.7126736111111112e-06
1773 214 2.7126736111111112e-06
215 215 0.00019531249999999998
216 215 1.0850694444444445e-05
246 215 1.0850694444444445e-05
247 215 1.0850694444444445e-05
1583 215 2.7126736111111112e-06
1584 215 2.7126736111111112e-06
1585 215 1.6276041666666666e-05
1587 215 1.6276041666666666e-05
1588 215 2.7126736111111112e-06
1678 215 1.6276041666666666e-05
1680 215 2.7126736111111112e-06
1681 215 1.6276041666666666e-05
1682 215 1.6276041666666666e-05
1683 215 1.6276041666666666e-05
1685 215 2.7126736111111112e-06
1776 215 2.7126736111111112e-06
216 216 0.00019531249999999998
217 216 1.0850694444444445e-05
247 216 1.0850694444444445e-05
248 216 1.0850694444444445e-05
1586 216 2.7126736111111112e-06
1587 216 2.7126736111111112e-06
1588 216 1.6276041666666666e-05
1590 216 1.6276041666666666e-05
1591 216 2.7126736111111112e-06
1681 216 1.6276041666666666e-05
1683 216 2.7126736111111112e-06
1684 216 1.6276041666666666e-05
1685 216 1.6276041666666666e-05
1686 216 1.6276041666666666e-05
1688 216 2.7126736111111112e-06
1779 216 2.7126736111111112e-06
217 217 0.00019531249999999998
248 217 1.0850694444444445e-05
1589 217 2.7126736111111112e-06
1590 217 2.7126736111111112e-06
1591 217 1.6276041666666666e-05
1593 217 1.6276041666666666e-05
1594 217 2.7126736111111112e-06
1684 217 1.6276041666666666e-05
1686 217 2.7126736111111112e-06
1687 217 1.6276041666666666e-05
1688 217 1.6276041666666666e-05
1689 217 1.6276041666666666e-05
1782 217 2.7126736111111112e-06
218 218 0.00019531249999999998
219 218 1.0850694444444445e-05
249 218 1.0850694444444445e-05
250 218 1.0850694444444445e-05
1595 218 2.7126736111111112e-06
1596 218 1.6276041666666666e-05
1598 218 1.6276041666666666e-05
1599 218 2.7126736111111112e-06
1690 218 1.6276041666666666e-05
1691 218 2.7126736111111112e-06
1692 218 1.6276041666666666e-05
1693 218 1.6276041666666666e-05
1694 218 1.6276041666666666e-05
1696 218 2.7126736111111112e-06
1787 218 2.7126736111111112e-06
219 219 0.00019531249999999998
220 219 1.0850694444444445e-05
250 219 1.0850694444444445e-05
251 219 1.0850694444444445e-05
1597 219 2.7126736111111112e-06
1598 219 2.7126736111111112e-06
1599 219 1.6276041666666666e-05
1601 219 1.6276041666666666e-05
1602 219 2.7126736111111112e-06
1692 219 1.6276041666666666e-05
1694 219 2.7126736111111112e-06
1695 219 1.6276041666666666e-05
1696 219 1.6276041666666666e-05
1697 219 1.6276041666666666e-05
1699 219 2.7126736111111112e-06
1790 219 2.7126736111111112e-06
220 220 0.00019531249999999998
221 220 1.0850694444444445e-05
251 220 1.0850694444444445e-05
252 220 1.0850694444444445e-05
1600 220 2.7126736111111112e-06
1601 220 2.7126736111111112e-06
1602 220 1.6276041666666666e-05
1604 220 1.6276041666666666e-05
1605 220 2.7126736111111112e-06
1695 220 1.6276041666666666e-05
1697 220 2.7126736111111112e-06
1698 220 1.6276041666666666e-05
1699 220 1.6276041666666666e-05
1700 220 1.6276041666666666e-05
1702 220 2.7126736111111112e-06
1793 220 2.7126736111111112e-06
221 221 0.00019531249999999998
222 221 1.0850694444444445e-05
252 221 1.0850694444444445e-05
253 221 1.0850694444444445e-05
1603 221 2.7126736111111112e-06
1604 221 2.7126736111111112e-06
1605 221 1.6276041666666666e-05
1607 221 1.6276041666666666e-05
1608 221 2.7126736111111112e-06
1698 221 1.6276041666666666e-05
1700 221 2.7126736111111112e-06
1701 221 1.6276041666666666e-05
1702 221 1.6276041666666666e-05
1703 221 1.6276041666666666e-05
1705 221 2.7126736111111112e-06
1796 221 2.7126736111111112e-06
222 222 0.00019531249999999998
223 222 1.0850694444444445e-05
253 222 1.0850694444444445e-05
254 222 1.0850694444444445e-05
1606 222 2.7126736111111112e-06
1607 222 2.7126736111111112e-06
1608 222 1.6276041666666666e-05
1610 222 1.6276041666666666e-05
1611 222 2.7126736111111112e-06
1701 222 1.6276041666666666e-05
1703 222 2.7126736111111112e-06
1704 222 1.6276041666666666e-05
1705 222 1.6276041666666666e-05
1706 222 1.6276041666666666e-05
1708 222 2.7126736111111112e-06
1799 222 2.7126736111111112e-06
223 223 0.00019531249999999998
224 223 1.0850694444444445e-05
254 223 1.0850694444444445e-05
255 223 1.0850694444444445e-05
1609 223 2.7126736111111112e-06
1610 223 2.7126736111111112e-06
1611 223 1.6276041666666666e-05
1613 223 1.6276041666666666e-05
1614 223 2.7126736111111112e-06
1704 223 1.6276041666666666e-05
1706 223 2.7126736111111112e-06
1707 223 1.6276041666666666e-05
1708 223 1.6276041666666666e-05
1709 223 1.6276041666666666e-05
1711 223 2.7126736111111112e-06
1802 223 2.7126736111111112e-06
224 224 0.00019531249999999998
225 224 1.0850694444444445e-05
255 224 1.0850694444444445e-05
256 224 1.0850694444444445e-05
1612 224 2.7126736111111112e-06
1613 224 2.7126736111111112e-06
1614 224 1.6276041666666666e-05
1616 224 1.6276041666666666e-05
1617 224 2.7126736111111112e-06
1707 224 1.6276041666666666e-05
1709 224 2.7126736111111112e-06
1710 224 1.6276041666666666e-05
1711 224 1.6276041666666666e-05
1712 224 1.6276041666666666e-05
1714 224 2.7126736111111112e-06
1805 224 2.7126736111111112e-06
225 225 0.00019531249999999998
226 225 1.0850694444444445e-05
256 225 1.0850694444444445e-05
257 225 1.0850694444444445e-05
1615 225 2.7126736111111112e-06
1616 225 2.7126736111111112e-06
1617 225 1.6276041666666666e-05
1619 225 1.6276041666666666e-05
1620 225 2.7126736111111112e-06
1710 225 1.6276041666666666e-05
1712 225 2.7126736111111112e-06
1713 225 1.6276041666666666e-05
1714 225 1.6276041666666666e-05
1715 225 1.6276041666666666e-05
1717 225 2.7126736111111112e-06
1808 225 2.7126736111111112e-06
226 226 0.00019531249999999998
227 226 1.0850694444444445e-05
257 226 1.0850694444444445e-05
258 226 1.0850694444444445e-05
1618 226 2.7126736111111112e-06
1619 226 2.7126736111111112e-06
1620 226 1.6276041666666666e-05
1622 226 1.6276041666666666e-05
1623 226 2.7126736111111112e-06
1713 226 1.6276041666666666e-05
1715 226 2.7126736111111112e-06
1716 226 1.6276041666666666e-05
1717 226 1.6276041666666666e-05
1718 226 1.6276041666666666e-05
1720 226 2.7126736111111112e-06
1811 226 2.7126736111111112e-06
227 227 0.00019531249999999998
228 227 1.0850694444444445e-05
258 227 1.0850694444444445e-05
259 227 1.0850694444444445e-05
1621 227 2.7126736111111112e-06
1622 227 2.7126736111111112e-06
1623 227 1.6276041666666666e-05
1625 227 1.6276041666666666e-05
1626 227 2.7126736111111112e-06
1716 227 1.6276041666666666e-05
1718 227 2.7126736111111112e-06
1719 227 1.6276041666666666e-05
1720 227 1.6276041666666666e-05
1721 227 1.6276041666666666e-05
1723 227 2.7126736111111112e-06
1814 227 2.7126736111111112e-06
228 228 0.00019531249999999998
229 228 1.0850694444444445e-05
259 228 1.0850694444444445e-05
260 228 1.0850694444444445e-05
1624 228 2.7126736111111112e-06
1625 228 2.7126736111111112e-06
1626 228 1.6276041666666666e-05
1628 228 1.6276041666666666e-05
1629 228 2.7126736111111112e-06
1719 228 1.6276041666666666e-05
1721 228 2.7126736111111112e-06
1722 228 1.6276041666666666e-05
1723 228 1.6276041666666666e-05
1724 228 1.6276041666666666e-05
1726 228 2.7126736111111112e-06
1817 228 2.7126736111111112e-06
229 229 0.00019531249999999998
230 229 1.0850694444444445e-05
260 229 1.0850694444444445e-05
261 229 1.0850694444444445e-05
1627 229 2.7126736111111112e-06
1628 229 2.7126736111111112e-06
1629 229 1.6276041666666666e-05
1631 229 1.6276041666666666e-05
1632 229 2.7126736111111112e-06
1722 229 1.6276041666666666e-05
1724 229 2.7126736111111112e-06
1725 229 1.6276041666666666e-05
1726 229 1.6276041666666666e-05
1727 229 1.6276041666666666e-05
1729 229 2.7126736111111112e-06
1820 229 2.7126736111111112e-06
230 230 0.00019531249999999998
231 230 1.0850694444444445e-05
261 230 1.0850694444444445e-05
262 230 1.0850694444444445e-05
1630 230 2.7126736111111112e-06
1631 230 2.7126736111111112e-06
1632 230 1.6276041666666666e-05
1634 230 1.6276041666666666e-05
1635 230 2.7126736111111112e-06
1725 230 1.6276041666666666e-05
1727 230 2.7126736111111112e-06
1728 230 1.6276041666666666e-05
1729 230 1.6276041666666666e-05
1730 230 1.6276041666666666e-05
1732 230 2.7126736111111112e-06
1823 230 2.7126736111111112e-06
231 231 0.00019531249999999998
232 231 1.0850694444444445e-05
262 231 1.0850694444444445e-05
263 231 1.0850694444444445e-05
1633 231 2.7126736111111112e-06
1634 231 2.7126736111111112e-06
1635 231 1.6276041666666666e-05
1637 231 1.6276041666666666e-05
1638 231 2.7126736111111112e-06
1728 231 1.6276041666666666e-05
1730 231 2.7126736111111112e-06
1731 231 1.6276041666666666e-05
1732 231 1.6276041666666666e-05
1733 231 1.6276041666666666e-05
1735 231 2.7126736111111112e-06
1826 231 2.7126736111111112e-06
232 232 0.00019531249999999998
233 232 1.0850694444444445e-05
263 232 1.0850694444444445e-05
264 232 1.0850694444444445e-05
1636 232 2.7126736111111112e-06
1637 232 2.7126736111111112e-06
1638 232 1.6276041666666666e-05
1640 232 1.6276041666666666e-05
1641 232 2.7126736111111112e-06
1731 232 1.6276041666666666e-05
1733 232 2.7126736111111112e-06
1734 232 1.6276041666666666e-05
1735 232 1.6276041666666666e-05
1736 232 1.6276041666666666e-05
1738 232 2.7126736111111112e-06
1829 232 2.7126736111111112e-06
233 233 0.00019531249999999998
234 233 1.0850694444444445e-05
264 233 1.0850694444444445e-05
265 233 1.0850694444444445e-05
1639 233 2.7126736111111112e-06
1640 233 2.7126736111111112e-06
1641 233 1.6276041666666666e-05
1643 233 1.6276041666666666e-05
1644 233 2.7126736111111112e-06
1734 233 1.6276041666666666e-05
1736 233 2.7126736111111112e-06
1737 233 1.6276041666666666e-05
1738 233 1.6276041666666666e-05
1739 233 1.6276041666666666e-05
1741 233 2.7126736111111112e-06
1832 233 2.7126736111111112e-06
234 234 0.00019531249999999998
235 234 1.0850694444444445e-05
265 234 1.0850694444444445e-05
266 234 1.0850694444444445e-05
1642 234 2.7126736111111112e-06
1643 234 2.7126736111111112e-06
1644 234 1.6276041666666666e-05
1646 234 1.6276041666666666e-05
1647 234 2.7126736111111112e-06
1737 234 1.6276041666666666e-05
1739 234 2.7126736111111112e-06
1740 234 1.6276041666666666e-05
1741 234 1.6276041666666666e-05
1742 234 1.6276041666666666e-05
1744 234 2.7126736111111112e-06
1835 234 2.7126736111111112e-06
235 235 0.00019531249999999998
236 235 1.0850694444444445e-05
266 235 1.0850694444444445e-05
267 235 1.0850694444444445e-05
1645 235 2.7126736111111112e-06
1646 235 2.7126736111111112e-06
1647 235 1.6276041666666666e-05
1649 235 1.6276041666666666e-05
1650 235 2.7126736111111112e-06
1740 235 1.6276041666666666e-05
1742 235 2.7126736111111112e-06
1743 235 1.6276041666666666e-05
1744 235 1.6276041666666666e-05
1745 235 1.6276041666666666e-05
1747 235 2.7126736111111112e-06
1838 235 2.7126736111111112e-06
236 236 0.00019531249999999998
237 236 1.0850694444444445e-05
267 236 1.0850694444444445e-05
268 236 1.0850694444444445e-05
1648 236 2.7126736111111112e-06
1649 236 2.7126736111111112e-06
1650 236 1.6276041666666666e-05
1652 236 1.6276041666666666e-05
1653 236 2.7126736111111112e-06
1743 236 1.6276041666666666e-05
1745 236 2.7126736111111112e-06
1746 236 1.6276041666666666e-05
1747 236 1.6276041666666666e-05
1748 236 1.6276041666666666e-05
1750 236 2.7126736111111112e-06
1841 236 2.7126736111111112e-06
237 237 0.00019531249999999998
238 237 1.0850694444444445e-05
268 237 1.0850694444444445e-05
269 237 1.0850694444444445e-05
1651 237 2.7126736111111112e-06
1652 237 2.7126736111111112e-06
1653 237 1.6276041666666666e-05
1655 237 1.6276041666666666e-05
1656 237 2.7126736111111112e-06
1746 237 1.6276041666666666e-05
1748 237 2.7126736111111112e-06
1749 237 1.6276041666666666e-05
1750 237 1.6276041666666666e-05
1751 237 1.6276041666666666e-05
1753 237 2.7126736111111112e-06
1844 237 2.7126736111111112e-06
238 238 0.00019531249999999998
239 238 1.0850694444444445e-05
269 238 1.0850694444444445e-05
270 238 1.0850694444444445e-05
1654 238 2.7126736111111112e-06
1655 238 2.7126736111111112e-06
1656 238 1.6276041666666666e-05
1658 238 1.6276041666666666e-05
1659 238 2.7126736111111112e-06
1749 238 1.6276041666666666e-05
1751 238 2.7126736111111112e-06
1752 238 1.6276041666666666e-05
1753 238 1.6276041666666666e-05
1754 238 1.6276041666666666e-05
1756 238 2.7126736111111112e-06
1847 238 2.7126736111111112e-06
239 239 0.00019531249999999998
240 239 1.0850694444444445e-05
270 239 1.0850694444444445e-05
271 239 1.0850694444444445e-05
1657 239 2.7126736111111112e-06
1658 239 2.7126736111111112e-06
1659 239 1.6276041666666666e-05
1661 239 1.6276041666666666e-05
1662 239 2.7126736111111112e-06
1752 239 1.6276041666666666e-05
1754 239 2.7126736111111112e-06
1755 239 1.6276041666666666e-05
1756 239 1.6276041666666666e-05
1757 239 1.6276041666666666e-05
1759 239 2.7126736111111112e-06
1850 239 2.7126736111111112e-06
240 240 0.00019531249999999998
241 240 1.0850694444444445e-05
271 240 1.0850694444444445e-05
272 240 1.0850694444444445e-05
1660 240 2.7126736111111112e-06
1661 240 2.7126736111111112e-06
1662 240 1.6276041666666666e-05
1664 240 1.6276041666666666e-05
1665 240 2.7126736111111112e-06
1755 240 1.6276041666666666e-05
1757 240 2.7126736111111112e-06
1758 240 1.6276041666666666e-05
1759 240 1.6276041666666666e-05
1760 240 1.6276041666666666e-05
1762 240 2.7126736111111112e-06
1853 240 2.7126736111111112e-06
241 241 0.00019531249999999998
242 241 1.0850694444444445e-05
272 241 1.0850694444444445e-05
273 241 1.0850694444444445e-05
1663 241 2.7126736111111112e-06
1664 241 2.7126736111111112e-06
1665 241 1.6276041666666666e-05
1667 241 1.6276041666666666e-05
1668 241 2.7126736111111112e-06
1758 241 1.6276041666666666e-05
1760 241 2.7126736111111112e-06
1761 241 1.6276041666666666e-05
1762 241 1.6276041666666666e-05
1763 241 1.6276041666666666e-05
1765 241 2.7126736111111112e-06
1856 241 2.7126736111111112e-06
242 242 0.00019531249999999998
243 242 1.0850694444444445e-05
273 242 1.0850694444444445e-05
274 242 1.0850694444444445e-05
1666 242 2.7126736111111112e-06
1667 242 2.7126736111111112e-06
1668 242 1.6276041666666666e-05
1670 242 1.6276041666666666e-05
1671 242 2.7126736111111112e-06
1761 242 1.6276041666666666e-05
1763 242 2.7126736111111112e-06
1764 242 1.6276041666666666e-05
1765 242 1.6276041666666666e-05
1766 242 1.6276041666666666e-05
1768 242 2.7126736111111112e-06
1859 242 2.7126736111111112e-06
243 243 0.00019531249999999998
244 243 1.0850694444444445e-05
274 243 1.0850694444444445e-05
275 243 1.0850694444444445e-05
1669 243 2.7126736111111112e-06
1670 243 2.7126736111111112e-06
1671 243 1.6276041666666666e-05
1673 243 1.6276041666666666e-05
1674 243 2.7126736111111112e-06
1764 243 1.6276041666666666e-05
1766 243 2.7126736111111112e-06
1767 243 1.6276041666666666e-05
1768 243 1.6276041666666666e-05
1769 243 1.6276041666666666e-05
1771 243 2.7126736111111112e-06
1862 243 2.7126736111111112e-06
244 244 0.00019531249999999998
245 244 1.0850694444444445e-05
275 244 1.0850694444444445e-05
276 244 1.0850694444444445e-05
1672 244 2.7126736111111112e-06
1673 244 2.7126736111111112e-06
1674 244 1.6276041666666666e-05
1676 244 1.6276041666666666e-05
1677 244 2.7126736111111112e-06
1767 244 1.6276041666666666e-05
1769 244 2.7126736111111112e-06
1770 244 1.6276041666666666e-05
1771 244 1.6276041666666666e-05
1772 244 1.6276041666666666e-05
1774 244 2.7126736111111112e-06
1865 244 2.7126736111111112e-06
245 245 0.00019531249999999998
246 245 1.0850694444444445e-05
276 245 1.0850694444444445e-05
277 245 1.0850694444444445e-05
1675 245 2.7126736111111112e-06
1676 245 2.7126736111111112e-06
1677 245 1.6276041666666666e-05
1679 245 1.6276041666666666e-05
1680 245 2.7126736111111112e-06
1770 245 1.6276041666666666e-05
1772 245 2.7126736111111112e-06
1773 245 1.6276041666666666e-05
1774 245 1.6276041666666666e-05
1775 245 1.6276041666666666e-05
1777 245 2.7126736111111112e-06
1868 245 2.7126736111111112e-06
246 246 0.00019531249999999998
247 246 1.0850694444444445e-05
277 246 1.0850694444444445e-05
278 246 1.0850694444444445e-05
1678 246 2.7126736111111112e-06
1679 246 2.7126736111111112e-06
1680 246 1.6276041666666666e-05
1682 246 1.6276041666666666e-05
1683 246 2.7126736111111112e-06
1773 246 1.6276041666666666e-05
1775 246 2.7126736111111112e-06
1776 246 1.6276041666666666e-05
1777 246 1.6276041666666666e-05
1778 246 1.6276041666666666e-05
1780 246 2.7126736111111112e-06
1871 246 2.7126736111111112e-06
247 247 0.00019531249999999998
248 247 1.0850694444444445e-05
278 247 1.0850694444444445e-05
279 247 1.0850694444444445e-05
1681 247 2.7126736111111112e-06
1682 247 2.7126736111111112e-06
1683 247 1.6276041666666666e-05
1685 247 1.6276041666666666e-05
1686 247 2.7126736111111112e-06
1776 247 1.6276041666666666e-05
1778 247 2.7126736111111112e-06
1779 247 1.6276041666666666e-05
1780 247 1.6276041666666666e-05
1781 247 1.6276041666666666e-05
1783 247 2.7126736111111112e-06
1874 247 2.7126736111111112e-06
248 248 0.00019531249999999998
279 248 1.0850694444444445e-05
1684 248 2.7126736111111112e-06
1685 248 2.7126736111111112e-06
1686 248 1.6276041666666666e-05
1688 248 1.6276041666666666e-05
1689 248 2.7126736111111112e-06
1779 248 1.6276041666666666e-05
1781 248 2.7126736111111112e-06
1782 248 1.6276041666666666e-05
1783 248 1.6276041666666666e-05
1784 248 1.6276041666666666e-05
1877 248 2.7126736111111112e-06
249 249 0.00019531249999999998
250 249 1.0850694444444445e-05
280 249 1.0850694444444445e-05
281 249 1.0850694444444445e-05
1690 249 2.7126736111111112e-06
1691 249 1.6276041666666666e-05
1693 249 1.6276041666666666e-05
1694 249 2.7126736111111112e-06
1785 249 1.6276041666666666e-05
1786 249 2.7126736111111112e-06
1787 249 1.6276041666666666e-05
1788 249 1.6276041666666666e-05
1789 249 1.6276041666666666e-05
1791 249 2.7126736111111112e-06
1882 249 2.7126736111111112e-06
250 250 0.00019531249999999998
251 250 1.0850694444444445e-05
281 250 1.0850694444444445e-05
282 250 1.0850694444444445e-05
1692 250 2.7126736111111112e-06
1693 250 2.7126736111111112e-06
1694 250 1.6276041666666666e-05
1696 250 1.6276041666666666e-05
1697 250 2.7126736111111112e-06
1787 250 1.6276041666666666e-05
1789 250 2.7126736111111112e-06
1790 250 1.6276041666666666e-05
1791 250 1.6276041666666666e-05
1792 250 1.6276041666666666e-05
1794 250 2.7126736111111112e-06
1885 250 2.7126736111111112e-06
251 251 0.00019531249999999998
252 251 1.0850694444444445e-05
282 251 1.0850694444444445e-05
283 251 1.0850694444444445e-05
1695 251 2.7126736111111112e-06
1696 251 2.7126736111111112e-06
1697 251 1.6276041666666666e-05
1699 251 1.6276041666666666e-05
1700 251 2.7126736111111112e-06
1790 251 1.6276041666666666e-05
1792 251 2.7126736111111112e-06
1793 251 1.6276041666666666e-05
1794 251 1.6276041666666666e-05
1795 251 1.6276041666666666e-05
1797 251 2.7126736111111112e-06
1888 251 2.7126736111111112e-06
252 252 0.00019531249999999998
253 252 1.0850694444444445e-05
283 252 1.0850694444444445e-05
284 252 1.0850694444444445e-05
1698 252 2.7126736111111112e-06
1699 252 2.7126736111111112e-06
1700 252 1.6276041666666666e-05
1702 252 1.6276041666666666e-05
1703 252 2.7126736111111112e-06
1793 252 1.6276041666666666e-05
1795 252 2.7126736111111112e-06
1796 252 1.6276041666666666e-05
1797 252 1.6276041666666666e-05
1798 252 1.6276041666666666e-05
1800 252 2.7126736111111112e-06
1891 252 2.7126736111111112e-06
253 253 0.00019531249999999998
254 253 1.0850694444444445e-05
284 253 1.0850694444444445e-05
285 253 1.0850694444444445e-05
1701 253 2.7126736111111112e-06
1702 253 2.7126736111111112e-06
1703 253 1.6276041666666666e-05
1705 253 1.6276041666666666e-05
1706 253 2.7126736111111112e-06
1796 253 1.6276041666666666e-05
1798 253 2.7126736111111112e-06
1799 253 1.6276041666666666e-05
1800 253 1.6276041666666666e-05
1801 253 1.6276041666666666e-05
1803 253 2.7126736111111112e-06
1894 253 2.7126736111111112e-06
254 254 0.00019531249999999998
255 254 1.0850694444444445e-05
285 254 1.0850694444444445e-05
286 254 1.0850694444444445e-05
1704 254 2.7126736111111112e-06
1705 254 2.7126736111111112e-06
1706 254 1.6276041666666666e-05
1708 254 1.6276041666666666e-05
1709 254 2.7126736111111112e-06
1799 254 1.6276041666666666e-05
1801 254 2.7126736111111112e-06
1802 254 1.6276041666666666e-05
1803 254 1.6276041666666666e-05
1804 254 1.6276041666666666e-05
1806 254 2.7126736111111112e-06
1897 254 2.7126736111111112e-06
255 255 0.00019531249999999998
256 255 1.0850694444444445e-05
286 255 1.0850694444444445e-05
287 255 1.0850694444444445e-05
1707 255 2.7126736111111112e-06
1708 255 2.7126736111111112e-06
1709 255 1.6276041666666666e-05
1711 255 1.6276041666666666e-05
1712 255 2.7126736111111112e-06
1802 255 1.6276041666666666e-05
1804 255 2.7126736111111112e-06
1805 255 1.6276041666666666e-05
1806 255 1.6276041666666666e-05
1807 255 1.6276041666666666e-05
1809 255 2.7126736111111112e-06
1900 255 2.7126736111111112e-06
256 256 0.00019531249999999998
257 256 1.0850694444444445e-05
287 256 1.0850694444444445e-05
288 256 1.0850694444444445e-05
1710 256 2.7126736111111112e-06
1711 256 2.7126736111111112e-06
1712 256 1.6276041666666666e-05
1714 256 1.6276041666666666e-05
1715 256 2.7126736111111112e-06
1805 256 1.6276041666666666e-05
1807 256 2.7126736111111112e-06
1808 256 1.6276041666666666e-05
1809 256 1.6276041666666666e-05
1810 256 1.6276041666666666e-05
1812 256 2.7126736111111112e-06
1903 256 2.7126736111111112e-06
257 257 0.00019531249999999998
258 257 1.0850694444444445e-05
288 257 1.0850694444444445e-05
289 257 1.0850694444444445e-05
1713 257 2.7126736111111112e-06
1714 257 2.7126736111111112e-06
1715 257 1.6276041666666666e-05
1717 257 1.6276041666666666e-05
1718 257 2.7126736111111112e-06
1808 257 1.6276041666666666e-05
1810 257 2.7126736111111112e-06
1811 257 1.6276041666666666e-05
1812 257 1.6276041666666666e-05
1813 257 1.6276041666666666e-05
1815 257 2.7126736111111112e-06
1906 257 2.7126736111111112e-06
258 258 0.00019531249999999998
259 258 1.0850694444444445e-05
289 258 1.0850694444444445e-05
290 258 1.0850694444444445e-05
1716 258 2.7126736111111112e-06
1717 258 2.7126736111111112e-06
1718 258 1.6276041666666666e-05
1720 258 1.6276041666666666e-05
1721 258 2.7126736111111112e-06
1811 258 1.6276041666666666e-05
1813 258 2.7126736111111112e-06
1814 258 1.6276041666666666e-05
1815 258 1.6276041666666666e-05
1816 258 1.6276041666666666e-05
1818 258 2.7126736111111112e-06
1909 258 2.7126736111111112e-06
259 259 0.00019531249999999998
260 259 1.0850694444444445e-05
290 259 1.0850694444444445e-05
291 259 1.0850694444444445e-05
1719 259 2.7126736111111112e-06
1720 259 2.7126736111111112e-06
1721 259 1.6276041666666666e-05
1723 259 1.6276041666666666e-05
1724 259 2.7126736111111112e-06
1814 259 1.6276041666666666e-05
1816 259 2.7126736111111112e-06
1817 259 1.6276041666666666e-05
1818 259 1.6276041666666666e-05
1819 259 1.6276041666666666e-05
1821 259 2.7126736111111112e-06
1912 259 2.7126736111111112e-06
260 260 0.00019531249999999998
261 260 1.0850694444444445e-05
291 260 1.0850694444444445e-05
292 260 1.0850694444444445e-05
1722 260 2.7126736111111112e-06
1723 260 2.7126736111111112e-06
1724 260 1.6276041666666666e-05
1726 260 1.6276041666666666e-05
1727 260 2.7126736111111112e-06
1817 260 1.6276041666666666e-05
1819 260 2.7126736111111112e-06
1820 260 1.6276041666666666e-05
1821 260 1.6276041666666666e-05
1822 260 1.6276041666666666e-05
1824 260 2.7126736111111112e-06
1915 260 2.7126736111111112e-06
261 261 0.00019531249999999998
262 261 1.0850694444444445e-05
292 261 1.0850694444444445e-05
293 261 1.0850694444444445e-05
1725 261 2.7126736111111112e-06
1726 261 2.7126736111111112e-06
1727 261 1.6276041666666666e-05
1729 261 1.6276041666666666e-05
1730 261 2.7126736111111112e-06
1820 261 1.6276041666666666e-05
1822 261 2.7126736111111112e-06
1823 261 1.6276041666666666e-05
1824 261 1.6276041666666666e-05
1825 261 1.6276041666666666e-05
1827 261 2.7126736111111112e-06
1918 261 2.7126736111111112e-06
262 262 0.00019531249999999998
263 262 1.0850694444444445e-05
293 262 1.0850694444444445e-05
294 262 1.0850694444444445e-05
1728 262 2.7126736111111112e-06
1729 262 2.7126736111111112e-06
1730 262 1.6276041666666666e-05
1732 262 1.6276041666666666e-05
1733 262 2.7126736111111112e-06
1823 262 1.6276041666666666e-05
1825 262 2.7126736111111112e-06
1826 262 1.6276041666666666e-05
1827 262 1.6276041666666666e-05
1828 262 1.6276041666666666e-05
1830 262 2.7126736111111112e-06
1921 262 2.7126736111111112e-06
263 263 0.00019531249999999998
264 263 1.0850694444444445e-05
294 263 1.0850694444444445e-05
295 263 1.0850694444444445e-05
1731 263 2.7126736111111112e-06
1732 263 2.7126736111111112e-06
1733 263 1.6276041666666666e-05
1735 263 1.6276041666666666e-05
1736 263 2.7126736111111112e-06
1826 263 1.6276041666666666e-05
1828 263 2.7126736111111112e-06
1829 263 1.6276041666666666e-05
1830 263 1.6276041666666666e-05
1831 263 1.6276041666666666e-05
1833 263 2.7126736111111112e-06
1924 263 2.7126736111111112e-06
264 264 0.00019531249999999998
265 264 1.0850694444444445e-05
295 264 1.0850694444444445e-05
296 264 1.0850694444444445e-05
1734 264 2.7126736111111112e-06
1735 264 2.7126736111111112e-06
1736 264 1.6276041666666666e-05
1738 264 1.6276041666666666e-05
1739 264 2.7126736111111112e-06
1829 264 1.6276041666666666e-05
1831 264 2.7126736111111112e-06
1832 264 1.6276041666666666e-05
1833 264 1.6276041666666666e-05
1834 264 1.6276041666666666e-05
1836 264 2.7126736111111112e-06
1927 264 2.7126736111111112e-06
265 265 0.00019531249999999998
266 265 1.0850694444444445e-05
296 265 1.0850694444444445e-05
297 265 1.0850694444444445e-05
1737 265 2.7126736111111112e-06
1738 265 2.7126736111111112e-06
1739 265 1.6276041666666666e-05
1741 265 1.6276041666666666e-05
1742 265 2.7126736111111112e-06
1832 265 1.6276041666666666e-05
1834 265 2.7126736111111112e-06
1835 265 1.6276041666666666e-05
1836 265 1.6276041666666666e-05
1837 265 1.6276041666666666e-05
1839 265 2.7126736111111112e-06
1930 265 2.7126736111111112e-06
266 266 0.00019531249999999998
267 266 1.0850694444444445e-05
297 266 1.0850694444444445e-05
298 266 1.0850694444444445e-05
1740 266 2.7126736111111112e-06
1741 266 2.7126736111111112e-06
1742 266 1.6276041666666666e-05
1744 266 1.6276041666666666e-05
1745 266 2.7126736111111112e-06
1835 266 1.6276041666666666e-05
1837 266 2.7126736111111112e-06
1838 266 1.6276041666666666e-05
1839 266 1.6276041666666666e-05
1840 266 1.6276041666666666e-05
1842 266 2.7126736111111112e-06
1933 266 2.7126736111111112e-06
267 267 0.00019531249999999998
268 267 1.0850694444444445e-05
298 267 1.0850694444444445e-05
299 267 1.0850694444444445e-05
1743 267 2.7126736111111112e-06
1744 267 2.7126736111111112e-06
1745 267 1.6276041666666666e-05
1747 267 1.6276041666666666e-05
1748 267 2.7126736111111112e-06
1838 267 1.6276041666666666e-05
1840 267 2.7126736111111112e-06
1841 267 1.6276041666666666e-05
1842 267 1.6276041666666666e-05
1843 267 1.6276041666666666e-05
1845 267 2.7126736111111112e-06
1936 267 2.7126736111111112e-06
268 268 0.00019531249999999998
269 268 1.0850694444444445e-05
299 268 1.0850694444444445e-05
300 268 1.0850694444444445e-05
1746 268 2.7126736111111112e-06
1747 268 2.7126736111111112e-06
1748 268 1.6276041666666666e-05
1750 268 1.6276041666666666e-05
1751 268 2.7126736111111112e-06
1841 268 1.6276041666666666e-05
1843 268 2.7126736111111112e-06
1844 268 1.6276041666666666e-05
1845 268 1.6276041666666666e-05
1846 268 1.6276041666666666e-05
1848 268 2.7126736111111112e-06
1939 268 2.7126736111111112e-06
269 269 0.00019531249999999998
270 269 1.0850694444444445e-05
300 269 1.0850694444444445e-05
301 269 1.0850694444444445e-05
1749 269 2.7126736111111112e-06
1750 269 2.7126736111111112e-06
1751 269 1.6276041666666666e-05
1753 269 1.6276041666666666e-05
1754 269 2.7126736111111112e-06
1844 269 1.6276041666666666e-05
1846 269 2.7126736111111112e-06
1847 269 1.6276041666666666e-05
1848 269 1.6276041666666666e-05
1849 269 1.6276041666666666e-05
1851 269 2.7126736111111112e-06
1942 269 2.7126736111111112e-06
270 270 0.00019531249999999998
271 270 1.0850694444444445e-05
301 270 1.0850694444444445e-05
302 270 1.0850694444444445e-05
1752 270 2.7126736111111112e-06
1753 270 2.7126736111111112e-06
1754 270 1.6276041666666666e-05
1756 270 1.6276041666666666e-05
1757 270 2.7126736111111112e-06
1847 270 1.6276041666666666e-05
1849 270 2.7126736111111112e-06
1850 270 1.6276041666666666e-05
1851 270 1.6276041666666666e-05
1852 270 1.6276041666666666e-05
1854 270 2.7126736111111112e-06
1945 270 2.7126736111111112e-06
271 271 0.00019531249999999998
272 271 1.0850694444444445e-05
302 271 1.0850694444444445e-05
303 271 1.0850694444444445e-05
1755 271 2.7126736111111112e-06
1756 271 2.7126736111111112e-06
1757 271 1.6276041666666666e-05
1759 271 1.6276041666666666e-05
1760 271 2.7126736111111112e-06
1850 271 1.6276041666666666e-05
1852 271 2.7126736111111112e-06
1853 271 1.6276041666666666e-05
1854 271 1.6276041666666666e-05
1855 271 1.6276041666666666e-05
1857 271 2.7126736111111112e-06
1948 271 2.7126736111111112e-06
272 272 0.00019531249999999998
273 272 1.0850694444444445e-05
303 272 1.0850694444444445e-05
304 272 1.0850694444444445e-05
1758 272 2.7126736111111112e-06
1759 272 2.7126736111111112e-06
1760 272 1.6276041666666666e-05
1762 272 1.6276041666666666e-05
1763 272 2.7126736111111112e-06
1853 272 1.6276041666666666e-05
1855 272 2.7126736111111112e-06
1856 272 1.6276041666666666e-05
1857 272 1.6276041666666666e-05
1858 272 1.6276041666666666e-05
1860 272 2.7126736111111112e-06
1951 272 2.7126736111111112e-06
273 273 0.00019531249999999998
274 273 1.0850694444444445e-05
304 273 1.0850694444444445e-05
305 273 1.0850694444444445e-05
1761 273 2.7126736111111112e-06
1762 273 2.7126736111111112e-06
1763 273 1.6276041666666666e-05
1765 273 1.6276041666666666e-05
1766 273 2.7126736111111112e-06
1856 273 1.6276041666666666e-05
1858 273 2.7126736111111112e-06
1859 273 1.6276041666666666e-05
1860 273 1.6276041666666666e-05
1861 273 1.6276041666666666e-05
1863 273 2.7126736111111112e-06
1954 273 2.7126736111111112e-06
274 274 0.00019531249999999998
275 274 1.0850694444444445e-05
305 274 1.0850694444444445e-05
306 274 1.0850694444444445e-05
1764 274 2.7126736111111112e-06
1765 274 2.7126736111111112e-06
1766 274 1.6276041666666666e-05
1768 274 1.6276041666666666e-05
1769 274 2.7126736111111112e-06
1859 274 1.6276041666666666e-05
1861 274 2.7126736111111112e-06
1862 274 1.6276041666666666e-05
1863 274 1.6276041666666666e-05
1864 274 1.6276041666666666e-05
1866 274 2.7126736111111112e-06
1957 274 2.7126736111111112e-06
275 275 0.00019531249999999998
276 275 1.0850694444444445e-05
306 275 1.0850694444444445e-05
307 275 1.0850694444444445e-05
1767 275 2.7126736111111112e-06
1768 275 2.7126736111111112e-06
1769 275 1.6276041666666666e-05
1771 275 1.6276041666666666e-05
1772 275 2.7126736111111112e-06
1862 275 1.6276041666666666e-05
1864 275 2.7126736111111112e-06
1865 275 1.6276041666666666e-05
1866 275 1.6276041666666666e-05
1867 275 1.6276041666666666e-05
1869 275 2.7126736111111112e-06
1960 275 2.7126736111111112e-06
276 276 0.00019531249999999998
277 276 1.0850694444444445e-05
307 276 1.0850694444444445e-05
308 276 1.0850694444444445e-05
1770 276 2.7126736111111112e-06
1771 276 2.7126736111111112e-06
1772 276 1.6276041666666666e-05
1774 276 1.6276041666666666e-05
1775 276 2.7126736111111112e-06
1865 276 1.6276041666666666e-05
1867 276 2.7126736111111112e-06
1868 276 1.6276041666666666e-05
1869 276 1.6276041666666666e-05
1870 276 1.6276041666666666e-05
1872 276 2.7126736111111112e-06
1963 276 2.7126736111111112e-06
277 277 0.00019531249999999998
278 277 1.0850694444444445e-05
308 277 1.0850694444444445e-05
309 277 1.0850694444444445e-05
1773 277 2.7126736111111112e-06
1774 277 2.7126736111111112e-06
1775 277 1.6276041666666666e-05
1777 277 1.6276041666666666e-05
1778 277 2.7126736111111112e-06
1868 277 1.6276041666666666e-05
1870 277 2.7126736111111112e-06
1871 277 1.6276041666666666e-05
1872 277 1.6276041666666666e-05
1873 277 1.6276041666666666e-05
1875 277 2.7126736111111112e-06
1966 277 2.7126736111111112e-06
278 278 0.00019531249999999998
279 278 1.0850694444444445e-05
309 278 1.0850694444444445e-05
310 278 1.0850694444444445e-05
1776 278 2.7126736111111112e-06
1777 278 2.7126736111111112e-06
1778 278 1.6276041666666666e-05
1780 278 1.6276041666666666e-05
1781 278 2.7126736111111112e-06
1871 278 1.6276041666666666e-05
1873 278 2.7126736111111112e-06
1874 278 1.6276041666666666e-05
1875 278 1.6276041666666666e-05
1876 278 1.6276041666666666e-05
1878 278 2.7126736111111112e-06
1969 278 2.7126736111111112e-06
279 279 0.00019531249999999998
310 279 1.0850694444444445e-05
1779 279 2.7126736111111112e-06
1780 279 2.7126736111111112e-06
1781 279 1.6276041666666666e-05
1783 279 1.6276041666666666e-05
1784 279 2.7126736111111112e-06
1874 279 1.6276041666666666e-05
1876 279 2.7126736111111112e-06
1877 279 1.6276041666666666e-05
1878 279 1.6276041666666666e-05
1879 279 1.6276041666666666e-05
1972 279 2.7126736111111112e-06
280 280 0.00019531249999999998
281 280 1.0850694444444445e-05
311 280 1.0850694444444445e-05
312 280 1.0850694444444445e-05
1785 280 2.7126736111111112e-06
1786 280 1.6276041666666666e-05
1788 280 1.6276041666666666e-05
1789 280 2.7126736111111112e-06
1880 280 1.6276041666666666e-05
1881 280 2.7126736111111112e-06
1882 280 1.6276041666666666e-05
1883 280 1.6276041666666666e-05
1884 280 1.6276041666666666e-05
1886 280 2.7126736111111112e-06
1977 280 2.7126736111111112e-06
281 281 0.00019531249999999998
282 281 1.0850694444444445e-05
312 281 1.0850694444444445e-05
313 281 1.0850694444444445e-05
1787 281 2.7126736111111112e-06
1788 281 2.7126736111111112e-06
1789 281 1.6276041666666666e-05
1791 281 1.6276041666666666e-05
1792 281 2.7126736111111112e-06
1882 281 1.6276041666666666e-05
1884 281 2.7126736111111112e-06
1885 281 1.6276041666666666e-05
1886 281 1.6276041666666666e-05
1887 281 1.6276041666666666e-05
1889 281 2.7126736111111112e-06
1980 281 2.7126736111111112e-06
282 282 0.00019531249999999998
283 282 1.0850694444444445e-05
313 282 1.0850694444444445e-05
314 282 1.0850694444444445e-05
1790 282 2.7126736111111112e-06
1791 282 2.7126736111111112e-06
1792 282 1.6276041666666666e-05
1794 282 1.6276041666666666e-05
1795 282 2.7126736111111112e-06
1885 282 1.6276041666666666e-05
1887 282 2.7126736111111112e-06
1888 282 1.6276041666666666e-05
1889 282 1.6276041666666666e-05
1890 282 1.6276041666666666e-05
1892 282 2.7126736111111112e-06
1983 282 2.7126736111111112e-06
283 283 0.00019531249999999998
284 283 1.0850694444444445e-05
314 283 1.0850694444444445e-05
315 283 1.0850694444444445e-05
1793 283 2.7126736111111112e-06
1794 283 2.7126736111111112e-06
1795 283 1.6276041666666666e-05
1797 283 1.6276041666666666e-05
1798 283 2.7126736111111112e-06
1888 283 1.6276041666666666e-05
1890 283 2.7126736111111112e-06
1891 283 1.6276041666666666e-05
1892 283 1.6276041666666666e-05
1893 283 1.6276041666666666e-05
1895 283 2.7126736111111112e-06
1986 283 2.7126736111111112e-06
284 284 0.00019531249999999998
285 284 1.0850694444444445e-05
315 284 1.0850694444444445e-05
316 284 1.0850694444444445e-05
1796 284 2.7126736111111112e-06
1797 284 2.7126736111111112e-06
1798 284 1.6276041666666666e-05
1800 284 1.6276041666666666e-05
1801 284 2.7126736111111112e-06
1891 284 1.6276041666666666e-05
1893 284 2.7126736111111112e-06
1894 284 1.6276041666666666e-05
1895 284 1.6276041666666666e-05
1896 284 1.6276041666666666e-05
1898 284 2.7126736111111112e-06
1989 284 2.7126736111111112e-06
285 285 0.00019531249999999998
286 285 1.0850694444444445e-05
316 285 1.0850694444444445e-05
317 285 1.0850694444444445e-05
1799 285 2.7126736111111112e-06
1800 285 2.7126736111111112e-06
1801 285 1.6276041666666666e-05
1803 285 1.6276041666666666e-05
1804 285 2.7126736111111112e-06
1894 285 1.6276041666666666e-05
1896 285 2.7126736111111112e-06
1897 285 1.6276041666666666e-05
1898 285 1.6276041666666666e-05
1899 285 1.6276041666666666e-05
1901 285 2.7126736111111112e-06
1992 285 2.7126736111111112e-06
286 286 0.00019531249999999998
287 286 1.0850694444444445e-05
317 286 1.0850694444444445e-05
318 286 1.0850694444444445e-05
1802 286 2.7126736111111112e-06
1803 286 2.7126736111111112e-06
1804 286 1.6276041666666666e-05
1806 286 1.6276041666666666e-05
1807 286 2.7126736111111112e-06
1897 286 1.6276041666666666e-05
1899 286 2.7126736111111112e-06
1900 286 1.6276041666666666e-05
1901 286 1.6276041666666666e-05
1902 286 1.6276041666666666e-05
1904 286 2.7126736111111112e-06
1995 286 2.7126736111111112e-06
287 287 0.00019531249999999998
288 287 1.0850694444444445e-05
318 287 1.0850694444444445e-05
319 287 1.0850694444444445e-05
1805 287 2.7126736111111112e-06
1806 287 2.7126736111111112e-06
1807 287 1.6276041666666666e-05
1809 287 1.6276041666666666e-05
1810 287 2.7126736111111112e-06
1900 287 1.6276041666666666e-05
1902 287 2.7126736111111112e-06
1903 287 1.6276041666666666e-05
1904 287 1.6276041666666666e-05
1905 287 1.6276041666666666e-05
1907 287 2.7126736111111112e-06
1998 287 2.7126736111111112e-06
288 288 0.00019531249999999998
289 288 1.0850694444444445e-05
319 288 1.0850694444444445e-05
320 288 1.0850694444444445e-05
1808 288 2.7126736111111112e-06
1809 288 2.7126736111111112e-06
1810 288 1.6276041666666666e-05
1812 288 1.6276041666666666e-05
1813 288 2.7126736111111112e-06
1903 288 1.6276041666666666e-05
1905 288 2.7126736111111112e-06
1906 288 1.6276041666666666e-05
1907 288 1.6276041666666666e-05
1908 288 1.6276041666666666e-05
1910 288 2.7126736111111112e-06
2001 288 2.7126736111111112e-06
289 289 0.00019531249999999998
290 289 1.0850694444444445e-05
320 289 1.0850694444444445e-05
321 289 1.0850694444444445e-05
1811 289 2.7126736111111112e-06
1812 289 2.7126736111111112e-06
1813 289 1.6276041666666666e-05
1815 289 1.6276041666666666e-05
1816 289 2.7126736111111112e-06
1906 289 1.6276041666666666e-05
1908 289 2.7126736111111112e-06
1909 289 1.6276041666666666e-05
1910 289 1.6276041666666666e-05
1911 289 1.6276041666666666e-05
1913 289 2.7126736111111112e-06
2004 289 2.7126736111111112e-06
290 290 0.00019531249999999998
291 290 1.0850694444444445e-05
321 290 1.0850694444444445e-05
322 290 1.0850694444444445e-05
1814 290 2.7126736111111112e-06
1815 290 2.7126736111111112e-06
1816 290 1.6276041666666666e-05
1818 290 1.6276041666666666e-05
1819 290 2.7126736111111112e-06
1909 290 1.6276041666666666e-05
1911 290 2.7126736111111112e-06
1912 290 1.6276041666666666e-05
1913 290 1.6276041666666666e-05
1914 290 1.6276041666666666e-05
1916 290 2.7126736111111112e-06
2007 290 2.7126736111111112e-06
291 291 0.00019531249999999998
292 291 1.0850694444444445e-05
322 291 1.0850694444444445e-05
323 291 1.0850694444444445e-05
1817 291 2.7126736111111112e-06
1818 291 2.7126736111111112e-06
1819 291 1.6276041666666666e-05
1821 291 1.6276041666666666e-05
1822 291 2.7126736111111112e-06
1912 291 1.6276041666666666e-05
1914 291 2.7126736111111112e-06
1915 291 1.6276041666666666e-05
1916 291 1.6276041666666666e-05
1917 291 1.6276041666666666e-05
1919 291 2.7126736111111112e-06
2010 291 2.7126736111111112e-06
292 292 0.00019531249999999998
293 292 1.0850694444444445e-05
323 292 1.0850694444444445e-05
324 292 1.0850694444444445e-05
1820 292 2.7126736111111112e-06
1821 292 2.7126736111111112e-06
1822 292 1.6276041666666666e-05
1824 292 1.6276041666666666e-05
1825 292 2.7126736111111112e-06
1915 292 1.6276041666666666e-05
1917 292 2.7126736111111112e-06
1918 292 1.6276041666666666e-05
1919 292 1.6276041666666666e-05
1920 292 1.6276041666666666e-05
1922 292 2.7126736111111112e-06
2013 292 2.7126736111111112e-06
293 293 0.00019531249999999998
294 293 1.0850694444444445e-05
324 293 1.0850694444444445e-05
325 293 1.0850694444444445e-05
1823 293 2.7126736111111112e-06
1824 293 2.7126736111111112e-06
1825 293 1.6276041666666666e-05
1827 293 1.6276041666666666e-05
1828 293 2.7126736111111112e-06
1918 293 1.6276041666666666e-05
1920 293 2.7126736111111112e-06
1921 293 1.6276041666666666e-05
1922 293 1.6276041666666666e-05
1923 293 1.6276041666666666e-05
1925 293 2.7126736111111112e-06
2016 293 2.7126736111111112e-06
294 294 0.00019531249999999998
295 294 1.0850694444444445e-05
325 294 1.0850694444444445e-05
326 294 1.0850694444444445e-05
1826 294 2.7126736111111112e-06
1827 294 2.7126736111111112e-06
1828 294 1.6276041666666666e-05
1830 294 1.6276041666666666e-05
1831 294 2.7126736111111112e-06
1921 294 1.6276041666666666e-05
1923 294 2.7126736111111112e-06
1924 294 1.6276041666666666e-05
1925 294 1.6276041666666666e-05
1926 294 1.6276041666666666e-05
1928 294 2.7126736111111112e-06
2019 294 2.7126736111111112e-06
295 295 0.00019531249999999998
296 295 1.0850694444444445e-05
326 295 1.0850694444444445e-05
327 295 1.0850694444444445e-05
1829 295 2.7126736111111112e-06
1830 295 2.7126736111111112e-06
1831 295 1.6276041666666666e-05
1833 295 1.6276041666666666e-05
1834 295 2.7126736111111112e-06
1924 295 1.6276041666666666e-05
1926 295 2.7126736111111112e-06
1927 295 1.6276041666666666e-05
1928 295 1.6276041666666666e-05
1929 295 1.6276041666666666e-05
1931 295 2.7126736111111112e-06
2022 295 2.7126736111111112e-06
296 296 0.00019531249999999998
297 296 1.0850694444444445e-05
327 296 1.0850694444444445e-05
328 296 1.0850694444444445e-05
1832 296 2.7126736111111112e-06
1833 296 2.7126736111111112e-06
1834 296 1.6276041666666666e-05
1836 296 1.6276041666666666e-05
1837 296 2.7126736111111112e-06
1927 296 1.6276041666666666e-05
1929 296 2.7126736111111112e-06
1930 296 1.6276041666666666e-05
1931 296 1.6276041666666666e-05
1932 296 1.6276041666666666e-05
1934 296 2.7126736111111112e-06
2025 296 2.7126736111111112e-06
297 297 0.00019531249999999998
298 297 1.0850694444444445e-05
328 297 1.0850694444444445e-05
329 297 1.0850694444444445e-05
1835 297 2.7126736111111112e-06
1836 297 2.7126736111111112e-06
1837 297 1.6276041666666666e-05
1839 297 1.6276041666666666e-05
1840 297 2.7126736111111112e-06
1930 297 1.6276041666666666e-05
1932 297 2.7126736111111112e-06
1933 297 1.6276041666666666e-05
1934 297 1.6276041666666666e-05
1935 297 1.6276041666666666e-05
1937 297 2.7126736111111112e-06
2028 297 2.7126736111111112e-06
298 298 0.00019531249999999998
299 298 1.0850694444444445e-05
329 298 1.0850694444444445e-05
330 298 1.0850694444444445e-05
1838 298 2.7126736111111112e-06
1839 298 2.7126736111111112e-06
1840 298 1.6276041666666666e-05
1842 298 1.6276041666666666e-05
1843 298 2.7126736111111112e-06
1933 298 1.6276041666666666e-05
1935 298 2.7126736111111112e-06
1936 298 1.6276041666666666e-05
1937 298 1.6276041666666666e-05
1938 298 1.6276041666666666e-05
1940 298 2.7126736111111112e-06
2031 298 2.7126736111111112e-06
299 299 0.00019531249999999998
300 299 1.0850694444444445e-05
330 299 1.0850694444444445e-05
331 299 1.0850694444444445e-05
1841 299 2.7126736111111112e-06
1842 299 2.7126736111111112e-06
1843 299 1.6276041666666666e-05
1845 299 1.6276041666666666e-05
1846 299 2.7126736111111112e-06
1936 299 1.6276041666666666e-05
1938 299 2.7126736111111112e-06
1939 299 1.6276041666666666e-05
1940 299 1.6276041666666666e-05
1941 299 1.6276041666666666e-05
1943 299 2.7126736111111112e-06
2034 299 2.7126736111111112e-06
300 300 0.00019531249999999998
301 300 1.0850694444444445e-05
331 300 1.0850694444444445e-05
332 300 1.0850694444444445e-05
1844 300 2.7126736111111112e-06
1845 300 2.7126736111111112e-06
1846 300 1.6276041666666666e-05
1848 300 1.6276041666666666e-05
1849 300 2.7126736111111112e-06
1939 300 1.6276041666666666e-05
1941 300 2.7126736111111112e-06
1942 300 1.6276041666666666e-05
1943 300 1.6276041666666666e-05
1944 300 1.6276041666666666e-05
1946 300 2.7126736111111112e-06
2037 300 2.7126736111111112e-06
301 301 0.00019531249999999998
302 301 1.0850694444444445e-05
332 301 1.0850694444444445e-05
333 301 1.0850694444444445e-05
1847 301 2.7126736111111112e-06
1848 301 2.7126736111111112e-06
1849 301 1.6276041666666666e-05
1851 301 1.6276041666666666e-05
1852 301 2.7126736111111112e-06
1942 301 1.6276041666666666e-05
1944 301 2.7126736111111112e-06
1945 301 1.6276041666666666e-05
1946 301 1.6276041666666666e-05
1947 301 1.6276041666666666e-05
1949 301 2.7126736111111112e-06
2040 301 2.7126736111111112e-06
302 302 0.00019531249999999998
303 302 1.0850694444444445e-05
333 302 1.0850694444444445e-05
334 302 1.0850694444444445e-05
1850 302 2.7126736111111112e-06
1851 302 2.7126736111111112e-06
1852 302 1.6276041666666666e-05
1854 302 1.6276041666666666e-05
1855 302 2.7126736111111112e-06
1945 302 1.6276041666666666e-05
1947 302 2.7126736111111112e-06
1948 302 1.6276041666666666e-05
1949 302 1.6276041666666666e-05
1950 302 1.6276041666666666e-05
1952 302 2.7126736111111112e-06
2043 302 2.7126736111111112e-06
303 303 0.00019531249999999998
304 303 1.0850694444444445e-05
334 303 1.0850694444444445e-05
335 303 1.0850694444444445e-05
1853 303 2.7126736111111112e-06
1854 303 2.7126736111111112e-06
1855 303 1.6276041666666666e-05
1857 303 1.6276041666666666e-05
1858 303 2.7126736111111112e-06
1948 303 1.6276041666666666e-05
1950 303 2.7126736111111112e-06
1951 303 1.6276041666666666e-05
1952 303 1.6276041666666666e-05
1953 303 1.6276041666666666e-05
1955 303 2.7126736111111112e-06
2046 303 2.7126736111111112e-06
304 304 0.00019531249999999998
305 304 1.0850694444444445e-05
335 304 1.0850694444444445e-05
336 304 1.0850694444444445e-05
1856 304 2.7126736111111112e-06
1857 304 2.7126736111111112e-06
1858 304 1.6276041666666666e-05
1860 304 1.6276041666666666e-05
1861 304 2.7126736111111112e-06
1951 304 1.6276041666666666e-05
1953 304 2.7126736111111112e-06
1954 304 1.6276041666666666e-05
1955 304 1.6276041666666666e-05
1956 304 1.6276041666666666e-05
1958 304 2.7126736111111112e-06
2049 304 2.7126736111111112e-06
305 305 0.00019531249999999998
306 305 1.0850694444444445e-05
336 305 1.0850694444444445e-05
337 305 1.0850694444444445e-05
1859 305 2.7126736111111112e-06
1860 305 2.7126736111111112e-06
1861 305 1.6276041666666666e-05
1863 305 1.6276041666666666e-05
1864 305 2.7126736111111112e-06
1954 305 1.6276041666666666e-05
1956 305 2.7126736111111112e-06
1957 305 1.6276041666666666e-05
1958 305 1.6276041666666666e-05
1959 305 1.6276041666666666e-05
1961 305 2.7126736111111112e-06
2052 305 2.7126736111111112e-06
306 306 0.00019531249999999998
307 306 1.0850694444444445e-05
337 306 1.0850694444444445e-05
338 306 1.0850694444444445e-05
1862 306 2.7126736111111112e-06
1863 306 2.7126736111111112e-06
1864 306 1.6276041666666666e-05
1866 306 1.6276041666666666e-05
1867 306 2.7126736111111112e-06
1957 306 1.6276041666666666e-05
1959 306 2.7126736111111112e-06
1960 306 1.6276041666666666e-05
1961 306 1.6276041666666666e-05
1962 306 1.6276041666666666e-05
1964 306 2.7126736111111112e-06
2055 306 2.7126736111111112e-06
307 307 0.00019531249999999998
308 307 1.0850694444444445e-05
338 307 1.0850694444444445e-05
339 307 1.0850694444444445e-05
1865 307 2.7126736111111112e-06
1866 307 2.7126736111111112e-06
1867 307 1.6276041666666666e-05
1869 307 1.6276041666666666e-05
1870 307 2.7126736111111112e-06
1960 307 1.6276041666666666e-05
1962 307 2.7126736111111112e-06
1963 307 1.6276041666666666e-05
1964 307 1.6276041666666666e-05
1965 307 1.6276041666666666e-05
1967 307 2.7126736111111112e-06
2058 307 2.7126736111111112e-06
308 308 0.00019531249999999998
309 308 1.0850694444444445e-05
339 308 1.0850694444444445e-05
340 308 1.0850694444444445e-05
1868 308 2.7126736111111112e-06
1869 308 2.7126736111111112e-06
1870 308 1.6276041666666666e-05
1872 308 1.6276041666666666e-05
1873 308 2.7126736111111112e-06
1963 308 1.6276041666666666e-05
1965 308 2.7126736111111112e-06
1966 308 1.6276041666666666e-05
1967 308 1.6276041666666666e-05
1968 308 1.6276041666666666e-05
1970 308 2.7126736111111112e-06
2061 308 2.7126736111111112e-06
309 309 0.00019531249999999998
310 309 1.0850694444444445e-05
340 309 1.0850694444444445e-05
341 309 1.0850694444444445e-05
1871 309 2.7126736111111112e-06
1872 309 2.7126736111111112e-06
1873 309 1.6276041666666666e-05
1875 309 1.6276041666666666e-05
1876 309 2.7126736111111112e-06
1966 309 1.6276041666666666e-05
1968 309 2.7126736111111112e-06
1969 309 1.6276041666666666e-05
1970 309 1.6276041666666666e-05
1971 309 1.6276041666666666e-05
1973 309 2.7126736111111112e-06
2064 309 2.7126736111111112e-06
310 310 0.00019531249999999998
341 310 1.0850694444444445e-05
1874 310 2.7126736111111112e-06
1875 310 2.7126736111111112e-06
1876 310 1.6276041666666666e-05
1878 310 1.6276041666666666e-05
1879 310 2.7126736111111112e-06
1969 310 1.6276041666666666e-05
1971 310 2.7126736111111112e-06
1972 310 1.6276041666666666e-05
1973 310 1.6276041666666666e-05
1974 310 1.6276041666666666e-05
2067 310 2.7126736111111112e-06
311 311 0.00019531249999999998
312 311 1.0850694444444445e-05
342 311 1.0850694444444445e-05
343 311 1.0850694444444445e-05
1880 311 2.7126736111111112e-06
1881 311 1.6276041666666666e-05
1883 311 1.6276041666666666e-05
1884 311 2.7126736111111112e-06
1975 311 1.6276041666666666e-05
1976 311 2.7126736111111112e-06
1977 311 1.6276041666666666e-05
1978 311 1.6276041666666666e-05
1979 311 1.6276041666666666e-05
1981 311 2.7126736111111112e-06
2072 311 2.7126736111111112e-06
312 312 0.00019531249999999998
313 312 1.0850694444444445e-05
343 312 1.0850694444444445e-05
344 312 1.0850694444444445e-05
1882 312 2.7126736111111112e-06
1883 312 2.7126736111111112e-06
1884 312 1.6276041666666666e-05
1886 312 1.6276041666666666e-05
1887 312 2.7126736111111112e-06
1977 312 1.6276041666666666e-05
1979 312 2.7126736111111112e-06
1980 312 1.6276041666666666e-05
1981 312 1.6276041666666666e-05
1982 312 1.6276041666666666e-05
1984 312 2.7126736111111112e-06
2075 312 2.7126736111111112e-06
313 313 0.00019531249999999998
314 313 1.0850694444444445e-05
344 313 1.0850694444444445e-05
345 313 1.0850694444444445e-05
1885 313 2.7126736111111112e-06
1886 313 2.7126736111111112e-06
1887 313 1.6276041666666666e-05
1889 313 1.6276041666666666e-05
1890 313 2.7126736111111112e-06
1980 313 1.6276041666666666e-05
1982 313 2.7126736111111112e-06
1983 313 1.6276041666666666e-05
1984 313 1.6276041666666666e-05
1985 313 1.6276041666666666e-05
1987 313 2.7126736111111112e-06
2078 313 2.7126736111111112e-06
314 314 0.00019531249999999998
315 314 1.0850694444444445e-05
345 314 1.0850694444444445e-05
346 314 1.0850694444444445e-05
1888 314 2.7126736111111112e-06
1889 314 2.7126736111111112e-06
1890 314 1.6276041666666666e-05
1892 314 1.6276041666666666e-05
1893 314 2.7126736111111112e-06
1983 314 1.6276041666666666e-05
1985 314 2.7126736111111112e-06
1986 314 1.6276041666666666e-05
1987 314 1.6276041666666666e-05
1988 314 1.6276041666666666e-05
1990 314 2.7126736111111112e-06
2081 314 2.7126736111111112e-06
315 315 0.00019531249999999998
316 315 1.0850694444444445e-05
346 315 1.0850694444444445e-05
347 315 1.0850694444444445e-05
1891 315 2.7126736111111112e-06
1892 315 2.7126736111111112e-06
1893 315 1.6276041666666666e-05
1895 315 1.6276041666666666e-05
1896 315 2.7126736111111112e-06
1986 315 1.6276041666666666e-05
1988 315 2.7126736111111112e-06
1989 315 1.6276041666666666e-05
1990 315 1.6276041666666666e-05
1991 315 1.6276041666666666e-05
1993 315 2.7126736111111112e-06
2084 315 2.7126736111111112e-06
316 316 0.00019531249999999998
317 316 1.0850694444444445e-05
347 316 1.0850694444444445e-05
348 316 1.0850694444444445e-05
1894 316 2.7126736111111112e-06
1895 316 2.7126736111111112e-06
1896 316 1.6276041666666666e-05
1898 316 1.6276041666666666e-05
1899 316 2.7126736111111112e-06
1989 316 1.6276041666666666e-05
1991 316 2.7126736111111112e-06
1992 316 1.6276041666666666e-05
1993 316 1.6276041666666666e-05
1994 316 1.6276041666666666e-05
1996 316 2.7126736111111112e-06
2087 316 2.7126736111111112e-06
317 317 0.00019531249999999998
318 317 1.0850694444444445e-05
348 317 1.0850694444444445e-05
349 317 1.0850694444444445e-05
1897 317 2.7126736111111112e-06
1898 317 2.7126736111111112e-06
1899 317 1.6276041666666666e-05
1901 317 1.6276041666666666e-05
1902 317 2.7126736111111112e-06
1992 317 1.6276041666666666e-05
1994 317 2.7126736111111112e-06
1995 317 1.6276041666666666e-05
1996 317 1.6276041666666666e-05
1997 317 1.6276041666666666e-05
1999 317 2.7126736111111112e-06
2090 317 2.7126736111111112e-06
318 318 0.00019531249999999998
319 318 1.0850694444444445e-05
349 318 1.0850694444444445e-05
350 318 1.0850694444444445e-05
1900 318 2.7126736111111112e-06
1901 318 2.7126736111111112e-06
1902 318 1.6276041666666666e-05
1904 318 1.6276041666666666e-05
1905 318 2.7126736111111112e-06
1995 318 1.6276041666666666e-05
1997 318 2.7126736111111112e-06
1998 318 1.6276041666666666e-05
1999 318 1.6276041666666666e-05
2000 318 1.6276041666666666e-05
2002 318 2.7126736111111112e-06
2093 318 2.7126736111111112e-06
319 319 0.00019531249999999998
320 319 1.0850694444444445e-05
350 319 1.0850694444444445e-05
351 319 1.0850694444444445e-05
1903 319 2.7126736111111112e-06
1904 319 2.7126736111111112e-06
1905 319 1.6276041666666666e-05
1907 319 1.6276041666666666e-05
1908 319 2.7126736111111112e-06
1998 319 1.6276041666666666e-05
2000 319 2.7126736111111112e-06
2001 319 1.6276041666666666e-05
2002 319 1.6276041666666666e-05
2003 319 1.6276041666666666e-05
2005 319 2.7126736111111112e-06
2096 319 2.7126736111111112e-06
320 320 0.00019531249999999998
321 320 1.0850694444444445e-05
351 320 1.0850694444444445e-05
352 320 1.0850694444444445e-05
1906 320 2.7126736111111112e-06
1907 320 2.7126736111111112e-06
1908 320 1.6276041666666666e-05
1910 320 1.6276041666666666e-05
1911 320 2.7126736111111112e-06
2001 320 1.6276041666666666e-05
2003 320 2.7126736111111112e-06
2004 320 1.6276041666666666e-05
2005 320 1.6276041666666666e-05
2006 320 1.6276041666666666e-05
2008 320 2.7126736111111112e-06
2099 320 2.7126736111111112e-06
321 321 0.00019531249999999998
322 321 1.0850694444444445e-05
352 321 1.0850694444444445e-05
353 321 1.0850694444444445e-05
1909 321 2.7126736111111112e-06
1910 321 2.7126736111111112e-06
1911 321 1.6276041666666666e-05
1913 321 1.6276041666666666e-05
1914 321 2.7126736111111112e-06
2004 321 1.6276041666666666e-05
2006 321 2.7126736111111112e-06
2007 321 1.6276041666666666e-05
2008 321 1.6276041666666666e-05
2009 321 1.6276041666666666e-05
2011 321 2.7126736111111112e-06
2102 321 2.7126736111111112e-06
322 322 0.00019531249999999998
323 322 1.0850694444444445e-05
353 322 1.0850694444444445e-05
354 322 1.0850694444444445e-05
1912 322 2.7126736111111112e-06
1913 322 2.7126736111111112e-06
1914 322 1.6276041666666666e-05
1916 322 1.6276041666666666e-05
1917 322 2.7126736111111112e-06
2007 322 1.6276041666666666e-05
2009 322 2.7126736111111112e-06
2010 322 1.6276041666666666e-05
2011 322 1.6276041666666666e-05
2012 322 1.6276041666666666e-05
2014 322 2.7126736111111112e-06
2105 322 2.7126736111111112e-06
323 323 0.00019531249999999998
324 323 1.0850694444444445e-05
354 323 1.0850694444444445e-05
355 323 1.0850694444444445e-05
1915 323 2.7126736111111112e-06
1916 323 2.7126736111111112e-06
1917 323 1.6276041666666666e-05
1919 323 1.6276041666666666e-05
1920 323 2.7126736111111112e-06
2010 323 1.6276041666666666e-05
2012 323 2.7126736111111112e-06
2013 323 1.6276041666666666e-05
2014 323 1.6276041666666666e-05
2015 323 1.6276041666666666e-05
2017 323 2.7126736111111112e-06
2108 323 2.7126736111111112e-06
324 324 0.00019531249999999998
325 324 1.0850694444444445e-05
355 324 1.0850694444444445e-05
356 324 1.0850694444444445e-05
1918 324 2.7126736111111112e-06
1919 324 2.7126736111111112e-06
1920 324 1.6276041666666666e-05
1922 324 1.6276041666666666e-05
1923 324 2.7126736111111112e-06
2013 324 1.6276041666666666e-05
2015 324 2.7126736111111112e-06
2016 324 1.6276041666666666e-05
2017 324 1.6276041666666666e-05
2018 324 1.6276041666666666e-05
2020 324 2.7126736111111112e-06
2111 324 2.7126736111111112e-06
325 325 0.00019531249999999998
326 325 1.0850694444444445e-05
356 325 1.0850694444444445e-05
357 325 1.0850694444444445e-05
1921 325 2.7126736111111112e-06
1922 325 2.7126736111111112e-06
1923 325 1.6276041666666666e-05
1925 325 1.6276041666666666e-05
1926 325 2.7126736111111112e-06
2016 325 1.6276041666666666e-05
2018 325 2.7126736111111112e-06
2019 325 1.6276041666666666e-05
2020 325 1.6276041666666666e-05
2021 325 1.6276041666666666e-05
2023 325 2.7126736111111112e-06
2114 325 2.7126736111111112e-06
326 326 0.00019531249999999998
327 326 1.0850694444444445e-05
357 326 1.0850694444444445e-05
358 326 1.0850694444444445e-05
1924 326 2.7126736111111112e-06
1925 326 2.7126736111111112e-06
1926 326 1.6276041666666666e-05
1928 326 1.6276041666666666e-05
1929 326 2.7126736111111112e-06
2019 326 1.6276041666666666e-05
2021 326 2.7126736111111112e-06
2022 326 1.6276041666666666e-05
2023 326 1.6276041666666666e-05
2024 326 1.6276041666666666e-05
2026 326 2.7126736111111112e-06
2117 326 2.7126736111111112e-06
327 327 0.00019531249999999998
328 327 1.0850694444444445e-05
358 327 1.0850694444444445e-05
359 327 1.0850694444444445e-05
1927 327 2.7126736111111112e-06
1928 327 2.7126736111111112e-06
1929 327 1.6276041666666666e-05
1931 327 1.6276041666666666e-05
1932 327 2.7126736111111112e-06
2022 327 1.6276041666666666e-05
2024 327 2.7126736111111112e-06
2025 327 1.6276041666666666e-05
2026 327 1.6276041666666666e-05
2027 327 1.6276041666666666e-05
2029 327 2.7126736111111112e-06
2120 327 2.7126736111111112e-06
328 328 0.00019531249999999998
329 328 1.0850694444444445e-05
359 328 1.0850694444444445e-05
360 328 1.0850694444444445e-05
1930 328 2.7126736111111112e-06
1931 328 2.7126736111111112e-06
1932 328 1.6276041666666666e-05
1934 328 1.6276041666666666e-05
1935 328 2.7126736111111112e-06
2025 328 1.6276041666666666e-05
2027 328 2.7126736111111112e-06
2028 328 1.6276041666666666e-05
2029 328 1.6276041666666666e-05
2030 328 1.6276041666666666e-05
2032 328 2.7126736111111112e-06
2123 328 2.7126736111111112e-06
329 329 0.00019531249999999998
330 329 1.0850694444444445e-05
360 329 1.0850694444444445e-05
361 329 1.0850694444444445e-05
1933 329 2.7126736111111112e-06
1934 329 2.7126736111111112e-06
1935 329 1.6276041666666666e-05
1937 329 1.6276041666666666e-05
1938 329 2.7126736111111112e-06
2028 329 1.6276041666666666e-05
2030 329 2.7126736111111112e-06
2031 329 1.6276041666666666e-05
2032 329 1.6276041666666666e-05
2033 329 1.6276041666666666e-05
2035 329 2.7126736111111112e-06
2126 329 2.7126736111111112e-06
330 330 0.00019531249999999998
331 330 1.0850694444444445e-05
361 330 1.0850694444444445e-05
362 330 1.0850694444444445e-05
1936 330 2.7126736111111112e-06
1937 330 2.7126736111111112e-06
1938 330 1.6276041666666666e-05
1940 330 1.6276041666666666e-05
1941 330 2.7126736111111112e-06
2031 330 1.6276041666666666e-05
2033 330 2.7126736111111112e-06
2034 330 1.6276041666666666e-05
2035 330 1.6276041666666666e-05
2036 330 1.6276041666666666e-05
2038 330 2.7126736111111112e-06
2129 330 2.7126736111111112e-06
331 331 0.00019531249999999998
332 331 1.0850694444444445e-05
362 331 1.0850694444444445e-05
363 331 1.0850694444444445e-05
1939 331 2.7126736111111112e-06
1940 331 2.7126736111111112e-06
1941 331 1.6276041666666666e-05
1943 331 1.6276041666666666e-05
1944 331 2.7126736111111112e-06
2034 331 1.6276041666666666e-05
2036 331 2.7126736111111112e-06
2037 331 1.6276041666666666e-05
2038 331 1.6276041666666666e-05
2039 331 1.6276041666666666e-05
2041 331 2.7126736111111112e-06
2132 331 2.7126736111111112e-06
332 332 0.00019531249999999998
333 332 1.0850694444444445e-05
363 332 1.0850694444444445e-05
364 332 1.0850694444444445e-05
1942 332 2.7126736111111112e-06
1943 332 2.7126736111111112e-06
1944 332 1.6276041666666666e-05
1946 332 1.6276041666666666e-05
1947 332 2.7126736111111112e-06
2037 332 1.6276041666666666e-05
2039 332 2.7126736111111112e-06
2040 332 1.6276041666666666e-05
2041 332 1.6276041666666666e-05
2042 332 1.6276041666666666e-05
2044 332 2.7126736111111112e-06
2135 332 2.7126736111111112e-06
333 333 0.00019531249999999998
334 333 1.0850694444444445e-05
364 333 1.0850694444444445e-05
365 333 1.0850694444444445e-05
1945 333 2.7126736111111112e-06
1946 333 2.7126736111111112e-06
1947 333 1.6276041666666666e-05
1949 333 1.6276041666666666e-05
1950 333 2.7126736111111112e-06
2040 333 1.6276041666666666e-05
2042 333 2.7126736111111112e-06
2043 333 1.6276041666666666e-05
2044 333 1.6276041666666666e-05
2045 333 1.6276041666666666e-05
2047 333 2.7126736111111112e-06
2138 333 2.7126736111111112e-06
334 334 0.00019531249999999998
335 334 1.0850694444444445e-05
365 334 1.0850694444444445e-05
366 334 1.0850694444444445e-05
1948 334 2.7126736111111112e-06
1949 334 2.7126736111111112e-06
1950 334 1.6276041666666666e-05
1952 334 1.6276041666666666e-05
1953 334 2.7126736111111112e-06
2043 334 1.6276041666666666e-05
2045 334 2.7126736111111112e-06
2046 334 1.6276041666666666e-05
2047 334 1.6276041666666666e-05
2048 334 1.6276041666666666e-05
2050 334 2.7126736111111112e-06
2141 334 2.7126736111111112e-06
335 335 0.00019531249999999998
336 335 1.0850694444444445e-05
366 335 1.0850694444444445e-05
367 335 1.0850694444444445e-05
1951 335 2.7126736111111112e-06
1952 335 2.7126736111111112e-06
1953 335 1.6276041666666666e-05
1955 335 1.6276041666666666e-05
1956 335 2.7126736111111112e-06
2046 335 1.6276041666666666e-05
2048 335 2.7126736111111112e-06
2049 335 1.6276041666666666e-05
2050 335 1.6276041666666666e-05
2051 335 1.6276041666666666e-05
2053 335 2.7126736111111112e-06
2144 335 2.7126736111111112e-06
336 336 0.00019531249999999998
337 336 1.0850694444444445e-05
367 336 1.0850694444444445e-05
368 336 1.0850694444444445e-05
1954 336 2.7126736111111112e-06
1955 336 2.7126736111111112e-06
1956 336 1.6276041666666666e-05
1958 336 1.6276041666666666e-05
1959 336 2.7126736111111112e-06
2049 336 1.6276041666666666e-05
2051 336 2.7126736111111112e-06
2052 336 1.6276041666666666e-05
2053 336 1.6276041666666666e-05
2054 336 1.6276041666666666e-05
2056 336 2.7126736111111112e-06
2147 336 2.7126736111111112e-06
337 337 0.00019531249999999998
338 337 1.0850694444444445e-05
368 337 1.0850694444444445e-05
369 337 1.0850694444444445e-05
1957 337 2.7126736111111112e-06
1958 337 2.7126736111111112e-06
1959 337 1.6276041666666666e-05
1961 337 1.6276041666666666e-05
1962 337 2.7126736111111112e-06
2052 337 1.6276041666666666e-05
2054 337 2.7126736111111112e-06
2055 337 1.6276041666666666e-05
2056 337 1.6276041666666666e-05
2057 337 1.6276041666666666e-05
2059 337 2.7126736111111112e-06
2150 337 2.7126736111111112e-06
338 338 0.00019531249999999998
339 338 1.0850694444444445e-05
369 338 1.0850694444444445e-05
370 338 1.0850694444444445e-05
1960 338 2.7126736111111112e-06
1961 338 2.7126736111111112e-06
1962 338 1.6276041666666666e-05
1964 338 1.6276041666666666e-05
1965 338 2.7126736111111112e-06
2055 338 1.6276041666666666e-05
2057 338 2.7126736111111112e-06
2058 338 1.6276041666666666e-05
2059 338 1.6276041666666666e-05
2060 338 1.6276041666666666e-05
2062 338 2.7126736111111112e-06
2153 338 2.7126736111111112e-06
339 339 0.00019531249999999998
340 339 1.0850694444444445e-05
370 339 1.0850694444444445e-05
371 339 1.0850694444444445e-05
1963 339 2.7126736111111112e-06
1964 339 2.7126736111111112e-06
1965 339 1.6276041666666666e-05
1967 339 1.6276041666666666e-05
1968 339 2.7126736111111112e-06
2058 339 1.6276041666666666e-05
2060 339 2.7126736111111112e-06
2061 339 1.6276041666666666e-05
2062 339 1.6276041666666666e-05
2063 339 1.6276041666666666e-05
2065 339 2.7126736111111112e-06
2156 339 2.7126736111111112e-06
340 340 0.00019531249999999998
341 340 1.0850694444444445e-05
371 340 1.0850694444444445e-05
372 340 1.0850694444444445e-05
1966 340 2.7126736111111112e-06
1967 340 2.7126736111111112e-06
1968 340 1.6276041666666666e-05
1970 340 1.6276041666666666e-05
1971 340 2.7126736111111112e-06
2061 340 1.6276041666666666e-05
2063 340 2.7126736111111112e-06
2064 340 1.6276041666666666e-05
2065 340 1.6276041666666666e-05
2066 340 1.6276041666666666e-05
2068 340 2.7126736111111112e-06
2159 340 2.7126736111111112e-06
341 341 0.00019531249999999998
372 341 1.0850694444444445e-05
1969 341 2.7126736111111112e-06
1970 341 2.7126736111111112e-06
1971 341 1.6276041666666666e-05
1973 341 1.6276041666666666e-05
1974 341 2.7126736111111112e-06
2064 341 1.6276041666666666e-05
2066 341 2.7126736111111112e-06
2067 341 1.6276041666666666e-05
2068 341 1.6276041666666666e-05
2069 341 1.6276041666666666e-05
2162 341 2.7126736111111112e-06
342 342 0.00019531249999999998
343 342 1.0850694444444445e-05
373 342 1.0850694444444445e-05
374 342 1.0850694444444445e-05
1975 342 2.7126736111111112e-06
1976 342 1.6276041666666666e-05
1978 342 1.6276041666666666e-05
1979 342 2.7126736111111112e-06
2070 342 1.6276041666666666e-05
2071 342 2.7126736111111112e-06
2072 342 1.6276041666666666e-05
2073 342 1.6276041666666666e-05
2074 342 1.6276041666666666e-05
2076 342 2.7126736111111112e-06
2167 342 2.7126736111111112e-06
343 343 0.00019531249999999998
344 343 1.0850694444444445e-05
374 343 1.0850694444444445e-05
375 343 1.0850694444444445e-05
1977 343 2.7126736111111112e-06
1978 343 2.7126736111111112e-06
1979 343 1.6276041666666666e-05
1981 343 1.6276041666666666e-05
1982 343 2.7126736111111112e-06
2072 343 1.6276041666666666e-05
2074 343 2.7126736111111112e-06
2075 343 1.6276041666666666e-05
2076 343 1.6276041666666666e-05
2077 343 1.6276041666666666e-05
2079 343 2.7126736111111112e-06
2170 343 2.7126736111111112e-06
344 344 0.00019531249999999998
345 344 1.0850694444444445e-05
375 344 1.0850694444444445e-05
376 344 1.0850694444444445e-05
1980 344 2.7126736111111112e-06
1981 344 2.7126736111111112e-06
1982 344 1.6276041666666666e-05
1984 344 1.6276041666666666e-05
1985 344 2.7126736111111112e-06
2075 344 1.6276041666666666e-05
2077 344 2.7126736111111112e-06
2078 344 1.6276041666666666e-05
2079 344 1.6276041666666666e-05
2080 344 1.6276041666666666e-05
2082 344 2.7126736111111112e-06
2173 344 2.7126736111111112e-06
345 345 0.00019531249999999998
346 345 1.0850694444444445e-05
376 345 1.0850694444444445e-05
377 345 1.0850694444444445e-05
1983 345 2.7126736111111112e-06
1984 345 2.7126736111111112e-06
1985 345 1.6276041666666666e-05
1987 345 1.6276041666666666e-05
1988 345 2.7126736111111112e-06
2078 345 1.6276041666666666e-05
2080 345 2.7126736111111112e-06
2081 345 1.6276041666666666e-05
2082 345 1.6276041666666666e-05
2083 345 1.6276041666666666e-05
2085 345 2.7126736111111112e-06
2176 345 2.7126736111111112e-06
346 346 0.00019531249999999998
347 346 1.0850694444444445e-05
377 346 1.0850694444444445e-05
378 346 1.0850694444444445e-05
1986 346 2.7126736111111112e-06
1987 346 2.7126736111111112e-06
1988 346 1.6276041666666666e-05
1990 346 1.6276041666666666e-05
1991 346 2.7126736111111112e-06
2081 346 1.6276041666666666e-05
2083 346 2.7126736111111112e-06
2084 346 1.6276041666666666e-05
2085 346 1.6276041666666666e-05
2086 346 1.6276041666666666e-05
2088 346 2.7126736111111112e-06
2179 346 2.7126736111111112e-06
347 347 0.00019531249999999998
348 347 1.0850694444444445e-05
378 347 1.0850694444444445e-05
379 347 1.0850694444444445e-05
1989 347 2.7126736111111112e-06
1990 347 2.7126736111111112e-06
1991 347 1.6276041666666666e-05
1993 347 1.6276041666666666e-05
1994 347 2.7126736111111112e-06
2084 347 1.6276041666666666e-05
2086 347 2.7126736111111112e-06
2087 347 1.6276041666666666e-05
2088 347 1.6276041666666666e-05
2089 347 1.6276041666666666e-05
2091 347 2.7126736111111112e-06
2182 347 2.7126736111111112e-06
348 348 0.00019531249999999998
349 348 1.0850694444444445e-05
379 348 1.0850694444444445e-05
380 348 1.0850694444444445e-05
1992 348 2.7126736111111112e-06
1993 348 2.7126736111111112e-06
1994 348 1.6276041666666666e-05
1996 348 1.6276041666666666e-05
1997 348 2.7126736111111112e-06
2087 348 1.6276041666666666e-05
2089 348 2.7126736111111112e-06
2090 348 1.6276041666666666e-05
2091 348 1.6276041666666666e-05
2092 348 1.6276041666666666e-05
2094 348 2.7126736111111112e-06
2185 348 2.7126736111111112e-06
349 349 0.00019531249999999998
350 349 1.0850694444444445e-05
380 349 1.0850694444444445e-05
381 349 1.0850694444444445e-05
1995 349 2.7126736111111112e-06
1996 349 2.7126736111111112e-06
1997 349 1.6276041666666666e-05
1999 349 1.6276041666666666e-05
2000 349 2.7126736111111112e-06
2090 349 1.6276041666666666e-05
2092 349 2.7126736111111112e-06
2093 349 1.6276041666666666e-05
2094 349 1.6276041666666666e-05
2095 349 1.6276041666666666e-05
2097 349 2.7126736111111112e-06
2188 349 2.7126736111111112e-06
350 350 0.00019531249999999998
351 350 1.0850694444444445e-05
381 350 1.0850694444444445e-05
382 350 1.0850694444444445e-05
1998 350 2.7126736111111112e-06
1999 350 2.7126736111111112e-06
2000 350 1.6276041666666666e-05
2002 350 1.6276041666666666e-05
2003 350 2.7126736111111112e-06
2093 350 1.6276041666666666e-05
2095 350 2.7126736111111112e-06
2096 350 1.6276041666666666e-05
2097 350 1.6276041666666666e-05
2098 350 1.6276041666666666e-05
2100 350 2.7126736111111112e-06
2191 350 2.7126736111111112e-06
351 351 0.00019531249999999998
352 351 1.0850694444444445e-05
382 351 1.0850694444444445e-05
383 351 1.0850694444444445e-05
2001 351 2.7126736111111112e-06
2002 351 2.7126736111111112e-06
2003 351 1.6276041666666666e-05
2005 351 1.6276041666666666e-05
2006 351 2.7126736111111112e-06
2096 351 1.6276041666666666e-05
2098 351 2.7126736111111112e-06
2099 351 1.6276041666666666e-05
2100 351 1.6276041666666666e-05
2101 351 1.6276041666666666e-05
2103 351 2.7126736111111112e-06
2194 351 2.7126736111111112e-06
352 352 0.00019531249999999998
353 352 1.0850694444444445e-05
383 352 1.0850694444444445e-05
384 352 1.0850694444444445e-05
2004 352 2.7126736111111112e-06
2005 352 2.7126736111111112e-06
2006 352 1.6276041666666666e-05
2008 352 1.6276041666666666e-05
2009 352 2.7126736111111112e-06
2099 352 1.6276041666666666e-05
2101 352 2.7126736111111112e-06
2102 352 1.6276041666666666e-05
2103 352 1.6276041666666666e-05
2104 352 1.6276041666666666e-05
2106 352 2.7126736111111112e-06
2197 352 2.7126736111111112e-06
353 353 0.00019531249999999998
354 353 1.0850694444444445e-05
384 353 1.0850694444444445e-05
385 353 1.0850694444444445e-05
2007 353 2.7126736111111112e-06
2008 353 2.7126736111111112e-06
2009 353 1.6276041666666666e-05
2011 353 1.6276041666666666e-05
2012 353 2.7126736111111112e-06
2102 353 1.6276041666666666e-05
2104 353 2.7126736111111112e-06
2105 353 1.6276041666666666e-05
2106 353 1.6276041666666666e-05
2107 353 1.6276041666666666e-05
2109 353 2.7126736111111112e-06
2200 353 2.7126736111111112e-06
354 354 0.00019531249999999998
355 354 1.0850694444444445e-05
385 354 1.0850694444444445e-05
386 354 1.0850694444444445e-05
2010 354 2.7126736111111112e-06
2011 354 2.7126736111111112e-06
2012 354 1.6276041666666666e-05
2014 354 1.6276041666666666e-05
2015 354 2.7126736111111112e-06
2105 354 1.6276041666666666e-05
2107 354 2.7126736111111112e-06
2108 354 1.6276041666666666e-05
2109 354 1.6276041666666666e-05
2110 354 1.6276041666666666e-05
2112 354 2.7126736111111112e-06
2203 354 2.7126736111111112e-06
355 355 0.00019531249999999998
356 355 1.0850694444444445e-05
386 355 1.0850694444444445e-05
387 355 1.0850694444444445e-05
2013 355 2.7126736111111112e-06
2014 355 2.7126736111111112e-06
2015 355 1.6276041666666666e-05
2017 355 1.6276041666666666e-05
2018 355 2.7126736111111112e-06
2108 355 1.6276041666666666e-05
2110 355 2.7126736111111112e-06
2111 355 1.6276041666666666e-05
2112 355 1.6276041666666666e-05
2113 355 1.6276041666666666e-05
2115 355 2.7126736111111112e-06
2206 355 2.7126736111111112e-06
356 356 0.00019531249999999998
357 356 1.0850694444444445e-05
387 356 1.0850694444444445e-05
388 356 1.0850694444444445e-05
2016 356 2.7126736111111112e-06
2017 356 2.7126736111111112e-06
2018 356 1.6276041666666666e-05
2020 356 1.6276041666666666e-05
2021 356 2.7126736111111112e-06
2111 356 1.6276041666666666e-05
2113 356 2.7126736111111112e-06
2114 356 1.6276041666666666e-05
2115 356 1.6276041666666666e-05
2116 356 1.6276041666666666e-05
2118 356 2.7126736111111112e-06
2209 356 2.7126736111111112e-06
357 357 0.00019531249999999998
358 357 1.0850694444444445e-05
388 357 1.0850694444444445e-05
389 357 1.0850694444444445e-05
2019 357 2.7126736111111112e-06
2020 357 2.7126736111111112e-06
2021 357 1.6276041666666666e-05
2023 357 1.6276041666666666e-05
2024 357 2.7126736111111112e-06
2114 357 1.6276041666666666e-05
2116 357 2.7126736111111112e-06
2117 357 1.6276041666666666e-05
2118 357 1.6276041666666666e-05
2119 357 1.6276041666666666e-05
2121 357 2.7126736111111112e-06
2212 357 2.7126736111111112e-06
358 358 0.00019531249999999998
359 358 1.0850694444444445e-05
389 358 1.0850694444444445e-05
390 358 1.0850694444444445e-05
2022 358 2.7126736111111112e-06
2023 358 2.7126736111111112e-06
2024 358 1.6276041666666666e-05
2026 358 1.6276041666666666e-05
2027 358 2.7126736111111112e-06
2117 358 1.6276041666666666e-05
2119 358 2.7126736111111112e-06
2120 358 1.6276041666666666e-05
2121 358 1.6276041666666666e-05
2122 358 1.6276041666666666e-05
2124 358 2.7126736111111112e-06
2215 358 2.7126736111111112e-06
359 359 0.00019531249999999998
360 359 1.0850694444444445e-05
390 359 1.0850694444444445e-05
391 359 1.0850694444444445e-05
2025 359 2.7126736111111112e-06
2026 359 2.7126736111111112e-06
2027 359 1.6276041666666666e-05
2029 359 1.6276041666666666e-05
2030 359 2.7126736111111112e-06
2120 359 1.6276041666666666e-05
2122 359 2.7126736111111112e-06
2123 359 1.6276041666666666e-05
2124 359 1.6276041666666666e-05
2125 359 1.6276041666666666e-05
2127 359 2.7126736111111112e-06
2218 359 2.7126736111111112e-06
360 360 0.00019531249999999998
361 360 1.0850694444444445e-05
391 360 1.0850694444444445e-05
392 360 1.0850694444444445e-05
2028 360 2.7126736111111112e-06
2029 360 2.7126736111111112e-06
2030 360 1.6276041666666666e-05
2032 360 1.6276041666666666e-05
2033 360 2.7126736111111112e-06
2123 360 1.6276041666666666e-05
2125 360 2.7126736111111112e-06
2126 360 1.6276041666666666e-05
2127 360 1.6276041666666666e-05
2128 360 1.6276041666666666e-05
2130 360 2.7126736111111112e-06
2221 360 2.7126736111111112e-06
361 361 0.00019531249999999998
362 361 1.0850694444444445e-05
392 361 1.0850694444444445e-05
393 361 1.0850694444444445e-05
2031 361 2.7126736111111112e-06
2032 361 2.7126736111111112e-06
2033 361 1.6276041666666666e-05
2035 361 1.6276041666666666e-05
2036 361 2.7126736111111112e-06
2126 361 1.6276041666666666e-05
2128 361 2.7126736111111112e-06
2129 361 1.6276041666666666e-05
2130 361 1.6276041666666666e-05
2131 361 1.6276041666666666e-05
2133 361 2.7126736111111112e-06
2224 361 2.7126736111111112e-06
362 362 0.00019531249999999998
363 362 1.0850694444444445e-05
393 362 1.0850694444444445e-05
394 362 1.0850694444444445e-05
2034 362 2.7126736111111112e-06
2035 362 2.7126736111111112e-06
2036 362 1.6276041666666666e-05
2038 362 1.6276041666666666e-05
2039 362 2.7126736111111112e-06
2129 362 1.6276041666666666e-05
2131 362 2.7126736111111112e-06
2132 362 1.6276041666666666e-05
2133 362 1.6276041666666666e-05
2134 362 1.6276041666666666e-05
2136 362 2.7126736111111112e-06
2227 362 2.7126736111111112e-06
363 363 0.00019531249999999998
364 363 1.0850694444444445e-05
394 363 1.0850694444444445e-05
395 363 1.0850694444444445e-05
2037 363 2.7126736111111112e-06
2038 363 2.7126736111111112e-06
2039 363 1.6276041666666666e-05
2041 363 1.6276041666666666e-05
2042 363 2.7126736111111112e-06
2132 363 1.6276041666666666e-05
2134 363 2.7126736111111112e-06
2135 363 1.6276041666666666e-05
2136 363 1.6276041666666666e-05
2137 363 1.6276041666666666e-05
2139 363 2.7126736111111112e-06
2230 363 2.7126736111111112e-06
364 364 0.00019531249999999998
365 364 1.0850694444444445e-05
395 364 1.0850694444444445e-05
396 364 1.0850694444444445e-05
2040 364 2.7126736111111112e-06
2041 364 2.7126736111111112e-06
2042 364 1.6276041666666666e-05
2044 364 1.6276041666666666e-05
2045 364 2.7126736111111112e-06
2135 364 1.6276041666666666e-05
2137 364 2.7126736111111112e-06
2138 364 1.6276041666666666e-05
2139 364 1.6276041666666666e-05
2140 364 1.6276041666666666e-05
2142 364 2.7126736111111112e-06
2233 364 2.7126736111111112e-06
365 365 0.00019531249999999998
366 365 1.0850694444444445e-05
396 365 1.0850694444444445e-05
397 365 1.0850694444444445e-05
2043 365 2.7126736111111112e-06
2044 365 2.7126736111111112e-06
2045 365 1.6276041666666666e-05
2047 365 1.6276041666666666e-05
2048 365 2.7126736111111112e-06
2138 365 1.6276041666666666e-05
2140 365 2.7126736111111112e-06
2141 365 1.6276041666666666e-05
2142 365 1.6276041666666666e-05
2143 365 1.6276041666666666e-05
2145 365 2.7126736111111112e-06
2236 365 2.7126736111111112e-06
366 366 0.00019531249999999998
367 366 1.0850694444444445e-05
397 366 1.0850694444444445e-05
398 366 1.0850694444444445e-05
2046 366 2.7126736111111112e-06
2047 366 2.7126736111111112e-06
2048 366 1.6276041666666666e-05
2050 366 1.6276041666666666e-05
2051 366 2.7126736111111112e-06
2141 366 1.6276041666666666e-05
2143 366 2.7126736111111112e-06
2144 366 1.6276041666666666e-05
2145 366 1.6276041666666666e-05
2146 366 1.6276041666666666e-05
2148 366 2.7126736111111112e-06
2239 366 2.7126736111111112e-06
367 367 0.00019531249999999998
368 367 1.0850694444444445e-05
398 367 1.0850694444444445e-05
399 367 1.0850694444444445e-05
2049 367 2.7126736111111112e-06
2050 367 2.7126736111111112e-06
2051 367 1.6276041666666666e-05
2053 367 1.6276041666666666e-05
2054 367 2.7126736111111112e-06
2144 367 1.6276041666666666e-05
2146 367 2.7126736111111112e-06
2147 367 1.6276041666666666e-05
2148 367 1.6276041666666666e-05
2149 367 1.6276041666666666e-05
2151 367 2.7126736111111112e-06
2242 367 2.7126736111111112e-06
368 368 0.00019531249999999998
369 368 1.0850694444444445e-05
399 368 1.0850694444444445e-05
400 368 1.0850694444444445e-05
2052 368 2.7126736111111112e-06
2053 368 2.7126736111111112e-06
2054 368 1.6276041666666666e-05
2056 368 1.6276041666666666e-05
2057 368 2.7126736111111112e-06
2147 368 1.6276041666666666e-05
2149 368 2.7126736111111112e-06
2150 368 1.6276041666666666e-05
2151 368 1.6276041666666666e-05
2152 368 1.6276041666666666e-05
2154 368 2.7126736111111112e-06
2245 368 2.7126736111111112e-06
369 369 0.00019531249999999998
370 369 1.0850694444444445e-05
400 369 1.0850694444444445e-05
401 369 1.0850694444444445e-05
2055 369 2.7126736111111112e-06
2056 369 2.7126736111111112e-06
2057 369 1.6276041666666666e-05
2059 369 1.6276041666666666e-05
2060 369 2.7126736111111112e-06
2150 369 1.6276041666666666e-05
2152 369 2.7126736111111112e-06
2153 369 1.6276041666666666e-05
2154 369 1.6276041666666666e-05
2155 369 1.6276041666666666e-05
2157 369 2.7126736111111112e-06
2248 369 2.7126736111111112e-06
370 370 0.00019531249999999998
371 370 1.0850694444444445e-05
401 370 1.0850694444444445e-05
402 370 1.0850694444444445e-05
2058 370 2.7126736111111112e-06
2059 370 2.7126736111111112e-06
2060 370 1.6276041666666666e-05
2062 370 1.6276041666666666e-05
2063 370 2.7126736111111112e-06
2153 370 1.6276041666666666e-05
2155 370 2.7126736111111112e-06
2156 370 1.6276041666666666e-05
2157 370 1.6276041666666666e-05
2158 370 1.6276041666666666e-05
2160 370 2.7126736111111112e-06
2251 370 2.7126736111111112e-06
371 371 0.00019531249999999998
372 371 1.0850694444444445e-05
402 371 1.0850694444444445e-05
403 371 1.0850694444444445e-05
2061 371 2.7126736111111112e-06
2062 371 2.7126736111111112e-06
2063 371 1.6276041666666666e-05
2065 371 1.6276041666666666e-05
2066 371 2.7126736111111112e-06
2156 371 1.6276041666666666e-05
2158 371 2.7126736111111112e-06
2159 371 1.6276041666666666e-05
2160 371 1.6276041666666666e-05
2161 371 1.6276041666666666e-05
2163 371 2.7126736111111112e-06
2254 371 2.7126736111111112e-06
372 372 0.00019531249999999998
403 372 1.0850694444444445e-05
2064 372 2.7126736111111112e-06
2065 372 2.7126736111111112e-06
2066 372 1.6276041666666666e-05
2068 372 1.6276041666666666e-05
2069 372 2.7126736111111112e-06
2159 372 1.6276041666666666e-05
2161 372 2.7126736111111112e-06
2162 372 1.6276041666666666e-05
2163 372 1.6276041666666666e-05
2164 372 1.6276041666666666e-05
2257 372 2.7126736111111112e-06
373 373 0.00019531249999999998
374 373 1.0850694444444445e-05
404 373 1.0850694444444445e-05
405 373 1.0850694444444445e-05
2070 373 2.7126736111111112e-06
2071 373 1.6276041666666666e-05
2073 373 1.6276041666666666e-05
2074 373 2.7126736111111112e-06
2165 373 1.6276041666666666e-05
2166 373 2.7126736111111112e-06
2167 373 1.6276041666666666e-05
2168 373 1.6276041666666666e-05
2169 373 1.6276041666666666e-05
2171 373 2.7126736111111112e-06
2262 373 2.7126736111111112e-06
374 374 0.00019531249999999998
375 374 1.0850694444444445e-05
405 374 1.0850694444444445e-05
406 374 1.0850694444444445e-05
2072 374 2.7126736111111112e-06
2073 374 2.7126736111111112e-06
2074 374 1.6276041666666666e-05
2076 374 1.6276041666666666e-05
2077 374 2.7126736111111112e-06
2167 374 1.6276041666666666e-05
2169 374 2.7126736111111112e-06
2170 374 1.6276041666666666e-05
2171 374 1.6276041666666666e-05
2172 374 1.6276041666666666e-05
2174 374 2.7126736111111112e-06
2265 374 2.7126736111111112e-06
375 375 0.00019531249999999998
376 375 1.0850694444444445e-05
406 375 1.0850694444444445e-05
407 375 1.0850694444444445e-05
2075 375 2.7126736111111112e-06
2076 375 2.7126736111111112e-06
2077 375 1.6276041666666666e-05
2079 375 1.6276041666666666e-05
2080 375 2.7126736111111112e-06
2170 375 1.6276041666666666e-05
2172 375 2.7126736111111112e-06
2173 375 1.6276041666666666e-05
2174 375 1.6276041666666666e-05
2175 375 1.6276041666666666e-05
2177 375 2.7126736111111112e-06
2268 375 2.7126736111111112e-06
376 376 0.00019531249999999998
377 376 1.0850694444444445e-05
407 376 1.0850694444444445e-05
408 376 1.0850694444444445e-05
2078 376 2.7126736111111112e-06
2079 376 2.7126736111111112e-06
2080 376 1.6276041666666666e-05
2082 376 1.6276041666666666e-05
2083 376 2.7126736111111112e-06
2173 376 1.6276041666666666e-05
2175 376 2.7126736111111112e-06
2176 376 1.6276041666666666e-05
2177 376 1.6276041666666666e-05
2178 376 1.6276041666666666e-05
2180 376 2.7126736111111112e-06
2271 376 2.7126736111111112e-06
377 377 0.00019531249999999998
378 377 1.0850694444444445e-05
408 377 1.0850694444444445e-05
409 377 1.0850694444444445e-05
2081 377 2.7126736111111112e-06
2082 377 2.7126736111111112e-06
2083 377 1.6276041666666666e-05
2085 377 1.6276041666666666e-05
2086 377 2.7126736111111112e-06
2176 377 1.6276041666666666e-05
2178 377 2.7126736111111112e-06
2179 377 1.6276041666666666e-05
2180 377 1.6276041666666666e-05
2181 377 1.6276041666666666e-05
2183 377 2.7126736111111112e-06
2274 377 2.7126736111111112e-06
378 378 0.00019531249999999998
379 378 1.0850694444444445e-05
409 378 1.0850694444444445e-05
410 378 1.0850694444444445e-05
2084 378 2.7126736111111112e-06
2085 378 2.7126736111111112e-06
2086 378 1.6276041666666666e-05
2088 378 1.6276041666666666e-05
2089 378 2.7126736111111112e-06
2179 378 1.6276041666666666e-05
2181 378 2.7126736111111112e-06
2182 378 1.6276041666666666e-05
2183 378 1.6276041666666666e-05
2184 378 1.6276041666666666e-05
2186 378 2.7126736111111112e-06
2277 378 2.7126736111111112e-06
379 379 0.00019531249999999998
380 379 1.0850694444444445e-05
410 379 1.0850694444444445e-05
411 379 1.0850694444444445e-05
2087 379 2.7126736111111112e-06
2088 379 2.7126736111111112e-06
2089 379 1.6276041666666666e-05
2091 379 1.6276041666666666e-05
2092 379 2.7126736111111112e-06
2182 379 1.6276041666666666e-05
2184 379 2.7126736111111112e-06
2185 379 1.6276041666666666e-05
2186 379 1.6276041666666666e-05
2187 379 1.6276041666666666e-05
2189 379 2.7126736111111112e-06
2280 379 2.7126736111111112e-06
380 380 0.00019531249999999998
381 380 1.0850694444444445e-05
411 380 1.0850694444444445e-05
412 380 1.0850694444444445e-05
2090 380 2.7126736111111112e-06
2091 380 2.7126736111111112e-06
2092 380 1.6276041666666666e-05
2094 380 1.6276041666666666e-05
2095 380 2.7126736111111112e-06
2185 380 1.6276041666666666e-05
2187 380 2.7126736111111112e-06
2188 380 1.6276041666666666e-05
2189 380 1.6276041666666666e-05
2190 380 1.6276041666666666e-05
2192 380 2.7126736111111112e-06
2283 380 2.7126736111111112e-06
381 381 0.00019531249999999998
382 381 1.0850694444444445e-05
412 381 1.0850694444444445e-05
413 381 1.0850694444444445e-05
2093 381 2.7126736111111112e-06
2094 381 2.7126736111111112e-06
2095 381 1.6276041666666666e-05
2097 381 1.6276041666666666e-05
2098 381 2.7126736111111112e-06
2188 381 1.6276041666666666e-05
2190 381 2.7126736111111112e-06
2191 381 1.6276041666666666e-05
2192 381 1.6276041666666666e-05
2193 381 1.6276041666666666e-05
2195 381 2.7126736111111112e-06
2286 381 2.7126736111111112e-06
382 382 0.00019531249999999998
383 382 1.0850694444444445e-05
413 382 1.0850694444444445e-05
414 382 1.0850694444444445e-05
2096 382 2.7126736111111112e-06
2097 382 2.7126736111111112e-06
2098 382 1.6276041666666666e-05
2100 382 1.6276041666666666e-05
2101 382 2.7126736111111112e-06
2191 382 1.6276041666666666e-05
2193 382 2.7126736111111112e-06
2194 382 1.6276041666666666e-05
2195 382 1.6276041666666666e-05
2196 382 1.6276041666666666e-05
2198 382 2.7126736111111112e-06
2289 382 2.7126736111111112e-06
383 383 0.00019531249999999998
384 383 1.0850694444444445e-05
414 383 1.0850694444444445e-05
415 383 1.0850694444444445e-05
2099 383 2.7126736111111112e-06
2100 383 2.7126736111111112e-06
2101 383 1.6276041666666666e-05
2103 383 1.6276041666666666e-05
2104 383 2.7126736111111112e-06
2194 383 1.6276041666666666e-05
2196 383 2.7126736111111112e-06
2197 383 1.6276041666666666e-05
2198 383 1.6276041666666666e-05
2199 383 1.6276041666666666e-05
2201 383 2.7126736111111112e-06
2292 383 2.7126736111111112e-06
384 384 0.00019531249999999998
385 384 1.0850694444444445e-05
415 384 1.0850694444444445e-05
416 384 1.0850694444444445e-05
2102 384 2.7126736111111112e-06
2103 384 2.7126736111111112e-06
2104 384 1.6276041666666666e-05
2106 384 1.6276041666666666e-05
2107 384 2.7126736111111112e-06
2197 384 1.6276041666666666e-05
2199 384 2.7126736111111112e-06
2200 384 1.6276041666666666e-05
2201 384 1.6276041666666666e-05
2202 384 1.6276041666666666e-05
2204 384 2.7126736111111112e-06
2295 384 2.7126736111111112e-06
385 385 0.00019531249999999998
386 385 1.0850694444444445e-05
416 385 1.0850694444444445e-05
417 385 1.0850694444444445e-05
2105 385 2.7126736111111112e-06
2106 385 2.7126736111111112e-06
2107 385 1.6276041666666666e-05
2109 385 1.6276041666666666e-05
2110 385 2.7126736111111112e-06
2200 385 1.6276041666666666e-05
2202 385 2.7126736111111112e-06
2203 385 1.6276041666666666e-05
2204 385 1.6276041666666666e-05
2205 385 1.6276041666666666e-05
2207 385 2.7126736111111112e-06
2298 385 2.7126736111111112e-06
386 386 0.00019531249999999998
387 386 1.0850694444444445e-05
417 386 1.0850694444444445e-05
418 386 1.0850694444444445e-05
2108 386 2.7126736111111112e-06
2109 386 2.7126736111111112e-06
2110 386 1.6276041666666666e-05
2112 386 1.6276041666666666e-05
2113 386 2.7126736111111112e-06
2203 386 1.6276041666666666e-05
2205 386 2.7126736111111112e-06
2206 386 1.6276041666666666e-05
2207 386 1.6276041666666666e-05
2208 386 1.6276041666666666e-05
2210 386 2.7126736111111112e-06
2301 386 2.7126736111111112e-06
387 387 0.00019531249999999998
388 387 1.0850694444444445e-05
418 387 1.0850694444444445e-05
419 387 1.0850694444444445e-05
2111 387 2.7126736111111112e-06
2112 387 2.7126736111111112e-06
2113 387 1.6276041666666666e-05
2115 387 1.6276041666666666e-05
2116 387 2.7126736111111112e-06
2206 387 1.6276041666666666e-05
2208 387 2.7126736111111112e-06
2209 387 1.6276041666666666e-05
2210 387 1.6276041666666666e-05
2211 387 1.6276041666666666e-05
2213 387 2.7126736111111112e-06
2304 387 2.7126736111111112e-06
388 388 0.00019531249999999998
389 388 1.0850694444444445e-05
419 388 1.0850694444444445e-05
420 388 1.0850694444444445e-05
2114 388 2.7126736111111112e-06
2115 388 2.7126736111111112e-06
2116 388 1.6276041666666666e-05
2118 388 1.6276041666666666e-05
2119 388 2.7126736111111112e-06
2209 388 1.6276041666666666e-05
2211 388 2.7126736111111112e-06
2212 388 1.6276041666666666e-05
2213 388 1.6276041666666666e-05
2214 388 1.6276041666666666e-05
2216 388 2.7126736111111112e-06
2307 388 2.7126736111111112e-06
389 389 0.00019531249999999998
390 389 1.0850694444444445e-05
420 389 1.0850694444444445e-05
421 389 1.0850694444444445e-05
2117 389 2.7126736111111112e-06
2118 389 2.7126736111111112e-06
2119 389 1.6276041666666666e-05
2121 389 1.6276041666666666e-05
2122 389 2.7126736111111112e-06
2212 389 1.6276041666666666e-05
2214 389 2.7126736111111112e-06
2215 389 1.6276041666666666e-05
2216 389 1.6276041666666666e-05
2217 389 1.6276041666666666e-05
2219 389 2.7126736111111112e-06
2310 389 2.7126736111111112e-06
390 390 0.00019531249999999998
391 390 1.0850694444444445e-05
421 390 1.0850694444444445e-05
422 390 1.0850694444444445e-05
2120 390 2.7126736111111112e-06
2121 390 2.7126736111111112e-06
2122 390 1.6276041666666666e-05
2124 390 1.6276041666666666e-05
2125 390 2.7126736111111112e-06
2215 390 1.6276041666666666e-05
2217 390 2.7126736111111112e-06
2218 390 1.6276041666666666e-05
2219 390 1.6276041666666666e-05
2220 390 1.6276041666666666e-05
2222 390 2.7126736111111112e-06
2313 390 2.7126736111111112e-06
391 391 0.00019531249999999998
392 391 1.0850694444444445e-05
422 391 1.0850694444444445e-05
423 391 1.0850694444444445e-05
2123 391 2.7126736111111112e-06
2124 391 2.7126736111111112e-06
2125 391 1.6276041666666666e-05
2127 391 1.6276041666666666e-05
2128 391 2.7126736111111112e-06
2218 391 1.6276041666666666e-05
2220 391 2.7126736111111112e-06
2221 391 1.6276041666666666e-05
2222 391 1.6276041666666666e-05
2223 391 1.6276041666666666e-05
2225 391 2.7126736111111112e-06
2316 391 2.7126736111111112e-06
392 392 0.00019531249999999998
393 392 1.0850694444444445e-05
423 392 1.0850694444444445e-05
424 392 1.0850694444444445e-05
2126 392 2.7126736111111112e-06
2127 392 2.7126736111111112e-06
2128 392 1.6276041666666666e-05
2130 392 1.6276041666666666e-05
2131 392 2.7126736111111112e-06
2221 392 1.6276041666666666e-05
2223 392 2.7126736111111112e-06
2224 392 1.6276041666666666e-05
2225 392 1.6276041666666666e-05
2226 392 1.6276041666666666e-05
2228 392 2.7126736111111112e-06
2319 392 2.7126736111111112e-06
393 393 0.00019531249999999998
394 393 1.0850694444444445e-05
424 393 1.0850694444444445e-05
425 393 1.0850694444444445e-05
2129 393 2.7126736111111112e-06
2130 393 2.7126736111111112e-06
2131 393 1.6276041666666666e-05
2133 393 1.6276041666666666e-05
2134 393 2.7126736111111112e-06
2224 393 1.6276041666666666e-05
2226 393 2.7126736111111112e-06
2227 393 1.6276041666666666e-05
2228 393 1.6276041666666666e-05
2229 393 1.6276041666666666e-05
2231 393 2.7126736111111112e-06
2322 393 2.7126736111111112e-06
394 394 0.00019531249999999998
395 394 1.0850694444444445e-05
425 394 1.0850694444444445e-05
426 394 1.0850694444444445e-05
2132 394 2.7126736111111112e-06
2133 394 2.7126736111111112e-06
2134 394 1.6276041666666666e-05
2136 394 1.6276041666666666e-05
2137 394 2.7126736111111112e-06
2227 394 1.6276041666666666e-05
2229 394 2.7126736111111112e-06
2230 394 1.6276041666666666e-05
2231 394 1.6276041666666666e-05
2232 394 1.6276041666666666e-05
2234 394 2.7126736111111112e-06
2325 394 2.7126736111111112e-06
395 395 0.00019531249999999998
396 395 1.0850694444444445e-05
426 395 1.0850694444444445e-05
427 395 1.0850694444444445e-05
2135 395 2.7126736111111112e-06
2136 395 2.7126736111111112e-06
2137 395 1.6276041666666666e-05
2139 395 1.6276041666666666e-05
2140 395 2.7126736111111112e-06
2230 395 1.6276041666666666e-05
2232 395 2.7126736111111112e-06
2233 395 1.6276041666666666e-05
2234 395 1.6276041666666666e-05
2235 395 1.6276041666666666e-05
2237 395 2.7126736111111112e-06
2328 395 2.7126736111111112e-06
396 396 0.00019531249999999998
397 396 1.0850694444444445e-05
427 396 1.0850694444444445e-05
428 396 1.0850694444444445e-05
2138 396 2.7126736111111112e-06
2139 396 2.7126736111111112e-06
2140 396 1.6276041666666666e-05
2142 396 1.6276041666666666e-05
2143 396 2.7126736111111112e-06
2233 396 1.6276041666666666e-05
2235 396 2.7126736111111112e-06
2236 396 1.6276041666666666e-05
2237 396 1.6276041666666666e-05
2238 396 1.6276041666666666e-05
2240 396 2.7126736111111112e-06
2331 396 2.7126736111111112e-06
397 397 0.00019531249999999998
398 397 1.0850694444444445e-05
428 397 1.0850694444444445e-05
429 397 1.0850694444444445e-05
2141 397 2.7126736111111112e-06
2142 397 2.7126736111111112e-06
2143 397 1.6276041666666666e-05
2145 397 1.6276041666666666e-05
2146 397 2.7126736111111112e-06
2236 397 1.6276041666666666e-05
2238 397 2.7126736111111112e-06
2239 397 1.6276041666666666e-05
2240 397 1.6276041666666666e-05
2241 397 1.6276041666666666e-05
2243 397 2.7126736111111112e-06
2334 397 2.7126736111111112e-06
398 398 0.00019531249999999998
399 398 1.0850694444444445e-05
429 398 1.0850694444444445e-05
430 398 1.0850694444444445e-05
2144 398 2.7126736111111112e-06
2145 398 2.7126736111111112e-06
2146 398 1.6276041666666666e-05
2148 398 1.6276041666666666e-05
2149 398 2.7126736111111112e-06
2239 398 1.6276041666666666e-05
2241 398 2.7126736111111112e-06
2242 398 1.6276041666666666e-05
2243 398 1.6276041666666666e-05
2244 398 1.6276041666666666e-05
2246 398 2.7126736111111112e-06
2337 398 2.7126736111111112e-06
399 399 0.00019531249999999998
400 399 1.0850694444444445e-05
430 399 1.0850694444444445e-05
431 399 1.0850694444444445e-05
2147 399 2.7126736111111112e-06
2148 399 2.7126736111111112e-06
2149 399 1.6276041666666666e-05
2151 399 1.6276041666666666e-05
2152 399 2.7126736111111112e-06
2242 399 1.6276041666666666e-05
2244 399 2.7126736111111112e-06
2245 399 1.6276041666666666e-05
2246 399 1.6276041666666666e-05
2247 399 1.6276041666666666e-05
2249 399 2.7126736111111112e-06
2340 399 2.7126736111111112e-06
400 400 0.00019531249999999998
401 400 1.0850694444444445e-05
431 400 1.0850694444444445e-05
432 400 1.0850694444444445e-05
2150 400 2.7126736111111112e-06
2151 400 2.7126736111111112e-06
2152 400 1.6276041666666666e-05
2154 400 1.6276041666666666e-05
2155 400 2.7126736111111112e-06
2245 400 1.6276041666666666e-05
2247 400 2.7126736111111112e-06
2248 400 1.6276041666666666e-05
2249 400 1.6276041666666666e-05
2250 400 1.6276041666666666e-05
2252 400 2.7126736111111112e-06
2343 400 2.7126736111111112e-06
401 401 0.00019531249999999998
402 401 1.0850694444444445e-05
432 401 1.0850694444444445e-05
433 401 1.0850694444444445e-05
2153 401 2.7126736111111112e-06
2154 401 2.7126736111111112e-06
2155 401 1.6276041666666666e-05
2157 401 1.6276041666666666e-05
2158 401 2.7126736111111112e-06
2248 401 1.6276041666666666e-05
2250 401 2.7126736111111112e-06
2251 401 1.6276041666666666e-05
2252 401 1.6276041666666666e-05
2253 401 1.6276041666666666e-05
2255 401 2.7126736111111112e-06
2346 401 2.7126736111111112e-06
402 402 0.00019531249999999998
403 402 1.0850694444444445e-05
433 402 1.0850694444444445e-05
434 402 1.0850694444444445e-05
2156 402 2.7126736111111112e-06
2157 402 2.7126736111111112e-06
2158 402 1.6276041666666666e-05
2160 402 1.6276041666666666e-05
2161 402 2.7126736111111112e-06
2251 402 1.6276041666666666e-05
2253 402 2.7126736111111112e-06
2254 402 1.6276041666666666e-05
2255 402 1.6276041666666666e-05
2256 402 1.6276041666666666e-05
2258 402 2.7126736111111112e-06
2349 402 2.7126736111111112e-06
403 403 0.00019531249999999998
434 403 1.0850694444444445e-05
2159 403 2.7126736111111112e-06
2160 403 2.7126736111111112e-06
2161 403 1.6276041666666666e-05
2163 403 1.6276041666666666e-05
2164 403 2.7126736111111112e-06
2254 403 1.6276041666666666e-05
2256 403 2.7126736111111112e-06
2257 403 1.6276041666666666e-05
2258 403 1.6276041666666666e-05
2259 403 1.6276041666666666e-05
2352 403 2.7126736111111112e-06
404 404 0.00019531249999999998
405 404 1.0850694444444445e-05
435 404 1.0850694444444445e-05
436 404 1.0850694444444445e-05
2165 404 2.7126736111111112e-06
2166 404 1.6276041666666666e-05
2168 404 1.6276041666666666e-05
2169 404 2.7126736111111112e-06
2260 404 1.6276041666666666e-05
2261 404 2.7126736111111112e-06
2262 404 1.6276041666666666e-05
2263 404 1.6276041666666666e-05
2264 404 1.6276041666666666e-05
2266 404 2.7126736111111112e-06
2357 404 2.7126736111111112e-06
405 405 0.00019531249999999998
406 405 1.0850694444444445e-05
436 405 1.0850694444444445e-05
437 405 1.0850694444444445e-05
2167 405 2.7126736111111112e-06
2168 405 2.7126736111111112e-06
2169 405 1.6276041666666666e-05
2171 405 1.6276041666666666e-05
2172 405 2.7126736111111112e-06
2262 405 1.6276041666666666e-05
2264 405 2.7126736111111112e-06
2265 405 1.6276041666666666e-05
2266 405 1.6276041666666666e-05
2267 405 1.6276041666666666e-05
2269 405 2.7126736111111112e-06
2360 405 2.7126736111111112e-06
406 406 0.00019531249999999998
407 406 1.0850694444444445e-05
437 406 1.0850694444444445e-05
438 406 1.0850694444444445e-05
2170 406 2.7126736111111112e-06
2171 406 2.7126736111111112e-06
2172 406 1.6276041666666666e-05
2174 406 1.6276041666666666e-05
2175 406 2.7126736111111112e-06
2265 406 1.6276041666666666e-05
2267 406 2.7126736111111112e-06
2268 406 1.6276041666666666e-05
2269 406 1.6276041666666666e-05
2270 406 1.6276041666666666e-05
2272 406 2.7126736111111112e-06
2363 406 2.7126736111111112e-06
407 407 0.00019531249999999998
408 407 1.0850694444444445e-05
438 407 1.0850694444444445e-05
439 407 1.0850694444444445e-05
2173 407 2.7126736111111112e-06
2174 407 2.7126736111111112e-06
2175 407 1.6276041666666666e-05
2177 407 1.6276041666666666e-05
2178 407 2.7126736111111112e-06
2268 407 1.6276041666666666e-05
2270 407 2.7126736111111112e-06
2271 407 1.6276041666666666e-05
2272 407 1.6276041666666666e-05
2273 407 1.6276041666666666e-05
2275 407 2.7126736111111112e-06
2366 407 2.7126736111111112e-06
408 408 0.00019531249999999998
409 408 1.0850694444444445e-05
439 408 1.0850694444444445e-05
440 408 1.0850694444444445e-05
2176 408 2.7126736111111112e-06
2177 408 2.7126736111111112e-06
2178 408 1.6276041666666666e-05
2180 408 1.6276041666666666e-05
2181 408 2.7126736111111112e-06
2271 408 1.6276041666666666e-05
2273 408 2.7126736111111112e-06
2274 408 1.6276041666666666e-05
2275 408 1.6276041666666666e-05
2276 408 1.6276041666666666e-05
2278 408 2.7126736111111112e-06
2369 408 2.7126736111111112e-06
409 409 0.00019531249999999998
410 409 1.0850694444444445e-05
440 409 1.0850694444444445e-05
441 409 1.0850694444444445e-05
2179 409 2.7126736111111112e-06
2180 409 2.7126736111111112e-06
2181 409 1.6276041666666666e-05
2183 409 1.6276041666666666e-05
2184 409 2.7126736111111112e-06
2274 409 1.6276041666666666e-05
2276 409 2.7126736111111112e-06
2277 409 1.6276041666666666e-05
2278 409 1.6276041666666666e-05
2279 409 1.6276041666666666e-05
2281 409 2.7126736111111112e-06
2372 409 2.7126736111111112e-06
410 410 0.00019531249999999998
411 410 1.0850694444444445e-05
441 410 1.0850694444444445e-05
442 410 1.0850694444444445e-05
2182 410 2.7126736111111112e-06
2183 410 2.7126736111111112e-06
2184 410 1.6276041666666666e-05
2186 410 1.6276041666666666e-05
2187 410 2.7126736111111112e-06
2277 410 1.6276041666666666e-05
2279 410 2.7126736111111112e-06
2280 410 1.6276041666666666e-05
2281 410 1.6276041666666666e-05
2282 410 1.6276041666666666e-05
2284 410 2.7126736111111112e-06
2375 410 2.7126736111111112e-06
411 411 0.00019531249999999998
412 411 1.0850694444444445e-05
442 411 1.0850694444444445e-05
443 411 1.0850694444444445e-05
2185 411 2.7126736111111112e-06
2186 411 2.7126736111111112e-06
2187 411 1.6276041666666666e-05
2189 411 1.6276041666666666e-05
2190 411 2.7126736111111112e-06
2280 411 1.6276041666666666e-05
2282 411 2.7126736111111112e-06
2283 411 1.6276041666666666e-05
2284 411 1.6276041666666666e-05
2285 411 1.6276041666666666e-05
2287 411 2.7126736111111112e-06
2378 411 2.7126736111111112e-06
412 412 0.00019531249999999998
413 412 1.0850694444444445e-05
443 412 1.0850694444444445e-05
444 412 1.0850694444444445e-05
2188 412 2.7126736111111112e-06
2189 412 2.7126736111111112e-06
2190 412 1.6276041666666666e-05
2192 412 1.6276041666666666e-05
2193 412 2.7126736111111112e-06
2283 412 1.6276041666666666e-05
2285 412 2.7126736111111112e-06
2286 412 1.6276041666666666e-05
2287 412 1.6276041666666666e-05
2288 412 1.6276041666666666e-05
2290 412 2.7126736111111112e-06
2381 412 2.7126736111111112e-06
413 413 0.00019531249999999998
414 413 1.0850694444444445e-05
444 413 1.0850694444444445e-05
445 413 1.0850694444444445e-05
2191 413 2.7126736111111112e-06
2192 413 2.7126736111111112e-06
2193 413 1.6276041666666666e-05
2195 413 1.6276041666666666e-05
2196 413 2.7126736111111112e-06
2286 413 1.6276041666666666e-05
2288 413 2.7126736111111112e-06
2289 413 1.6276041666666666e-05
2290 413 1.6276041666666666e-05
2291 413 1.6276041666666666e-05
2293 413 2.7126736111111112e-06
2384 413 2.7126736111111112e-06
414 414 0.00019531249999999998
415 414 1.0850694444444445e-05
445 414 1.0850694444444445e-05
446 414 1.0850694444444445e-05
2194 414 2.7126736111111112e-06
2195 414 2.7126736111111112e-06
2196 414 1.6276041666666666e-05
2198 414 1.6276041666666666e-05
2199 414 2.7126736111111112e-06
2289 414 1.6276041666666666e-05
2291 414 2.7126736111111112e-06
2292 414 1.6276041666666666e-05
2293 414 1.6276041666666666e-05
2294 414 1.6276041666666666e-05
2296 414 2.7126736111111112e-06
2387 414 2.7126736111111112e-06
415 415 0.00019531249999999998
416 415 1.0850694444444445e-05
446 415 1.0850694444444445e-05
447 415 1.0850694444444445e-05
2197 415 2.7126736111111112e-06
2198 415 2.7126736111111112e-06
2199 415 1.6276041666666666e-05
2201 415 1.6276041666666666e-05
2202 415 2.7126736111111112e-06
2292 415 1.6276041666666666e-05
2294 415 2.7126736111111112e-06
2295 415 1.6276041666666666e-05
2296 415 1.6276041666666666e-05
2297 415 1.6276041666666666e-05
2299 415 2.7126736111111112e-06
2390 415 2.7126736111111112e-06
416 416 0.00019531249999999998
417 416 1.0850694444444445e-05
447 416 1.0850694444444445e-05
448 416 1.0850694444444445e-05
2200 416 2.7126736111111112e-06
2201 416 2.7126736111111112e-06
2202 416 1.6276041666666666e-05
2204 416 1.6276041666666666e-05
2205 416 2.7126736111111112e-06
2295 416 1.6276041666666666e-05
2297 416 2.7126736111111112e-06
2298 416 1.6276041666666666e-05
2299 416 1.6276041666666666e-05
2300 416 1.6276041666666666e-05
2302 416 2.7126736111111112e-06
2393 416 2.7126736111111112e-06
417 417 0.00019531249999999998
418 417 1.0850694444444445e-05
448 417 1.0850694444444445e-05
449 417 1.0850694444444445e-05
2203 417 2.7126736111111112e-06
2204 417 2.7126736111111112e-06
2205 417 1.6276041666666666e-05
2207 417 1.6276041666666666e-05
2208 417 2.7126736111111112e-06
2298 417 1.6276041666666666e-05
2300 417 2.7126736111111112e-06
2301 417 1.6276041666666666e-05
2302 417 1.6276041666666666e-05
2303 417 1.6276041666666666e-05
2305 417 2.7126736111111112e-06
2396 417 2.7126736111111112e-06
418 418 0.00019531249999999998
419 418 1.0850694444444445e-05
449 418 1.0850694444444445e-05
450 418 1.0850694444444445e-05
2206 418 2.7126736111111112e-06
2207 418 2.7126736111111112e-06
2208 418 1.6276041666666666e-05
2210 418 1.6276041666666666e-05
2211 418 2.7126736111111112e-06
2301 418 1.6276041666666666e-05
2303 418 2.7126736111111112e-06
2304 418 1.6276041666666666e-05
2305 418 1.6276041666666666e-05
2306 418 1.6276041666666666e-05
2308 418 2.7126736111111112e-06
2399 418 2.7126736111111112e-06
419 419 0.00019531249999999998
420 419 1.0850694444444445e-05
450 419 1.0850694444444445e-05
451 419 1.0850694444444445e-05
2209 419 2.7126736111111112e-06
2210 419 2.7126736111111112e-06
2211 419 1.6276041666666666e-05
2213 419 1.6276041666666666e-05
2214 419 2.7126736111111112e-06
2304 419 1.6276041666666666e-05
2306 419 2.7126736111111112e-06
2307 419 1.6276041666666666e-05
2308 419 1.6276041666666666e-05
2309 419 1.6276041666666666e-05
2311 419 2.7126736111111112e-06
2402 419 2.7126736111111112e-06
420 420 0.00019531249999999998
421 420 1.0850694444444445e-05
451 420 1.0850694444444445e-05
452 420 1.0850694444444445e-05
2212 420 2.7126736111111112e-06
2213 420 2.7126736111111112e-06
2214 420 1.6276041666666666e-05
2216 420 1.6276041666666666e-05
2217 420 2.7126736111111112e-06
2307 420 1.6276041666666666e-05
2309 420 2.7126736111111112e-06
2310 420 1.6276041666666666e-05
2311 420 1.6276041666666666e-05
2312 420 1.6276041666666666e-05
2314 420 2.7126736111111112e-06
2405 420 2.7126736111111112e-06
421 421 0.00019531249999999998
422 421 1.0850694444444445e-05
452 421 1.0850694444444445e-05
453 421 1.0850694444444445e-05
2215 421 2.7126736111111112e-06
2216 421 2.7126736111111112e-06
2217 421 1.6276041666666666e-05
2219 421 1.6276041666666666e-05
2220 421 2.7126736111111112e-06
2310 421 1.6276041666666666e-05
2312 421 2.7126736111111112e-06
2313 421 1.6276041666666666e-05
2314 421 1.6276041666666666e-05
2315 421 1.6276041666666666e-05
2317 421 2.7126736111111112e-06
2408 421 2.7126736111111112e-06
422 422 0.00019531249999999998
423 422 1.0850694444444445e-05
453 422 1.0850694444444445e-05
454 422 1.0850694444444445e-05
2218 422 2.7126736111111112e-06
2219 422 2.7126736111111112e-06
2220 422 1.6276041666666666e-05
2222 422 1.6276041666666666e-05
2223 422 2.7126736111111112e-06
2313 422 1.6276041666666666e-05
2315 422 2.7126736111111112e-06
2316 422 1.6276041666666666e-05
2317 422 1.6276041666666666e-05
2318 422 1.6276041666666666e-05
2320 422 2.7126736111111112e-06
2411 422 2.7126736111111112e-06
423 423 0.00019531249999999998
424 423 1.0850694444444445e-05
454 423 1.0850694444444445e-05
455 423 1.0850694444444445e-05
2221 423 2.7126736111111112e-06
2222 423 2.7126736111111112e-06
2223 423 1.6276041666666666e-05
2225 423 1.6276041666666666e-05
2226 423 2.7126736111111112e-06
2316 423 1.6276041666666666e-05
2318 423 2.7126736111111112e-06
2319 423 1.6276041666666666e-05
2320 423 1.6276041666666666e-05
2321 423 1.6276041666666666e-05
2323 423 2.7126736111111112e-06
2414 423 2.7126736111111112e-06
424 424 0.00019531249999999998
425 424 1.0850694444444445e-05
455 424 1.0850694444444445e-05
456 424 1.0850694444444445e-05
2224 424 2.7126736111111112e-06
2225 424 2.7126736111111112e-06
2226 424 1.6276041666666666e-05
2228 424 1.6276041666666666e-05
2229 424 2.7126736111111112e-06
2319 424 1.6276041666666666e-05
2321 424 2.7126736111111112e-06
2322 424 1.6276041666666666e-05
2323 424 1.6276041666666666e-05
2324 424 1.6276041666666666e-05
2326 424 2.7126736111111112e-06
2417 424 2.7126736111111112e-06
425 425 0.00019531249999999998
426 425 1.0850694444444445e-05
456 425 1.0850694444444445e-05
457 425 1.0850694444444445e-05
2227 425 2.7126736111111112e-06
2228 425 2.7126736111111112e-06
2229 425 1.6276041666666666e-05
2231 425 1.6276041666666666e-05
2232 425 2.7126736111111112e-06
2322 425 1.6276041666666666e-05
2324 425 2.7126736111111112e-06
2325 425 1.6276041666666666e-05
2326 425 1.6276041666666666e-05
2327 425 1.6276041666666666e-05
2329 425 2.7126736111111112e-06
2420 425 2.7126736111111112e-06
426 426 0.00019531249999999998
427 426 1.0850694444444445e-05
457 426 1.0850694444444445e-05
458 426 1.0850694444444445e-05
2230 426 2.7126736111111112e-06
2231 426 2.7126736111111112e-06
2232 426 1.6276041666666666e-05
2234 426 1.6276041666666666e-05
2235 426 2.7126736111111112e-06
2325 426 1.6276041666666666e-05
2327 426 2.7126736111111112e-06
2328 426 1.6276041666666666e-05
2329 426 1.6276041666666666e-05
2330 426 1.6276041666666666e-05
2332 426 2.7126736111111112e-06
2423 426 2.7126736111111112e-06
427 427 0.00019531249999999998
428 427 1.0850694444444445e-05
458 427 1.0850694444444445e-05
459 427 1.0850694444444445e-05
2233 427 2.7126736111111112e-06
2234 427 2.7126736111111112e-06
2235 427 1.6276041666666666e-05
2237 427 1.6276041666666666e-05
2238 427 2.7126736111111112e-06
2328 427 1.6276041666666666e-05
2330 427 2.7126736111111112e-06
2331 427 1.6276041666666666e-05
2332 427 1.6276041666666666e-05
2333 427 1.6276041666666666e-05
2335 427 2.7126736111111112e-06
2426 427 2.7126736111111112e-06
428 428 0.00019531249999999998
429 428 1.0850694444444445e-05
459 428 1.0850694444444445e-05
460 428 1.0850694444444445e-05
2236 428 2.7126736111111112e-06
2237 428 2.7126736111111112e-06
2238 428 1.6276041666666666e-05
2240 428 1.6276041666666666e-05
2241 428 2.7126736111111112e-06
2331 428 1.6276041666666666e-05
2333 428 2.7126736111111112e-06
2334 428 1.6276041666666666e-05
2335 428 1.6276041666666666e-05
2336 428 1.6276041666666666e-05
2338 428 2.7126736111111112e-06
2429 428 2.7126736111111112e-06
429 429 0.00019531249999999998
430 429 1.0850694444444445e-05
460 429 1.0850694444444445e-05
461 429 1.0850694444444445e-05
2239 429 2.7126736111111112e-06
2240 429 2.7126736111111112e-06
2241 429 1.6276041666666666e-05
2243 429 1.6276041666666666e-05
2244 429 2.7126736111111112e-06
2334 429 1.6276041666666666e-05
2336 429 2.7126736111111112e-06
2337 429 1.6276041666666666e-05
2338 429 1.6276041666666666e-05
2339 429 1.6276041666666666e-05
2341 429 2.7126736111111112e-06
2432 429 2.7126736111111112e-06
430 430 0.00019531249999999998
431 430 1.0850694444444445e-05
461 430 1.0850694444444445e-05
462 430 1.0850694444444445e-05
2242 430 2.7126736111111112e-06
2243 430 2.7126736111111112e-06
2244 430 1.6276041666666666e-05
2246 430 1.6276041666666666e-05
2247 430 2.7126736111111112e-06
2337 430 1.6276041666666666e-05
2339 430 2.7126736111111112e-06
2340 430 1.6276041666666666e-05
2341 430 1.6276041666666666e-05
2342 430 1.6276041666666666e-05
2344 430 2.7126736111111112e-06
2435 430 2.7126736111111112e-06
431 431 0.00019531249999999998
432 431 1.0850694444444445e-05
462 431 1.0850694444444445e-05
463 431 1.0850694444444445e-05
2245 431 2.7126736111111112e-06
2246 431 2.7126736111111112e-06
2247 431 1.6276041666666666e-05
2249 431 1.6276041666666666e-05
2250 431 2.7126736111111112e-06
2340 431 1.6276041666666666e-05
2342 431 2.7126736111111112e-06
2343 431 1.6276041666666666e-05
2344 431 1.6276041666666666e-05
2345 431 1.6276041666666666e-05
2347 431 2.7126736111111112e-06
2438 431 2.7126736111111112e-06
432 432 0.00019531249999999998
433 432 1.0850694444444445e-05
463 432 1.0850694444444445e-05
464 432 1.0850694444444445e-05
2248 432 2.7126736111111112e-06
2249 432 2.7126736111111112e-06
2250 432 1.6276041666666666e-05
2252 432 1.6276041666666666e-05
2253 432 2.7126736111111112e-06
2343 432 1.6276041666666666e-05
2345 432 2.7126736111111112e-06
2346 432 1.6276041666666666e-05
2347 432 1.6276041666666666e-05
2348 432 1.6276041666666666e-05
2350 432 2.7126736111111112e-06
2441 432 2.7126736111111112e-06
433 433 0.00019531249999999998
434 433 1.0850694444444445e-05
464 433 1.0850694444444445e-05
465 433 1.0850694444444445e-05
2251 433 2.7126736111111112e-06
2252 433 2.7126736111111112e-06
2253 433 1.6276041666666666e-05
2255 433 1.6276041666666666e-05
2256 433 2.7126736111111112e-06
2346 433 1.6276041666666666e-05
2348 433 2.7126736111111112e-06
2349 433 1.6276041666666666e-05
2350 433 1.6276041666666666e-05
2351 433 1.6276041666666666e-05
2353 433 2.7126736111111112e-06
2444 433 2.7126736111111112e-06
434 434 0.00019531249999999998
465 434 1.0850694444444445e-05
2254 434 2.7126736111111112e-06
2255 434 2.7126736111111112e-06
2256 434 1.6276041666666666e-05
2258 434 1.6276041666666666e-05
2259 434 2.7126736111111112e-06
2349 434 1.6276041666666666e-05
2351 434 2.7126736111111112e-06
2352 434 1.6276041666666666e-05
2353 434 1.6276041666666666e-05
2354 434 1.6276041666666666e-05
2447 434 2.7126736111111112e-06
435 435 0.00019531249999999998
436 435 1.0850694444444445e-05
466 435 1.0850694444444445e-05
467 435 1.0850694444444445e-05
2260 435 2.7126736111111112e-06
2261 435 1.6276041666666666e-05
2263 435 1.6276041666666666e-05
2264 435 2.7126736111111112e-06
2355 435 1.6276041666666666e-05
2356 435 2.7126736111111112e-06
2357 435 1.6276041666666666e-05
2358 435 1.6276041666666666e-05
2359 435 1.6276041666666666e-05
2361 435 2.7126736111111112e-06
2452 435 2.7126736111111112e-06
436 436 0.00019531249999999998
437 436 1.0850694444444445e-05
467 436 1.0850694444444445e-05
468 436 1.0850694444444445e-05
2262 436 2.7126736111111112e-06
2263 436 2.7126736111111112e-06
2264 436 1.6276041666666666e-05
2266 436 1.6276041666666666e-05
2267 436 2.7126736111111112e-06
2357 436 1.6276041666666666e-05
2359 436 2.7126736111111112e-06
2360 436 1.6276041666666666e-05
2361 436 1.6276041666666666e-05
2362 436 1.6276041666666666e-05
2364 436 2.7126736111111112e-06
2455 436 2.7126736111111112e-06
437 437 0.00019531249999999998
438 437 1.0850694444444445e-05
468 437 1.0850694444444445e-05
469 437 1.0850694444444445e-05
2265 437 2.7126736111111112e-06
2266 437 2.7126736111111112e-06
2267 437 1.6276041666666666e-05
2269 437 1.6276041666666666e-05
2270 437 2.7126736111111112e-06
2360 437 1.6276041666666666e-05
2362 437 2.7126736111111112e-06
2363 437 1.6276041666666666e-05
2364 437 1.6276041666666666e-05
2365 437 1.6276041666666666e-05
2367 437 2.7126736111111112e-06
2458 437 2.7126736111111112e-06
438 438 0.00019531249999999998
439 438 1.0850694444444445e-05
469 438 1.0850694444444445e-05
470 438 1.0850694444444445e-05
2268 438 2.7126736111111112e-06
2269 438 2.7126736111111112e-06
2270 438 1.6276041666666666e-05
2272 438 1.6276041666666666e-05
2273 438 2.7126736111111112e-06
2363 438 1.6276041666666666e-05
2365 438 2.7126736111111112e-06
2366 438 1.6276041666666666e-05
2367 438 1.6276041666666666e-05
2368 438 1.6276041666666666e-05
2370 438 2.7126736111111112e-06
2461 438 2.7126736111111112e-06
439 439 0.00019531249999999998
440 439 1.0850694444444445e-05
470 439 1.0850694444444445e-05
471 439 1.0850694444444445e-05
2271 439 2.7126736111111112e-06
2272 439 2.7126736111111112e-06
2273 439 1.6276041666666666e-05
2275 439 1.6276041666666666e-05
2276 439 2.7126736111111112e-06
2366 439 1.6276041666666666e-05
2368 439 2.7126736111111112e-06
2369 439 1.6276041666666666e-05
2370 439 1.6276041666666666e-05
2371 439 1.6276041666666666e-05
2373 439 2.7126736111111112e-06
2464 439 2.7126736111111112e-06
440 440 0.00019531249999999998
441 440 1.0850694444444445e-05
471 440 1.0850694444444445e-05
472 440 1.0850694444444445e-05
2274 440 2.7126736111111112e-06
2275 440 2.7126736111111112e-06
2276 440 1.6276041666666666e-05
2278 440 1.6276041666666666e-05
2279 440 2.7126736111111112e-06
2369 440 1.6276041666666666e-05
2371 440 2.7126736111111112e-06
2372 440 1.6276041666666666e-05
2373 440 1.6276041666666666e-05
2374 440 1.6276041666666666e-05
2376 440 2.7126736111111112e-06
2467 440 2.7126736111111112e-06
441 441 0.00019531249999999998
442 441 1.0850694444444445e-05
472 441 1.0850694444444445e-05
473 441 1.0850694444444445e-05
2277 441 2.7126736111111112e-06
2278 441 2.7126736111111112e-06
2279 441 1.6276041666666666e-05
2281 441 1.6276041666666666e-05
2282 441 2.7126736111111112e-06
2372 441 1.6276041666666666e-05
2374 441 2.7126736111111112e-06
2375 441 1.6276041666666666e-05
2376 441 1.6276041666666666e-05
2377 441 1.6276041666666666e-05
2379 441 2.7126736111111112e-06
2470 441 2.7126736111111112e-06
442 442 0.00019531249999999998
443 442 1.0850694444444445e-05
473 442 1.0850694444444445e-05
474 442 1.0850694444444445e-05
2280 442 2.7126736111111112e-06
2281 442 2.7126736111111112e-06
2282 442 1.6276041666666666e-05
2284 442 1.6276041666666666e-05
2285 442 2.7126736111111112e-06
2375 442 1.6276041666666666e-05
2377 442 2.7126736111111112e-06
2378 442 1.6276041666666666e-05
2379 442 1.6276041666666666e-05
2380 442 1.6276041666666666e-05
2382 442 2.7126736111111112e-06
2473 442 2.7126736111111112e-06
443 443 0.00019531249999999998
444 443 1.0850694444444445e-05
474 443 1.0850694444444445e-05
475 443 1.0850694444444445e-05
2283 443 2.7126736111111112e-06
2284 443 2.7126736111111112e-06
2285 443 1.6276041666666666e-05
2287 443 1.6276041666666666e-05
2288 443 2.7126736111111112e-06
2378 443 1.6276041666666666e-05
2380 443 2.7126736111111112e-06
2381 443 1.6276041666666666e-05
2382 443 1.6276041666666666e-05
2383 443 1.6276041666666666e-05
2385 443 2.7126736111111112e-06
2476 443 2.7126736111111112e-06
444 444 0.00019531249999999998
445 444 1.0850694444444445e-05
475 444 1.0850694444444445e-05
476 444 1.0850694444444445e-05
2286 444 2.7126736111111112e-06
2287 444 2.7126736111111112e-06
2288 444 1.6276041666666666e-05
2290 444 1.6276041666666666e-05
2291 444 2.7126736111111112e-06
2381 444 1.6276041666666666e-05
2383 444 2.7126736111111112e-06
2384 444 1.6276041666666666e-05
2385 444 1.6276041666666666e-05
2386 444 1.6276041666666666e-05
2388 444 2.7126736111111112e-06
2479 444 2.7126736111111112e-06
445 445 0.00019531249999999998
446 445 1.0850694444444445e-05
476 445 1.0850694444444445e-05
477 445 1.0850694444444445e-05
2289 445 2.7126736111111112e-06
2290 445 2.7126736111111112e-06
2291 445 1.6276041666666666e-05
2293 445 1.6276041666666666e-05
2294 445 2.7126736111111112e-06
2384 445 1.6276041666666666e-05
2386 445 2.7126736111111112e-06
2387 445 1.6276041666666666e-05
2388 445 1.6276041666666666e-05
2389 445 1.6276041666666666e-05
2391 445 2.7126736111111112e-06
2482 445 2.7126736111111112e-06
446 446 0.00019531249999999998
447 446 1.0850694444444445e-05
477 446 1.0850694444444445e-05
478 446 1.0850694444444445e-05
2292 446 2.7126736111111112e-06
2293 446 2.7126736111111112e-06
2294 446 1.6276041666666666e-05
2296 446 1.6276041666666666e-05
2297 446 2.7126736111111112e-06
2387 446 1.6276041666666666e-05
2389 446 2.7126736111111112e-06
2390 446 1.6276041666666666e-05
2391 446 1.6276041666666666e-05
2392 446 1.6276041666666666e-05
2394 446 2.7126736111111112e-06
2485 446 2.7126736111111112e-06
447 447 0.00019531249999999998
448 447 1.0850694444444445e-05
478 447 1.0850694444444445e-05
479 447 1.0850694444444445e-05
2295 447 2.7126736111111112e-06
2296 447 2.7126736111111112e-06
2297 447 1.6276041666666666e-05
2299 447 1.6276041666666666e-05
2300 447 2.7126736111111112e-06
2390 447 1.6276041666666666e-05
2392 447 2.7126736111111112e-06
2393 447 1.6276041666666666e-05
2394 447 1.6276041666666666e-05
2395 447 1.6276041666666666e-05
2397 447 2.7126736111111112e-06
2488 447 2.7126736111111112e-06
448 448 0.00019531249999999998
449 448 1.0850694444444445e-05
479 448 1.0850694444444445e-05
480 448 1.0850694444444445e-05
2298 448 2.7126736111111112e-06
2299 448 2.7126736111111112e-06
2300 448 1.6276041666666666e-05
2302 448 1.6276041666666666e-05
2303 448 2.7126736111111112e-06
2393 448 1.6276041666666666e-05
2395 448 2.7126736111111112e-06
2396 448 1.6276041666666666e-05
2397 448 1.6276041666666666e-05
2398 448 1.6276041666666666e-05
2400 448 2.7126736111111112e-06
2491 448 2.7126736111111112e-06
449 449 0.00019531249999999998
450 449 1.0850694444444445e-05
480 449 1.0850694444444445e-05
481 449 1.0850694444444445e-05
2301 449 2.7126736111111112e-06
2302 449 2.7126736111111112e-06
2303 449 1.6276041666666666e-05
2305 449 1.6276041666666666e-05
2306 449 2.7126736111111112e-06
2396 449 1.6276041666666666e-05
2398 449 2.7126736111111112e-06
2399 449 1.6276041666666666e-05
2400 449 1.6276041666666666e-05
2401 449 1.6276041666666666e-05
2403 449 2.7126736111111112e-06
2494 449 2.7126736111111112e-06
450 450 0.00019531249999999998
451 450 1.0850694444444445e-05
481 450 1.0850694444444445e-05
482 450 1.0850694444444445e-05
2304 450 2.7126736111111112e-06
2305 450 2.7126736111111112e-06
2306 450 1.6276041666666666e-05
2308 450 1.6276041666666666e-05
2309 450 2.7126736111111112e-06
2399 450 1.6276041666666666e-05
2401 450 2.7126736111111112e-06
2402 450 1.6276041666666666e-05
2403 450 1.6276041666666666e-05
2404 450 1.6276041666666666e-05
2406 450 2.7126736111111112e-06
2497 450 2.7126736111111112e-06
451 451 0.00019531249999999998
452 451 1.0850694444444445e-05
482 451 1.0850694444444445e-05
483 451 1.0850694444444445e-05
2307 451 2.7126736111111112e-06
2308 451 2.7126736111111112e-06
2309 451 1.6276041666666666e-05
2311 451 1.6276041666666666e-05
2312 451 2.7126736111111112e-06
2402 451 1.6276041666666666e-05
2404 451 2.7126736111111112e-06
2405 451 1.6276041666666666e-05
2406 451 1.6276041666666666e-05
2407 451 1.6276041666666666e-05
2409 451 2.7126736111111112e-06
2500 451 2.7126736111111112e-06
452 452 0.00019531249999999998
453 452 1.0850694444444445e-05
483 452 1.0850694444444445e-05
484 452 1.0850694444444445e-05
2310 452 2.7126736111111112e-06
2311 452 2.7126736111111112e-06
2312 452 1.6276041666666666e-05
2314 452 1.6276041666666666e-05
2315 452 2.7126736111111112e-06
2405 452 1.6276041666666666e-05
2407 452 2.7126736111111112e-06
2408 452 1.6276041666666666e-05
2409 452 1.6276041666666666e-05
2410 452 1.6276041666666666e-05
2412 452 2.7126736111111112e-06
2503 452 2.7126736111111112e-06
453 453 0.00019531249999999998
454 453 1.0850694444444445e-05
484 453 1.0850694444444445e-05
485 453 1.0850694444444445e-05
2313 453 2.7126736111111112e-06
2314 453 2.7126736111111112e-06
2315 453 1.6276041666666666e-05
2317 453 1.6276041666666666e-05
2318 453 2.7126736111111112e-06
2408 453 1.6276041666666666e-05
2410 453 2.7126736111111112e-06
2411 453 1.6276041666666666e-05
2412 453 1.6276041666666666e-05
2413 453 1.6276041666666666e-05
2415 453 2.7126736111111112e-06
2506 453 2.7126736111111112e-06
454 454 0.00019531249999999998
455 454 1.0850694444444445e-05
485 454 1.0850694444444445e-05
486 454 1.0850694444444445e-05
2316 454 2.7126736111111112e-06
2317 454 2.7126736111111112e-06
2318 454 1.6276041666666666e-05
2320 454 1.6276041666666666e-05
2321 454 2.7126736111111112e-06
2411 454 1.6276041666666666e-05
2413 454 2.7126736111111112e-06
2414 454 1.6276041666666666e-05
2415 454 1.6276041666666666e-05
2416 454 1.6276041666666666e-05
2418 454 2.7126736111111112e-06
2509 454 2.7126736111111112e-06
455 455 0.00019531249999999998
456 455 1.0850694444444445e-05
486 455 1.0850694444444445e-05
487 455 1.0850694444444445e-05
2319 455 2.7126736111111112e-06
2320 455 2.7126736111111112e-06
2321 455 1.6276041666666666e-05
2323 455 1.6276041666666666e-05
2324 455 2.7126736111111112e-06
2414 455 1.6276041666666666e-05
2416 455 2.7126736111111112e-06
2417 455 1.6276041666666666e-05
2418 455 1.6276041666666666e-05
2419 455 1.6276041666666666e-05
2421 455 2.7126736111111112e-06
2512 455 2.7126736111111112e-06
456 456 0.00019531249999999998
457 456 1.0850694444444445e-05
487 456 1.0850694444444445e-05
488 456 1.0850694444444445e-05
2322 456 2.7126736111111112e-06
2323 456 2.7126736111111112e-06
2324 456 1.6276041666666666e-05
2326 456 1.6276041666666666e-05
2327 456 2.7126736111111112e-06
2417 456 1.6276041666666666e-05
2419 456 2.7126736111111112e-06
2420 456 1.6276041666666666e-05
2421 456 1.6276041666666666e-05
2422 456 1.6276041666666666e-05
2424 456 2.7126736111111112e-06
2515 456 2.7126736111111112e-06
457 457 0.00019531249999999998
458 457 1.0850694444444445e-05
488 457 1.0850694444444445e-05
489 457 1.0850694444444445e-05
2325 457 2.7126736111111112e-06
2326 457 2.7126736111111112e-06
2327 457 1.6276041666666666e-05
2329 457 1.6276041666666666e-05
2330 457 2.7126736111111112e-06
2420 457 1.6276041666666666e-05
2422 457 2.7126736111111112e-06
2423 457 1.6276041666666666e-05
2424 457 1.6276041666666666e-05
2425 457 1.6276041666666666e-05
2427 457 2.7126736111111112e-06
2518 457 2.7126736111111112e-06
458 458 0.00019531249999999998
459 458 1.0850694444444445e-05
489 458 1.0850694444444445e-05
490 458 1.0850694444444445e-05
2328 458 2.7126736111111112e-06
2329 458 2.7126736111111112e-06
2330 458 1.6276041666666666e-05
2332 458 1.6276041666666666e-05
2333 458 2.7126736111111112e-06
2423 458 1.6276041666666666e-05
2425 458 2.7126736111111112e-06
2426 458 1.6276041666666666e-05
2427 458 1.6276041666666666e-05
2428 458 1.6276041666666666e-05
2430 458 2.7126736111111112e-06
2521 458 2.7126736111111112e-06
459 459 0.00019531249999999998
460 459 1.0850694444444445e-05
490 459 1.0850694444444445e-05
491 459 1.0850694444444445e-05
2331 459 2.7126736111111112e-06
2332 459 2.7126736111111112e-06
2333 459 1.6276041666666666e-05
2335 459 1.6276041666666666e-05
2336 459 2.7126736111111112e-06
2426 459 1.6276041666666666e-05
2428 459 2.7126736111111112e-06
2429 459 1.6276041666666666e-05
2430 459 1.6276041666666666e-05
2431 459 1.6276041666666666e-05
2433 459 2.7126736111111112e-06
2524 459 2.7126736111111112e-06
460 460 0.00019531249999999998
461 460 1.0850694444444445e-05
491 460 1.0850694444444445e-05
492 460 1.0850694444444445e-05
2334 460 2.7126736111111112e-06
2335 460 2.7126736111111112e-06
2336 460 1.6276041666666666e-05
2338 460 1.6276041666666666e-05
2339 460 2.7126736111111112e-06
2429 460 1.6276041666666666e-05
2431 460 2.7126736111111112e-06
2432 460 1.6276041666666666e-05
2433 460 1.6276041666666666e-05
2434 460 1.6276041666666666e-05
2436 460 2.7126736111111112e-06
2527 460 2.7126736111111112e-06
461 461 0.00019531249999999998
462 461 1.0850694444444445e-05
492 461 1.0850694444444445e-05
493 461 1.0850694444444445e-05
2337 461 2.7126736111111112e-06
2338 461 2.7126736111111112e-06
2339 461 1.6276041666666666e-05
2341 461 1.6276041666666666e-05
2342 461 2.7126736111111112e-06
2432 461 1.6276041666666666e-05
2434 461 2.7126736111111112e-06
2435 461 1.6276041666666666e-05
2436 461 1.6276041666666666e-05
2437 461 1.6276041666666666e-05
2439 461 2.7126736111111112e-06
2530 461 2.7126736111111112e-06
462 462 0.00019531249999999998
463 462 1.0850694444444445e-05
493 462 1.0850694444444445e-05
494 462 1.0850694444444445e-05
2340 462 2.7126736111111112e-06
2341 462 2.7126736111111112e-06
2342 462 1.6276041666666666e-05
2344 462 1.6276041666666666e-05
2345 462 2.7126736111111112e-06
2435 462 1.6276041666666666e-05
2437 462 2.7126736111111112e-06
2438 462 1.6276041666666666e-05
2439 462 1.6276041666666666e-05
2440 462 1.6276041666666666e-05
2442 462 2.7126736111111112e-06
2533 462 2.7126736111111112e-06
463 463 0.00019531249999999998
464 463 1.0850694444444445e-05
494 463 1.0850694444444445e-05
495 463 1.0850694444444445e-05
2343 463 2.7126736111111112e-06
2344 463 2.7126736111111112e-06
2345 463 1.6276041666666666e-05
2347 463 1.6276041666666666e-05
2348 463 2.7126736111111112e-06
2438 463 1.6276041666666666e-05
2440 463 2.7126736111111112e-06
2441 463 1.6276041666666666e-05
2442 463 1.6276041666666666e-05
2443 463 1.6276041666666666e-05
2445 463 2.7126736111111112e-06
2536 463 2.7126736111111112e-06
464 464 0.00019531249999999998
465 464 1.0850694444444445e-05
495 464 1.0850694444444445e-05
496 464 1.0850694444444445e-05
2346 464 2.7126736111111112e-06
2347 464 2.7126736111111112e-06
2348 464 1.6276041666666666e-05
2350 464 1.6276041666666666e-05
2351 464 2.7126736111111112e-06
2441 464 1.6276041666666666e-05
2443 464 2.7126736111111112e-06
2444 464 1.6276041666666666e-05
2445 464 1.6276041666666666e-05
2446 464 1.6276041666666666e-05
2448 464 2.7126736111111112e-06
2539 464 2.7126736111111112e-06
465 465 0.00019531249999999998
496 465 1.0850694444444445e-05
2349 465 2.7126736111111112e-06
2350 465 2.7126736111111112e-06
2351 465 1.6276041666666666e-05
2353 465 1.6276041666666666e-05
2354 465 2.7126736111111112e-06
2444 465 1.6276041666666666e-05
2446 465 2.7126736111111112e-06
2447 465 1.6276041666666666e-05
2448 465 1.6276041666666666e-05
2449 465 1.6276041666666666e-05
2542 465 2.7126736111111112e-06
466 466 0.00019531249999999998
467 466 1.0850694444444445e-05
497 466 1.0850694444444445e-05
498 466 1.0850694444444445e-05
2355 466 2.7126736111111112e-06
2356 466 1.6276041666666666e-05
2358 466 1.6276041666666666e-05
2359 466 2.7126736111111112e-06
2450 466 1.6276041666666666e-05
2451 466 2.7126736111111112e-06
2452 466 1.6276041666666666e-05
2453 466 1.6276041666666666e-05
2454 466 1.6276041666666666e-05
2456 466 2.7126736111111112e-06
2547 466 2.7126736111111112e-06
467 467 0.00019531249999999998
468 467 1.0850694444444445e-05
498 467 1.0850694444444445e-05
499 467 1.0850694444444445e-05
2357 467 2.7126736111111112e-06
2358 467 2.7126736111111112e-06
2359 467 1.6276041666666666e-05
2361 467 1.6276041666666666e-05
2362 467 2.7126736111111112e-06
2452 467 1.6276041666666666e-05
2454 467 2.7126736111111112e-06
2455 467 1.6276041666666666e-05
2456 467 1.6276041666666666e-05
2457 467 1.6276041666666666e-05
2459 467 2.7126736111111112e-06
2550 467 2.7126736111111112e-06
468 468 0.00019531249999999998
469 468 1.0850694444444445e-05
499 468 1.0850694444444445e-05
500 468 1.0850694444444445e-05
2360 468 2.7126736111111112e-06
2361 468 2.7126736111111112e-06
2362 468 1.6276041666666666e-05
2364 468 1.6276041666666666e-05
2365 468 2.7126736111111112e-06
2455 468 1.6276041666666666e-05
2457 468 2.7126736111111112e-06
2458 468 1.6276041666666666e-05
2459 468 1.6276041666666666e-05
2460 468 1.6276041666666666e-05
2462 468 2.7126736111111112e-06
2553 468 2.7126736111111112e-06
469 469 0.00019531249999999998
470 469 1.0850694444444445e-05
500 469 1.0850694444444445e-05
501 469 1.0850694444444445e-05
2363 469 2.7126736111111112e-06
2364 469 2.7126736111111112e-06
2365 469 1.6276041666666666e-05
2367 469 1.6276041666666666e-05
2368 469 2.7126736111111112e-06
2458 469 1.6276041666666666e-05
2460 469 2.7126736111111112e-06
2461 469 1.6276041666666666e-05
2462 469 1.6276041666666666e-05
2463 469 1.6276041666666666e-05
2465 469 2.7126736111111112e-06
2556 469 2.7126736111111112e-06
470 470 0.00019531249999999998
471 470 1.0850694444444445e-05
501 470 1.0850694444444445e-05
502 470 1.0850694444444445e-05
2366 470 2.7126736111111112e-06
2367 470 2.7126736111111112e-06
2368 470 1.6276041666666666e-05
2370 470 1.6276041666666666e-05
2371 470 2.7126736111111112e-06
2461 470 1.6276041666666666e-05
2463 470 2.7126736111111112e-06
2464 470 1.6276041666666666e-05
2465 470 1.6276041666666666e-05
2466 470 1.6276041666666666e-05
2468 470 2.7126736111111112e-06
2559 470 2.7126736111111112e-06
471 471 0.00019531249999999998
472 471 1.0850694444444445e-05
502 471 1.0850694444444445e-05
503 471 1.0850694444444445e-05
2369 471 2.7126736111111112e-06
2370 471 2.7126736111111112e-06
2371 471 1.6276041666666666e-05
2373 471 1.6276041666666666e-05
2374 471 2.7126736111111112e-06
2464 471 1.6276041666666666e-05
2466 471 2.7126736111111112e-06
2467 471 1.6276041666666666e-05
2468 471 1.6276041666666666e-05
2469 471 1.6276041666666666e-05
2471 471 2.7126736111111112e-06
2562 471 2.7126736111111112e-06
472 472 0.00019531249999999998
473 472 1.0850694444444445e-05
503 472 1.0850694444444445e-05
504 472 1.0850694444444445e-05
2372 472 2.7126736111111112e-06
2373 472 2.7126736111111112e-06
2374 472 1.6276041666666666e-05
2376 472 1.6276041666666666e-05
2377 472 2.7126736111111112e-06
2467 472 1.6276041666666666e-05
2469 472 2.7126736111111112e-06
2470 472 1.6276041666666666e-05
2471 472 1.6276041666666666e-05
2472 472 1.6276041666666666e-05
2474 472 2.7126736111111112e-06
2565 472 2.7126736111111112e-06
473 473 0.00019531249999999998
474 473 1.0850694444444445e-05
504 473 1.0850694444444445e-05
505 473 1.0850694444444445e-05
2375 473 2.7126736111111112e-06
2376 473 2.7126736111111112e-06
2377 473 1.6276041666666666e-05
2379 473 1.6276041666666666e-05
2380 473 2.7126736111111112e-06
2470 473 1.6276041666666666e-05
2472 473 2.7126736111111112e-06
2473 473 1.6276041666666666e-05
2474 473 1.6276041666666666e-05
2475 473 1.6276041666666666e-05
2477 473 2.7126736111111112e-06
2568 473 2.7126736111111112e-06
474 474 0.00019531249999999998
475 474 1.0850694444444445e-05
505 474 1.0850694444444445e-05
506 474 1.0850694444444445e-05
2378 474 2.7126736111111112e-06
2379 474 2.7126736111111112e-06
2380 474 1.6276041666666666e-05
2382 474 1.6276041666666666e-05
2383 474 2.7126736111111112e-06
2473 474 1.6276041666666666e-05
2475 474 2.7126736111111112e-06
2476 474 1.6276041666666666e-05
2477 474 1.6276041666666666e-05
2478 474 1.6276041666666666e-05
2480 474 2.7126736111111112e-06
2571 474 2.7126736111111112e-06
475 475 0.00019531249999999998
476 475 1.0850694444444445e-05
506 475 1.0850694444444445e-05
507 475 1.0850694444444445e-05
2381 475 2.7126736111111112e-06
2382 475 2.7126736111111112e-06
2383 475 1.6276041666666666e-05
2385 475 1.6276041666666666e-05
2386 475 2.7126736111111112e-06
2476 475 1.6276041666666666e-05
2478 475 2.7126736111111112e-06
2479 475 1.6276041666666666e-05
2480 475 1.6276041666666666e-05
2481 475 1.6276041666666666e-05
2483 475 2.7126736111111112e-06
2574 475 2.7126736111111112e-06
476 476 0.00019531249999999998
477 476 1.0850694444444445e-05
507 476 1.0850694444444445e-05
508 476 1.0850694444444445e-05
2384 476 2.7126736111111112e-06
2385 476 2.7126736111111112e-06
2386 476 1.6276041666666666e-05
2388 476 1.6276041666666666e-05
2389 476 2.7126736111111112e-06
2479 476 1.6276041666666666e-05
2481 476 2.7126736111111112e-06
2482 476 1.6276041666666666e-05
2483 476 1.6276041666666666e-05
2484 476 1.6276041666666666e-05
2486 476 2.7126736111111112e-06
2577 476 2.7126736111111112e-06
477 477 0.00019531249999999998
478 477 1.0850694444444445e-05
508 477 1.0850694444444445e-05
509 477 1.0850694444444445e-05
2387 477 2.7126736111111112e-06
2388 477 2.7126736111111112e-06
2389 477 1.6276041666666666e-05
2391 477 1.6276041666666666e-05
2392 477 2.7126736111111112e-06
2482 477 1.6276041666666666e-05
2484 477 2.7126736111111112e-06
2485 477 1.6276041666666666e-05
2486 477 1.6276041666666666e-05
2487 477 1.6276041666666666e-05
2489 477 2.7126736111111112e-06
2580 477 2.7126736111111112e-06
478 478 0.00019531249999999998
479 478 1.0850694444444445e-05
509 478 1.0850694444444445e-05
510 478 1.0850694444444445e-05
2390 478 2.7126736111111112e-06
2391 478 2.7126736111111112e-06
2392 478 1.6276041666666666e-05
2394 478 1.6276041666666666e-05
2395 478 2.7126736111111112e-06
2485 478 1.6276041666666666e-05
2487 478 2.7126736111111112e-06
2488 478 1.6276041666666666e-05
2489 478 1.6276041666666666e-05
2490 478 1.6276041666666666e-05
2492 478 2.7126736111111112e-06
2583 478 2.7126736111111112e-06
479 479 0.00019531249999999998
480 479 1.0850694444444445e-05
510 479 1.0850694444444445e-05
511 479 1.0850694444444445e-05
2393 479 2.7126736111111112e-06
2394 479 2.7126736111111112e-06
2395 479 1.6276041666666666e-05
2397 479 1.6276041666666666e-05
2398 479 2.7126736111111112e-06
2488 479 1.6276041666666666e-05
2490 479 2.7126736111111112e-06
2491 479 1.6276041666666666e-05
2492 479 1.6276041666666666e-05
2493 479 1.6276041666666666e-05
2495 479 2.7126736111111112e-06
2586 479 2.7126736111111112e-06
480 480 0.00019531249999999998
481 480 1.0850694444444445e-05
511 480 1.0850694444444445e-05
512 480 1.0850694444444445e-05
2396 480 2.7126736111111112e-06
2397 480 2.7126736111111112e-06
2398 480 1.6276041666666666e-05
2400 480 1.6276041666666666e-05
2401 480 2.7126736111111112e-06
2491 480 1.6276041666666666e-05
2493 480 2.7126736111111112e-06
2494 480 1.6276041666666666e-05
2495 480 1.6276041666666666e-05
2496 480 1.6276041666666666e-05
2498 480 2.7126736111111112e-06
2589 480 2.7126736111111112e-06
481 481 0.00019531249999999998
482 481 1.0850694444444445e-05
512 481 1.0850694444444445e-05
513 481 1.0850694444444445e-05
2399 481 2.7126736111111112e-06
2400 481 2.7126736111111112e-06
2401 481 1.6276041666666666e-05
2403 481 1.6276041666666666e-05
2404 481 2.7126736111111112e-06
2494 481 1.6276041666666666e-05
2496 481 2.7126736111111112e-06
2497 481 1.6276041666666666e-05
2498 481 1.6276041666666666e-05
2499 481 1.6276041666666666e-05
2501 481 2.7126736111111112e-06
2592 481 2.7126736111111112e-06
482 482 0.00019531249999999998
483 482 1.0850694444444445e-05
513 482 1.0850694444444445e-05
514 482 1.0850694444444445e-05
2402 482 2.7126736111111112e-06
2403 482 2.7126736111111112e-06
2404 482 1.6276041666666666e-05
2406 482 1.6276041666666666e-05
2407 482 2.7126736111111112e-06
2497 482 1.6276041666666666e-05
2499 482 2.7126736111111112e-06
2500 482 1.6276041666666666e-05
2501 482 1.6276041666666666e-05
2502 482 1.6276041666666666e-05
2504 482 2.7126736111111112e-06
2595 482 2.7126736111111112e-06
483 483 0.00019531249999999998
484 483 1.0850694444444445e-05
514 483 1.0850694444444445e-05
515 483 1.0850694444444445e-05
2405 483 2.7126736111111112e-06
2406 483 2.7126736111111112e-06
2407 483 1.6276041666666666e-05
2409 483 1.6276041666666666e-05
2410 483 2.7126736111111112e-06
2500 483 1.6276041666666666e-05
2502 483 2.7126736111111112e-06
2503 483 1.6276041666666666e-05
2504 483 1.6276041666666666e-05
2505 483 1.6276041666666666e-05
2507 483 2.7126736111111112e-06
2598 483 2.7126736111111112e-06
484 484 0.00019531249999999998
485 484 1.0850694444444445e-05
515 484 1.0850694444444445e-05
516 484 1.0850694444444445e-05
2408 484 2.7126736111111112e-06
2409 484 2.7126736111111112e-06
2410 484 1.6276041666666666e-05
2412 484 1.6276041666666666e-05
2413 484 2.7126736111111112e-06
2503 484 1.6276041666666666e-05
2505 484 2.7126736111111112e-06
2506 484 1.6276041666666666e-05
2507 484 1.6276041666666666e-05
2508 484 1.6276041666666666e-05
2510 484 2.7126736111111112e-06
2601 484 2.7126736111111112e-06
485 485 0.00019531249999999998
486 485 1.0850694444444445e-05
516 485 1.0850694444444445e-05
517 485 1.0850694444444445e-05
2411 485 2.7126736111111112e-06
2412 485 2.7126736111111112e-06
2413 485 1.6276041666666666e-05
2415 485 1.6276041666666666e-05
2416 485 2.7126736111111112e-06
2506 485 1.6276041666666666e-05
2508 485 2.7126736111111112e-06
2509 485 1.6276041666666666e-05
2510 485 1.6276041666666666e-05
2511 485 1.6276041666666666e-05
2513 485 2.7126736111111112e-06
2604 485 2.7126736111111112e-06
486 486 0.00019531249999999998
487 486 1.0850694444444445e-05
517 486 1.0850694444444445e-05
518 486 1.0850694444444445e-05
2414 486 2.7126736111111112e-06
2415 486 2.7126736111111112e-06
2416 486 1.6276041666666666e-05
2418 486 1.6276041666666666e-05
2419 486 2.7126736111111112e-06
2509 486 1.6276041666666666e-05
2511 486 2.7126736111111112e-06
2512 486 1.6276041666666666e-05
2513 486 1.6276041666666666e-05
2514 486 1.6276041666666666e-05
2516 486 2.7126736111111112e-06
2607 486 2.7126736111111112e-06
487 487 0.00019531249999999998
488 487 1.0850694444444445e-05
518 487 1.0850694444444445e-05
519 487 1.0850694444444445e-05
2417 487 2.7126736111111112e-06
2418 487 2.7126736111111112e-06
2419 487 1.6276041666666666e-05
2421 487 1.6276041666666666e-05
2422 487 2.7126736111111112e-06
2512 487 1.6276041666666666e-05
2514 487 2.7126736111111112e-06
2515 487 1.6276041666666666e-05
2516 487 1.6276041666666666e-05
2517 487 1.6276041666666666e-05
2519 487 2.7126736111111112e-06
2610 487 2.7126736111111112e-06
488 488 0.00019531249999999998
489 488 1.0850694444444445e-05
519 488 1.0850694444444445e-05
520 488 1.0850694444444445e-05
2420 488 2.7126736111111112e-06
2421 488 2.7126736111111112e-06
2422 488 1.6276041666666666e-05
2424 488 1.6276041666666666e-05
2425 488 2.7126736111111112e-06
2515 488 1.6276041666666666e-05
2517 488 2.7126736111111112e-06
2518 488 1.6276041666666666e-05
2519 488 1.6276041666666666e-05
2520 488 1.6276041666666666e-05
2522 488 2.7126736111111112e-06
2613 488 2.7126736111111112e-06
489 489 0.00019531249999999998
490 489 1.0850694444444445e-05
520 489 1.0850694444444445e-05
521 489 1.0850694444444445e-05
2423 489 2.7126736111111112e-06
2424 489 2.7126736111111112e-06
2425 489 1.6276041666666666e-05
2427 489 1.6276041666666666e-05
2428 489 2.7126736111111112e-06
2518 489 1.6276041666666666e-05
2520 489 2.7126736111111112e-06
2521 489 1.6276041666666666e-05
2522 489 1.6276041666666666e-05
2523 489 1.6276041666666666e-05
2525 489 2.7126736111111112e-06
2616 489 2.7126736111111112e-06
490 490 0.00019531249999999998
491 490 1.0850694444444445e-05
521 490 1.0850694444444445e-05
522 490 1.0850694444444445e-05
2426 490 2.7126736111111112e-06
2427 490 2.7126736111111112e-06
2428 490 1.6276041666666666e-05
2430 490 1.6276041666666666e-05
2431 490 2.7126736111111112e-06
2521 490 1.6276041666666666e-05
2523 490 2.7126736111111112e-06
2524 490 1.6276041666666666e-05
2525 490 1.6276041666666666e-05
2526 490 1.6276041666666666e-05
2528 490 2.7126736111111112e-06
2619 490 2.7126736111111112e-06
491 491 0.00019531249999999998
492 491 1.0850694444444445e-05
522 491 1.0850694444444445e-05
523 491 1.0850694444444445e-05
2429 491 2.7126736111111112e-06
2430 491 2.7126736111111112e-06
2431 491 1.6276041666666666e-05
2433 491 1.6276041666666666e-05
2434 491 2.7126736111111112e-06
2524 491 1.6276041666666666e-05
2526 491 2.7126736111111112e-06
2527 491 1.6276041666666666e-05
2528 491 1.6276041666666666e-05
2529 491 1.6276041666666666e-05
2531 491 2.7126736111111112e-06
2622 491 2.7126736111111112e-06
492 492 0.00019531249999999998
493 492 1.0850694444444445e-05
523 492 1.0850694444444445e-05
524 492 1.0850694444444445e-05
2432 492 2.7126736111111112e-06
2433 492 2.7126736111111112e-06
2434 492 1.6276041666666666e-05
2436 492 1.6276041666666666e-05
2437 492 2.7126736111111112e-06
2527 492 1.6276041666666666e-05
2529 492 2.7126736111111112e-06
2530 492 1.6276041666666666e-05
2531 492 1.6276041666666666e-05
2532 492 1.6276041666666666e-05
2534 492 2.7126736111111112e-06
2625 492 2.7126736111111112e-06
493 493 0.00019531249999999998
494 493 1.0850694444444445e-05
524 493 1.0850694444444445e-05
525 493 1.0850694444444445e-05
2435 493 2.7126736111111112e-06
2436 493 2.7126736111111112e-06
2437 493 1.6276041666666666e-05
2439 493 1.6276041666666666e-05
2440 493 2.7126736111111112e-06
2530 493 1.6276041666666666e-05
2532 493 2.7126736111111112e-06
2533 493 1.6276041666666666e-05
2534 493 1.6276041666666666e-05
2535 493 1.6276041666666666e-05
2537 493 2.7126736111111112e-06
2628 493 2.7126736111111112e-06
494 494 0.00019531249999999998
495 494 1.0850694444444445e-05
525 494 1.0850694444444445e-05
526 494 1.0850694444444445e-05
2438 494 2.7126736111111112e-06
2439 494 2.7126736111111112e-06
2440 494 1.6276041666666666e-05
2442 494 1.6276041666666666e-05
2443 494 2.7126736111111112e-06
2533 494 1.6276041666666666e-05
2535 494 2.7126736111111112e-06
2536 494 1.6276041666666666e-05
2537 494 1.6276041666666666e-05
2538 494 1.6276041666666666e-05
2540 494 2.7126736111111112e-06
2631 494 2.7126736111111112e-06
495 495 0.00019531249999999998
496 495 1.0850694444444445e-05
526 495 1.0850694444444445e-05
527 495 1.0850694444444445e-05
2441 495 2.7126736111111112e-06
2442 495 2.7126736111111112e-06
2443 495 1.6276041666666666e-05
2445 495 1.6276041666666666e-05
2446 495 2.7126736111111112e-06
2536 495 1.6276041666666666e-05
2538 495 2.7126736111111112e-06
2539 495 1.6276041666666666e-05
2540 495 1.6276041666666666e-05
2541 495 1.6276041666666666e-05
2543 495 2.7126736111111112e-06
2634 495 2.7126736111111112e-06
496 496 0.00019531249999999998
527 496 1.0850694444444445e-05
2444 496 2.7126736111111112e-06
2445 496 2.7126736111111112e-06
2446 496 1.6276041666666666e-05
2448 496 1.6276041666666666e-05
2449 496 2.7126736111111112e-06
2539 496 1.6276041666666666e-05
2541 496 2.7126736111111112e-06
2542 496 1.6276041666666666e-05
2543 496 1.6276041666666666e-05
2544 496 1.6276041666666666e-05
2637 496 2.7126736111111112e-06
497 497 0.00019531249999999998
498 497 1.0850694444444445e-05
528 497 1.0850694444444445e-05
529 497 1.0850694444444445e-05
2450 497 2.7126736111111112e-06
2451 497 1.6276041666666666e-05
2453 497 1.6276041666666666e-05
2454 497 2.7126736111111112e-06
2545 497 1.6276041666666666e-05
2546 497 2.7126736111111112e-06
2547 497 1.6276041666666666e-05
2548 497 1.6276041666666666e-05
2549 497 1.6276041666666666e-05
2551 497 2.7126736111111112e-06
2642 497 2.7126736111111112e-06
498 498 0.00019531249999999998
499 498 1.0850694444444445e-05
529 498 1.0850694444444445e-05
530 498 1.0850694444444445e-05
2452 498 2.7126736111111112e-06
2453 498 2.7126736111111112e-06
2454 498 1.6276041666666666e-05
2456 498 1.6276041666666666e-05
2457 498 2.7126736111111112e-06
2547 498 1.6276041666666666e-05
2549 498 2.7126736111111112e-06
2550 498 1.6276041666666666e-05
2551 498 1.6276041666666666e-05
2552 498 1.6276041666666666e-05
2554 498 2.7126736111111112e-06
2645 498 2.7126736111111112e-06
499 499 0.00019531249999999998
500 499 1.0850694444444445e-05
530 499 1.0850694444444445e-05
531 499 1.0850694444444445e-05
2455 499 2.7126736111111112e-06
2456 499 2.7126736111111112e-06
2457 499 1.6276041666666666e-05
2459 499 1.6276041666666666e-05
2460 499 2.7126736111111112e-06
2550 499 1.6276041666666666e-05
2552 499 2.7126736111111112e-06
2553 499 1.6276041666666666e-05
2554 499 1.6276041666666666e-05
2555 499 1.6276041666666666e-05
2557 499 2.7126736111111112e-06
2648 499 2.7126736111111112e-06
500 500 0.00019531249999999998
501 500 1.0850694444444445e-05
531 500 1.0850694444444445e-05
532 500 1.0850694444444445e-05
2458 500 2.7126736111111112e-06
2459 500 2.7126736111111112e-06
2460 500 1.6276041666666666e-05
2462 500 1.6276041666666666e-05
2463 500 2.7126736111111112e-06
2553 500 1.6276041666666666e-05
2555 500 2.7126736111111112e-06
2556 500 1.6276041666666666e-05
2557 500 1.6276041666666666e-05
2558 500 1.6276041666666666e-05
2560 500 2.7126736111111112e-06
2651 500 2.7126736111111112e-06
501 501 0.00019531249999999998
502 501 1.0850694444444445e-05
532 501 1.0850694444444445e-05
533 501 1.0850694444444445e-05
2461 501 2.7126736111111112e-06
2462 501 2.7126736111111112e-06
2463 501 1.6276041666666666e-05
2465 501 1.6276041666666666e-05
2466 501 2.7126736111111112e-06
2556 501 1.6276041666666666e-05
2558 501 2.7126736111111112e-06
2559 501 1.6276041666666666e-05
2560 501 1.6276041666666666e-05
2561 501 1.6276041666666666e-05
2563 501 2.7126736111111112e-06
2654 501 2.7126736111111112e-06
502 502 0.00019531249999999998
503 502 1.0850694444444445e-05
533 502 1.0850694444444445e-05
534 502 1.0850694444444445e-05
2464 502 2.7126736111111112e-06
2465 502 2.7126736111111112e-06
2466 502 1.6276041666666666e-05
2468 502 1.6276041666666666e-05
2469 502 2.7126736111111112e-06
2559 502 1.6276041666666666e-05
2561 502 2.7126736111111112e-06
2562 502 1.6276041666666666e-05
2563 502 1.6276041666666666e-05
2564 502 1.6276041666666666e-05
2566 502 2.7126736111111112e-06
2657 502 2.7126736111111112e-06
503 503 0.00019531249999999998
504 503 1.0850694444444445e-05
534 503 1.0850694444444445e-05
535 503 1.0850694444444445e-05
2467 503 2.7126736111111112e-06
2468 503 2.7126736111111112e-06
2469 503 1.6276041666666666e-05
2471 503 1.6276041666666666e-05
2472 503 2.7126736111111112e-06
2562 503 1.6276041666666666e-05
2564 503 2.7126736111111112e-06
2565 503 1.6276041666666666e-05
2566 503 1.6276041666666666e-05
2567 503 1.6276041666666666e-05
2569 503 2.7126736111111112e-06
2660 503 2.7126736111111112e-06
504 504 0.00019531249999999998
505 504 1.0850694444444445e-05
535 504 1.0850694444444445e-05
536 504 1.0850694444444445e-05
2470 504 2.7126736111111112e-06
2471 504 2.7126736111111112e-06
2472 504 1.6276041666666666e-05
2474 504 1.6276041666666666e-05
2475 504 2.7126736111111112e-06
2565 504 1.6276041666666666e-05
2567 504 2.7126736111111112e-06
2568 504 1.6276041666666666e-05
2569 504 1.6276041666666666e-05
2570 504 1.6276041666666666e-05
2572 504 2.7126736111111112e-06
2663 504 2.7126736111111112e-06
505 505 0.00019531249999999998
506 505 1.0850694444444445e-05
536 505 1.0850694444444445e-05
537 505 1.0850694444444445e-05
2473 505 2.7126736111111112e-06
2474 505 2.7126736111111112e-06
2475 505 1.6276041666666666e-05
2477 505 1.6276041666666666e-05
2478 505 2.7126736111111112e-06
2568 505 1.6276041666666666e-05
2570 505 2.7126736111111112e-06
2571 505 1.6276041666666666e-05
2572 505 1.6276041666666666e-05
2573 505 1.6276041666666666e-05
2575 505 2.7126736111111112e-06
2666 505 2.7126736111111112e-06
506 506 0.00019531249999999998
507 506 1.0850694444444445e-05
537 506 1.0850694444444445e-05
538 506 1.0850694444444445e-05
2476 506 2.7126736111111112e-06
2477 506 2.7126736111111112e-06
2478 506 1.6276041666666666e-05
2480 506 1.6276041666666666e-05
2481 506 2.7126736111111112e-06
2571 506 1.6276041666666666e-05
2573 506 2.7126736111111112e-06
2574 506 1.6276041666666666e-05
2575 506 1.6276041666666666e-05
2576 506 1.6276041666666666e-05
2578 506 2.7126736111111112e-06
2669 506 2.7126736111111112e-06
507 507 0.00019531249999999998
508 507 1.0850694444444445e-05
538 507 1.0850694444444445e-05
539 507 1.0850694444444445e-05
2479 507 2.7126736111111112e-06
2480 507 2.7126736111111112e-06
2481 507 1.6276041666666666e-05
2483 507 1.6276041666666666e-05
2484 507 2.7126736111111112e-06
2574 507 1.6276041666666666e-05
2576 507 2.7126736111111112e-06
2577 507 1.6276041666666666e-05
2578 507 1.6276041666666666e-05
2579 507 1.6276041666666666e-05
2581 507 2.7126736111111112e-06
2672 507 2.7126736111111112e-06
508 508 0.00019531249999999998
509 508 1.0850694444444445e-05
539 508 1.0850694444444445e-05
540 508 1.0850694444444445e-05
2482 508 2.7126736111111112e-06
2483 508 2.7126736111111112e-06
2484 508 1.6276041666666666e-05
2486 508 1.6276041666666666e-05
2487 508 2.7126736111111112e-06
2577 508 1.6276041666666666e-05
2579 508 2.7126736111111112e-06
2580 508 1.6276041666666666e-05
2581 508 1.6276041666666666e-05
2582 508 1.6276041666666666e-05
2584 508 2.7126736111111112e-06
2675 508 2.7126736111111112e-06
509 509 0.00019531249999999998
510 509 1.0850694444444445e-05
540 509 1.0850694444444445e-05
541 509 1.0850694444444445e-05
2485 509 2.7126736111111112e-06
2486 509 2.7126736111111112e-06
2487 509 1.6276041666666666e-05
2489 509 1.6276041666666666e-05
2490 509 2.7126736111111112e-06
2580 509 1.6276041666666666e-05
2582 509 2.7126736111111112e-06
2583 509 1.6276041666666666e-05
2584 509 1.6276041666666666e-05
2585 509 1.6276041666666666e-05
2587 509 2.7126736111111112e-06
2678 509 2.7126736111111112e-06
510 510 0.00019531249999999998
511 510 1.0850694444444445e-05
541 510 1.0850694444444445e-05
542 510 1.0850694444444445e-05
2488 510 2.7126736111111112e-06
2489 510 2.7126736111111112e-06
2490 510 1.6276041666666666e-05
2492 510 1.6276041666666666e-05
2493 510 2.7126736111111112e-06
2583 510 1.6276041666666666e-05
2585 510 2.7126736111111112e-06
2586 510 1.6276041666666666e-05
2587 510 1.6276041666666666e-05
2588 510 1.6276041666666666e-05
2590 510 2.7126736111111112e-06
2681 510 2.7126736111111112e-06
511 511 0.00019531249999999998
512 511 1.0850694444444445e-05
542 511 1.0850694444444445e-05
543 511 1.0850694444444445e-05
2491 511 2.7126736111111112e-06
2492 511 2.7126736111111112e-06
2493 511 1.6276041666666666e-05
2495 511 1.6276041666666666e-05
2496 511 2.7126736111111112e-06
2586 511 1.6276041666666666e-05
2588 511 2.7126736111111112e-06
2589 511 1.6276041666666666e-05
2590 511 1.6276041666666666e-05
2591 511 1.6276041666666666e-05
2593 511 2.7126736111111112e-06
2684 511 2.7126736111111112e-06
512 512 0.00019531249999999998
513 512 1.0850694444444445e-05
543 512 1.0850694444444445e-05
544 512 1.0850694444444445e-05
2494 512 2.7126736111111112e-06
2495 512 2.7126736111111112e-06
2496 512 1.6276041666666666e-05
2498 512 1.6276041666666666e-05
2499 512 2.7126736111111112e-06
2589 512 1.6276041666666666e-05
2591 512 2.7126736111111112e-06
2592 512 1.6276041666666666e-05
2593 512 1.6276041666666666e-05
2594 512 1.6276041666666666e-05
2596 512 2.7126736111111112e-06
2687 512 2.7126736111111112e-06
513 513 0.00019531249999999998
514 513 1.0850694444444445e-05
544 513 1.0850694444444445e-05
545 513 1.0850694444444445e-05
2497 513 2.7126736111111112e-06
2498 513 2.7126736111111112e-06
2499 513 1.6276041666666666e-05
2501 513 1.6276041666666666e-05
2502 513 2.7126736111111112e-06
2592 513 1.6276041666666666e-05
2594 513 2.7126736111111112e-06
2595 513 1.6276041666666666e-05
2596 513 1.6276041666666666e-05
2597 513 1.6276041666666666e-05
2599 513 2.7126736111111112e-06
2690 513 2.7126736111111112e-06
514 514 0.00019531249999999998
515 514 1.0850694444444445e-05
545 514 1.0850694444444445e-05
546 514 1.0850694444444445e-05
2500 514 2.7126736111111112e-06
2501 514 2.7126736111111112e-06
2502 514 1.6276041666666666e-05
2504 514 1.6276041666666666e-05
2505 514 2.7126736111111112e-06
2595 514 1.6276041666666666e-05
2597 514 2.7126736111111112e-06
2598 514 1.6276041666666666e-05
2599 514 1.6276041666666666e-05
2600 514 1.6276041666666666e-05
2602 514 2.7126736111111112e-06
2693 514 2.7126736111111112e-06
515 515 0.00019531249999999998
516 515 1.0850694444444445e-05
546 515 1.0850694444444445e-05
547 515 1.0850694444444445e-05
2503 515 2.7126736111111112e-06
2504 515 2.7126736111111112e-06
2505 515 1.6276041666666666e-05
2507 515 1.6276041666666666e-05
2508 515 2.7126736111111112e-06
2598 515 1.6276041666666666e-05
2600 515 2.7126736111111112e-06
2601 515 1.6276041666666666e-05
2602 515 1.6276041666666666e-05
2603 515 1.6276041666666666e-05
2605 515 2.7126736111111112e-06
2696 515 2.7126736111111112e-06
516 516 0.00019531249999999998
517 516 1.0850694444444445e-05
547 516 1.0850694444444445e-05
548 516 1.0850694444444445e-05
2506 516 2.7126736111111112e-06
2507 516 2.7126736111111112e-06
2508 516 1.6276041666666666e-05
2510 516 1.6276041666666666e-05
2511 516 2.7126736111111112e-06
2601 516 1.6276041666666666e-05
2603 516 2.7126736111111112e-06
2604 516 1.6276041666666666e-05
2605 516 1.6276041666666666e-05
2606 516 1.6276041666666666e-05
2608 516 2.7126736111111112e-06
2699 516 2.7126736111111112e-06
517 517 0.00019531249999999998
518 517 1.0850694444444445e-05
548 517 1.0850694444444445e-05
549 517 1.0850694444444445e-05
2509 517 2.7126736111111112e-06
2510 517 2.7126736111111112e-06
2511 517 1.6276041666666666e-05
2513 517 1.6276041666666666e-05
2514 517 2.7126736111111112e-06
2604 517 1.6276041666666666e-05
2606 517 2.7126736111111112e-06
2607 517 1.6276041666666666e-05
2608 517 1.6276041666666666e-05
2609 517 1.6276041666666666e-05
2611 517 2.7126736111111112e-06
2702 517 2.7126736111111112e-06
518 518 0.00019531249999999998
519 518 1.0850694444444445e-05
549 518 1.0850694444444445e-05
550 518 1.0850694444444445e-05
2512 518 2.7126736111111112e-06
2513 518 2.7126736111111112e-06
2514 518 1.6276041666666666e-05
2516 518 1.6276041666666666e-05
2517 518 2.7126736111111112e-06
2607 518 1.6276041666666666e-05
2609 518 2.7126736111111112e-06
2610 518 1.6276041666666666e-05
2611 518 1.6276041666666666e-05
2612 518 1.6276041666666666e-05
2614 518 2.7126736111111112e-06
2705 518 2.7126736111111112e-06
519 519 0.00019531249999999998
520 519 1.0850694444444445e-05
550 519 1.0850694444444445e-05
551 519 1.0850694444444445e-05
2515 519 2.7126736111111112e-06
2516 519 2.7126736111111112e-06
2517 519 1.6276041666666666e-05
2519 519 1.6276041666666666e-05
2520 519 2.7126736111111112e-06
2610 519 1.6276041666666666e-05
2612 519 2.7126736111111112e-06
2613 519 1.6276041666666666e-05
2614 519 1.6276041666666666e-05
2615 519 1.6276041666666666e-05
2617 519 2.7126736111111112e-06
2708 519 2.7126736111111112e-06
520 520 0.00019531249999999998
521 520 1.0850694444444445e-05
551 520 1.0850694444444445e-05
552 520 1.0850694444444445e-05
2518 520 2.7126736111111112e-06
2519 520 2.7126736111111112e-06
2520 520 1.6276041666666666e-05
2522 520 1.6276041666666666e-05
2523 520 2.7126736111111112e-06
2613 520 1.6276041666666666e-05
2615 520 2.7126736111111112e-06
2616 520 1.6276041666666666e-05
2617 520 1.6276041666666666e-05
2618 520 1.6276041666666666e-05
2620 520 2.7126736111111112e-06
2711 520 2.7126736111111112e-06
521 521 0.00019531249999999998
522 521 1.0850694444444445e-05
552 521 1.0850694444444445e-05
553 521 1.0850694444444445e-05
2521 521 2.7126736111111112e-06
2522 521 2.7126736111111112e-06
2523 521 1.6276041666666666e-05
2525 521 1.6276041666666666e-05
2526 521 2.7126736111111112e-06
2616 521 1.6276041666666666e-05
2618 521 2.7126736111111112e-06
2619 521 1.6276041666666666e-05
2620 521 1.6276041666666666e-05
2621 521 1.6276041666666666e-05
2623 521 2.7126736111111112e-06
2714 521 2.7126736111111112e-06
522 522 0.00019531249999999998
523 522 1.0850694444444445e-05
553 522 1.0850694444444445e-05
554 522 1.0850694444444445e-05
2524 522 2.7126736111111112e-06
2525 522 2.7126736111111112e-06
2526 522 1.6276041666666666e-05
2528 522 1.6276041666666666e-05
2529 522 2.7126736111111112e-06
2619 522 1.6276041666666666e-05
2621 522 2.7126736111111112e-06
2622 522 1.6276041666666666e-05
2623 522 1.6276041666666666e-05
2624 522 1.6276041666666666e-05
2626 522 2.7126736111111112e-06
2717 522 2.7126736111111112e-06
523 523 0.00019531249999999998
524 523 1.0850694444444445e-05
554 523 1.0850694444444445e-05
555 523 1.0850694444444445e-05
2527 523 2.7126736111111112e-06
2528 523 2.7126736111111112e-06
2529 523 1.6276041666666666e-05
2531 523 1.6276041666666666e-05
2532 523 2.7126736111111112e-06
2622 523 1.6276041666666666e-05
2624 523 2.7126736111111112e-06
2625 523 1.6276041666666666e-05
2626 523 1.6276041666666666e-05
2627 523 1.6276041666666666e-05
2629 523 2.7126736111111112e-06
2720 523 2.7126736111111112e-06
524 524 0.00019531249999999998
525 524 1.0850694444444445e-05
555 524 1.0850694444444445e-05
556 524 1.0850694444444445e-05
2530 524 2.7126736111111112e-06
2531 524 2.7126736111111112e-06
2532 524 1.6276041666666666e-05
2534 524 1.6276041666666666e-05
2535 524 2.7126736111111112e-06
2625 524 1.6276041666666666e-05
2627 524 2.7126736111111112e-06
2628 524 1.6276041666666666e-05
2629 524 1.6276041666666666e-05
2630 524 1.6276041666666666e-05
2632 524 2.7126736111111112e-06
2723 524 2.7126736111111112e-06
525 525 0.00019531249999999998
526 525 1.0850694444444445e-05
556 525 1.0850694444444445e-05
557 525 1.0850694444444445e-05
2533 525 2.7126736111111112e-06
2534 525 2.7126736111111112e-06
2535 525 1.6276041666666666e-05
2537 525 1.6276041666666666e-05
2538 525 2.7126736111111112e-06
2628 525 1.6276041666666666e-05
2630 525 2.7126736111111112e-06
2631 525 1.6276041666666666e-05
2632 525 1.6276041666666666e-05
2633 525 1.6276041666666666e-05
2635 525 2.7126736111111112e-06
2726 525 2.7126736111111112e-06
526 526 0.00019531249999999998
527 526 1.0850694444444445e-05
557 526 1.0850694444444445e-05
558 526 1.0850694444444445e-05
2536 526 2.7126736111111112e-06
2537 526 2.7126736111111112e-06
2538 526 1.6276041666666666e-05
2540 526 1.6276041666666666e-05
2541 526 2.7126736111111112e-06
2631 526 1.6276041666666666e-05
2633 526 2.7126736111111112e-06
2634 526 1.6276041666666666e-05
2635 526 1.6276041666666666e-05
2636 526 1.6276041666666666e-05
2638 526 2.7126736111111112e-06
2729 526 2.7126736111111112e-06
527 527 0.00019531249999999998
558 527 1.0850694444444445e-05
2539 527 2.7126736111111112e-06
2540 527 2.7126736111111112e-06
2541 527 1.6276041666666666e-05
2543 527 1.6276041666666666e-05
2544 527 2.7126736111111112e-06
2634 527 1.6276041666666666e-05
2636 527 2.7126736111111112e-06
2637 527 1.6276041666666666e-05
2638 527 1.6276041666666666e-05
2639 527 1.6276041666666666e-05
2732 527 2.7126736111111112e-06
528 528 0.00019531249999999998
529 528 1.0850694444444445e-05
559 528 1.0850694444444445e-05
560 528 1.0850694444444445e-05
2545 528 2.7126736111111112e-06
2546 528 1.6276041666666666e-05
2548 528 1.6276041666666666e-05
2549 528 2.7126736111111112e-06
2640 528 1.6276041666666666e-05
2641 528 2.7126736111111112e-06
2642 528 1.6276041666666666e-05
2643 528 1.6276041666666666e-05
2644 528 1.6276041666666666e-05
2646 528 2.7126736111111112e-06
2737 528 2.7126736111111112e-06
529 529 0.00019531249999999998
530 529 1.0850694444444445e-05
560 529 1.0850694444444445e-05
561 529 1.0850694444444445e-05
2547 529 2.7126736111111112e-06
2548 529 2.7126736111111112e-06
2549 529 1.6276041666666666e-05
2551 529 1.6276041666666666e-05
2552 529 2.7126736111111112e-06
2642 529 1.6276041666666666e-05
2644 529 2.7126736111111112e-06
2645 529 1.6276041666666666e-05
2646 529 1.6276041666666666e-05
2647 529 1.6276041666666666e-05
2649 529 2.7126736111111112e-06
2740 529 2.7126736111111112e-06
530 530 0.00019531249999999998
531 530 1.0850694444444445e-05
561 530 1.0850694444444445e-05
562 530 1.0850694444444445e-05
2550 530 2.7126736111111112e-06
2551 530 2.7126736111111112e-06
2552 530 1.6276041666666666e-05
2554 530 1.6276041666666666e-05
2555 530 2.7126736111111112e-06
2645 530 1.6276041666666666e-05
2647 530 2.7126736111111112e-06
2648 530 1.6276041666666666e-05
2649 530 1.6276041666666666e-05
2650 530 1.6276041666666666e-05
2652 530 2.7126736111111112e-06
2743 530 2.7126736111111112e-06
531 531 0.00019531249999999998
532 531 1.0850694444444445e-05
562 531 1.0850694444444445e-05
563 531 1.0850694444444445e-05
2553 531 2.7126736111111112e-06
2554 531 2.7126736111111112e-06
2555 531 1.6276041666666666e-05
2557 531 1.6276041666666666e-05
2558 531 2.7126736111111112e-06
2648 531 1.6276041666666666e-05
2650 531 2.7126736111111112e-06
2651 531 1.6276041666666666e-05
2652 531 1.6276041666666666e-05
2653 531 1.6276041666666666e-05
2655 531 2.7126736111111112e-06
2746 531 2.7126736111111112e-06
532 532 0.00019531249999999998
533 532 1.0850694444444445e-05
563 532 1.0850694444444445e-05
564 532 1.0850694444444445e-05
2556 532 2.7126736111111112e-06
2557 532 2.7126736111111112e-06
2558 532 1.6276041666666666e-05
2560 532 1.6276041666666666e-05
2561 532 2.7126736111111112e-06
2651 532 1.6276041666666666e-05
2653 532 2.7126736111111112e-06
2654 532 1.6276041666666666e-05
2655 532 1.6276041666666666e-05
2656 532 1.6276041666666666e-05
2658 532 2.7126736111111112e-06
2749 532 2.7126736111111112e-06
533 533 0.00019531249999999998
534 533 1.0850694444444445e-05
564 533 1.0850694444444445e-05
565 533 1.0850694444444445e-05
2559 533 2.7126736111111112e-06
2560 533 2.7126736111111112e-06
2561 533 1.6276041666666666e-05
2563 533 1.6276041666666666e-05
2564 533 2.7126736111111112e-06
2654 533 1.6276041666666666e-05
2656 533 2.7126736111111112e-06
2657 533 1.6276041666666666e-05
2658 533 1.6276041666666666e-05
2659 533 1.6276041666666666e-05
2661 533 2.7126736111111112e-06
2752 533 2.7126736111111112e-06
534 534 0.00019531249999999998
535 534 1.0850694444444445e-05
565 534 1.0850694444444445e-05
566 534 1.0850694444444445e-05
2562 534 2.7126736111111112e-06
2563 534 2.7126736111111112e-06
2564 534 1.6276041666666666e-05
2566 534 1.6276041666666666e-05
2567 534 2.7126736111111112e-06
2657 534 1.6276041666666666e-05
2659 534 2.7126736111111112e-06
2660 534 1.6276041666666666e-05
2661 534 1.6276041666666666e-05
2662 534 1.6276041666666666e-05
2664 534 2.7126736111111112e-06
2755 534 2.7126736111111112e-06
535 535 0.00019531249999999998
536 535 1.0850694444444445e-05
566 535 1.0850694444444445e-05
567 535 1.0850694444444445e-05
2565 535 2.7126736111111112e-06
2566 535 2.7126736111111112e-06
2567 535 1.6276041666666666e-05
2569 535 1.6276041666666666e-05
2570 535 2.7126736111111112e-06
2660 535 1.6276041666666666e-05
2662 535 2.7126736111111112e-06
2663 535 1.6276041666666666e-05
2664 535 1.6276041666666666e-05
2665 535 1.6276041666666666e-05
2667 535 2.7126736111111112e-06
2758 535 2.7126736111111112e-06
536 536 0.00019531249999999998
537 536 1.0850694444444445e-05
567 536 1.0850694444444445e-05
568 536 1.0850694444444445e-05
2568 536 2.7126736111111112e-06
2569 536 2.7126736111111112e-06
2570 536 1.6276041666666666e-05
2572 536 1.6276041666666666e-05
2573 536 2.7126736111111112e-06
2663 536 1.6276041666666666e-05
2665 536 2.7126736111111112e-06
2666 536 1.6276041666666666e-05
2667 536 1.6276041666666666e-05
2668 536 1.6276041666666666e-05
2670 536 2.7126736111111112e-06
2761 536 2.7126736111111112e-06
537 537 0.00019531249999999998
538 537 1.0850694444444445e-05
568 537 1.0850694444444445e-05
569 537 1.0850694444444445e-05
2571 537 2.7126736111111112e-06
2572 537 2.7126736111111112e-06
2573 537 1.6276041666666666e-05
2575 537 1.6276041666666666e-05
2576 537 2.7126736111111112e-06
2666 537 1.6276041666666666e-05
2668 537 2.7126736111111112e-06
2669 537 1.6276041666666666e-05
2670 537 1.6276041666666666e-05
2671 537 1.6276041666666666e-05
2673 537 2.7126736111111112e-06
2764 537 2.7126736111111112e-06
538 538 0.00019531249999999998
539 538 1.0850694444444445e-05
569 538 1.0850694444444445e-05
570 538 1.0850694444444445e-05
2574 538 2.7126736111111112e-06
2575 538 2.7126736111111112e-06
2576 538 1.6276041666666666e-05
2578 538 1.6276041666666666e-05
2579 538 2.7126736111111112e-06
2669 538 1.6276041666666666e-05
2671 538 2.7126736111111112e-06
2672 538 1.6276041666666666e-05
2673 538 1.6276041666666666e-05
2674 538 1.6276041666666666e-05
2676 538 2.7126736111111112e-06
2767 538 2.7126736111111112e-06
539 539 0.00019531249999999998
540 539 1.0850694444444445e-05
570 539 1.0850694444444445e-05
571 539 1.0850694444444445e-05
2577 539 2.7126736111111112e-06
2578 539 2.7126736111111112e-06
2579 539 1.6276041666666666e-05
2581 539 1.6276041666666666e-05
2582 539 2.7126736111111112e-06
2672 539 1.6276041666666666e-05
2674 539 2.7126736111111112e-06
2675 539 1.6276041666666666e-05
2676 539 1.6276041666666666e-05
2677 539 1.6276041666666666e-05
2679 539 2.7126736111111112e-06
2770 539 2.7126736111111112e-06
540 540 0.00019531249999999998
541 540 1.0850694444444445e-05
571 540 1.0850694444444445e-05
572 540 1.0850694444444445e-05
2580 540 2.7126736111111112e-06
2581 540 2.7126736111111112e-06
2582 540 1.6276041666666666e-05
2584 540 1.6276041666666666e-05
2585 540 2.7126736111111112e-06
2675 540 1.6276041666666666e-05
2677 540 2.7126736111111112e-06
2678 540 1.6276041666666666e-05
2679 540 1.6276041666666666e-05
2680 540 1.6276041666666666e-05
2682 540 2.7126736111111112e-06
2773 540 2.7126736111111112e-06
541 541 0.00019531249999999998
542 541 1.0850694444444445e-05
572 541 1.0850694444444445e-05
573 541 1.0850694444444445e-05
2583 541 2.7126736111111112e-06
2584 541 2.7126736111111112e-06
2585 541 1.6276041666666666e-05
2587 541 1.6276041666666666e-05
2588 541 2.7126736111111112e-06
2678 541 1.6276041666666666e-05
2680 541 2.7126736111111112e-06
2681 541 1.6276041666666666e-05
2682 541 1.6276041666666666e-05
2683 541 1.6276041666666666e-05
2685 541 2.7126736111111112e-06
2776 541 2.7126736111111112e-06
542 542 0.00019531249999999998
543 542 1.0850694444444445e-05
573 542 1.0850694444444445e-05
574 542 1.0850694444444445e-05
2586 542 2.7126736111111112e-06
2587 542 2.7126736111111112e-06
2588 542 1.6276041666666666e-05
2590 542 1.6276041666666666e-05
2591 542 2.7126736111111112e-06
2681 542 1.6276041666666666e-05
2683 542 2.7126736111111112e-06
2684 542 1.6276041666666666e-05
2685 542 1.6276041666666666e-05
2686 542 1.6276041666666666e-05
2688 542 2.7126736111111112e-06
2779 542 2.7126736111111112e-06
543 543 0.00019531249999999998
544 543 1.0850694444444445e-05
574 543 1.0850694444444445e-05
575 543 1.0850694444444445e-05
2589 543 2.7126736111111112e-06
2590 543 2.7126736111111112e-06
2591 543 1.6276041666666666e-05
2593 543 1.6276041666666666e-05
2594 543 2.7126736111111112e-06
2684 543 1.6276041666666666e-05
2686 543 2.7126736111111112e-06
2687 543 1.6276041666666666e-05
2688 543 1.6276041666666666e-05
2689 543 1.6276041666666666e-05
2691 543 2.7126736111111112e-06
2782 543 2.7126736111111112e-06
544 544 0.00019531249999999998
545 544 1.0850694444444445e-05
575 544 1.0850694444444445e-05
576 544 1.0850694444444445e-05
2592 544 2.7126736111111112e-06
2593 544 2.7126736111111112e-06
2594 544 1.6276041666666666e-05
2596 544 1.6276041666666666e-05
2597 544 2.7126736111111112e-06
2687 544 1.6276041666666666e-05
2689 544 2.7126736111111112e-06
2690 544 1.6276041666666666e-05
2691 544 1.6276041666666666e-05
2692 544 1.6276041666666666e-05
2694 544 2.7126736111111112e-06
2785 544 2.7126736111111112e-06
545 545 0.00019531249999999998
546 545 1.0850694444444445e-05
576 545 1.0850694444444445e-05
577 545 1.0850694444444445e-05
2595 545 2.7126736111111112e-06
2596 545 2.7126736111111112e-06
2597 545 1.6276041666666666e-05
2599 545 1.6276041666666666e-05
2600 545 2.7126736111111112e-06
2690 545 1.6276041666666666e-05
2692 545 2.7126736111111112e-06
2693 545 1.6276041666666666e-05
2694 545 1.6276041666666666e-05
2695 545 1.6276041666666666e-05
2697 545 2.7126736111111112e-06
2788 545 2.7126736111111112e-06
546 546 0.00019531249999999998
547 546 1.0850694444444445e-05
577 546 1.0850694444444445e-05
578 546 1.0850694444444445e-05
2598 546 2.7126736111111112e-06
2599 546 2.7126736111111112e-06
2600 546 1.6276041666666666e-05
2602 546 1.6276041666666666e-05
2603 546 2.7126736111111112e-06
2693 546 1.6276041666666666e-05
2695 546 2.7126736111111112e-06
2696 546 1.6276041666666666e-05
2697 546 1.6276041666666666e-05
2698 546 1.6276041666666666e-05
2700 546 2.7126736111111112e-06
2791 546 2.7126736111111112e-06
547 547 0.00019531249999999998
548 547 1.0850694444444445e-05
578 547 1.0850694444444445e-05
579 547 1.0850694444444445e-05
2601 547 2.7126736111111112e-06
2602 547 2.7126736111111112e-06
2603 547 1.6276041666666666e-05
2605 547 1.6276041666666666e-05
2606 547 2.7126736111111112e-06
2696 547 1.6276041666666666e-05
2698 547 2.7126736111111112e-06
2699 547 1.6276041666666666e-05
2700 547 1.6276041666666666e-05
2701 547 1.6276041666666666e-05
2703 547 2.7126736111111112e-06
2794 547 2.7126736111111112e-06
548 548 0.00019531249999999998
549 548 1.0850694444444445e-05
579 548 1.0850694444444445e-05
580 548 1.0850694444444445e-05
2604 548 2.7126736111111112e-06
2605 548 2.7126736111111112e-06
2606 548 1.6276041666666666e-05
2608 548 1.6276041666666666e-05
2609 548 2.7126736111111112e-06
2699 548 1.6276041666666666e-05
2701 548 2.7126736111111112e-06
2702 548 1.6276041666666666e-05
2703 548 1.6276041666666666e-05
2704 548 1.6276041666666666e-05
2706 548 2.7126736111111112e-06
2797 548 2.7126736111111112e-06
549 549 0.00019531249999999998
550 549 1.0850694444444445e-05
580 549 1.0850694444444445e-05
581 549 1.0850694444444445e-05
2607 549 2.7126736111111112e-06
2608 549 2.7126736111111112e-06
2609 549 1.6276041666666666e-05
2611 549 1.6276041666666666e-05
2612 549 2.7126736111111112e-06
2702 549 1.6276041666666666e-05
2704 549 2.7126736111111112e-06
2705 549 1.6276041666666666e-05
2706 549 1.6276041666666666e-05
2707 549 1.6276041666666666e-05
2709 549 2.7126736111111112e-06
2800 549 2.7126736111111112e-06
550 550 0.00019531249999999998
551 550 1.0850694444444445e-05
581 550 1.0850694444444445e-05
582 550 1.0850694444444445e-05
2610 550 2.7126736111111112e-06
2611 550 2.7126736111111112e-06
2612 550 1.6276041666666666e-05
2614 550 1.6276041666666666e-05
2615 550 2.7126736111111112e-06
2705 550 1.6276041666666666e-05
2707 550 2.7126736111111112e-06
2708 550 1.6276041666666666e-05
2709 550 1.6276041666666666e-05
2710 550 1.6276041666666666e-05
2712 550 2.7126736111111112e-06
2803 550 2.7126736111111112e-06
551 551 0.00019531249999999998
552 551 1.0850694444444445e-05
582 551 1.0850694444444445e-05
583 551 1.0850694444444445e-05
2613 551 2.7126736111111112e-06
2614 551 2.7126736111111112e-06
2615 551 1.6276041666666666e-05
2617 551 1.6276041666666666e-05
2618 551 2.7126736111111112e-06
2708 551 1.6276041666666666e-05
2710 551 2.7126736111111112e-06
2711 551 1.6276041666666666e-05
2712 551 1.6276041666666666e-05
2713 551 1.6276041666666666e-05
2715 551 2.7126736111111112e-06
2806 551 2.7126736111111112e-06
552 552 0.00019531249999999998
553 552 1.0850694444444445e-05
583 552 1.0850694444444445e-05
584 552 1.0850694444444445e-05
2616 552 2.7126736111111112e-06
2617 552 2.7126736111111112e-06
2618 552 1.6276041666666666e-05
2620 552 1.6276041666666666e-05
2621 552 2.7126736111111112e-06
2711 552 1.6276041666666666e-05
2713 552 2.7126736111111112e-06
2714 552 1.6276041666666666e-05
2715 552 1.6276041666666666e-05
2716 552 1.6276041666666666e-05
2718 552 2.7126736111111112e-06
2809 552 2.7126736111111112e-06
553 553 0.00019531249999999998
554 553 1.0850694444444445e-05
584 553 1.0850694444444445e-05
585 553 1.0850694444444445e-05
2619 553 2.7126736111111112e-06
2620 553 2.7126736111111112e-06
2621 553 1.6276041666666666e-05
2623 553 1.6276041666666666e-05
2624 553 2.7126736111111112e-06
2714 553 1.6276041666666666e-05
2716 553 2.7126736111111112e-06
2717 553 1.6276041666666666e-05
2718 553 1.6276041666666666e-05
2719 553 1.6276041666666666e-05
2721 553 2.7126736111111112e-06
2812 553 2.7126736111111112e-06
554 554 0.00019531249999999998
555 554 1.0850694444444445e-05
585 554 1.0850694444444445e-05
586 554 1.0850694444444445e-05
2622 554 2.7126736111111112e-06
2623 554 2.7126736111111112e-06
2624 554 1.6276041666666666e-05
2626 554 1.6276041666666666e-05
2627 554 2.7126736111111112e-06
2717 554 1.6276041666666666e-05
2719 554 2.7126736111111112e-06
2720 554 1.6276041666666666e-05
2721 554 1.6276041666666666e-05
2722 554 1.6276041666666666e-05
2724 554 2.7126736111111112e-06
2815 554 2.7126736111111112e-06
555 555 0.00019531249999999998
556 555 1.0850694444444445e-05
586 555 1.0850694444444445e-05
587 555 1.0850694444444445e-05
2625 555 2.7126736111111112e-06
2626 555 2.7126736111111112e-06
2627 555 1.6276041666666666e-05
2629 555 1.6276041666666666e-05
2630 555 2.7126736111111112e-06
2720 555 1.6276041666666666e-05
2722 555 2.7126736111111112e-06
2723 555 1.6276041666666666e-05
2724 555 1.6276041666666666e-05
2725 555 1.6276041666666666e-05
2727 555 2.7126736111111112e-06
2818 555 2.7126736111111112e-06
556 556 0.00019531249999999998
557 556 1.0850694444444445e-05
587 556 1.0850694444444445e-05
588 556 1.0850694444444445e-05
2628 556 2.7126736111111112e-06
2629 556 2.7126736111111112e-06
2630 556 1.6276041666666666e-05
2632 556 1.6276041666666666e-05
2633 556 2.7126736111111112e-06
2723 556 1.6276041666666666e-05
2725 556 2.7126736111111112e-06
2726 556 1.6276041666666666e-05
2727 556 1.6276041666666666e-05
2728 556 1.6276041666666666e-05
2730 556 2.7126736111111112e-06
2821 556 2.7126736111111112e-06
557 557 0.00019531249999999998
558 557 1.0850694444444445e-05
588 557 1.0850694444444445e-05
589 557 1.0850694444444445e-05
2631 557 2.7126736111111112e-06
2632 557 2.7126736111111112e-06
2633 557 1.6276041666666666e-05
2635 557 1.6276041666666666e-05
2636 557 2.7126736111111112e-06
2726 557 1.6276041666666666e-05
2728 557 2.7126736111111112e-06
2729 557 1.6276041666666666e-05
2730 557 1.6276041666666666e-05
2731 557 1.6276041666666666e-05
2733 557 2.7126736111111112e-06
2824 557 2.7126736111111112e-06
558 558 0.00019531249999999998
589 558 1.0850694444444445e-05
2634 558 2.7126736111111112e-06
2635 558 2.7126736111111112e-06
2636 558 1.6276041666666666e-05
2638 558 1.6276041666666666e-05
2639 558 2.7126736111111112e-06
2729 558 1.6276041666666666e-05
2731 558 2.7126736111111112e-06
2732 558 1.6276041666666666e-05
2733 558 1.6276041666666666e-05
2734 558 1.6276041666666666e-05
2827 558 2.7126736111111112e-06
559 559 0.00019531249999999998
560 559 1.0850694444444445e-05
590 559 1.0850694444444445e-05
591 559 1.0850694444444445e-05
2640 559 2.7126736111111112e-06
2641 559 1.6276041666666666e-05
2643 559 1.6276041666666666e-05
2644 559 2.7126736111111112e-06
2735 559 1.6276041666666666e-05
2736 559 2.7126736111111112e-06
2737 559 1.6276041666666666e-05
2738 559 1.6276041666666666e-05
2739 559 1.6276041666666666e-05
2741 559 2.7126736111111112e-06
2832 559 2.7126736111111112e-06
560 560 0.00019531249999999998
561 560 1.0850694444444445e-05
591 560 1.0850694444444445e-05
592 560 1.0850694444444445e-05
2642 560 2.7126736111111112e-06
2643 560 2.7126736111111112e-06
2644 560 1.6276041666666666e-05
2646 560 1.6276041666666666e-05
2647 560 2.7126736111111112e-06
2737 560 1.6276041666666666e-05
2739 560 2.7126736111111112e-06
2740 560 1.6276041666666666e-05
2741 560 1.6276041666666666e-05
2742 560 1.6276041666666666e-05
2744 560 2.7126736111111112e-06
2835 560 2.7126736111111112e-06
561 561 0.00019531249999999998
562 561 1.0850694444444445e-05
592 561 1.0850694444444445e-05
593 561 1.0850694444444445e-05
2645 561 2.7126736111111112e-06
2646 561 2.7126736111111112e-06
2647 561 1.6276041666666666e-05
2649 561 1.6276041666666666e-05
2650 561 2.7126736111111112e-06
2740 561 1.6276041666666666e-05
2742 561 2.7126736111111112e-06
2743 561 1.6276041666666666e-05
2744 561 1.6276041666666666e-05
2745 561 1.6276041666666666e-05
2747 561 2.7126736111111112e-06
2838 561 2.7126736111111112e-06
562 562 0.00019531249999999998
563 562 1.0850694444444445e-05
593 562 1.0850694444444445e-05
594 562 1.0850694444444445e-05
2648 562 2.7126736111111112e-06
2649 562 2.7126736111111112e-06
2650 562 1.6276041666666666e-05
2652 562 1.6276041666666666e-05
2653 562 2.7126736111111112e-06
2743 562 1.6276041666666666e-05
2745 562 2.7126736111111112e-06
2746 562 1.6276041666666666e-05
2747 562 1.6276041666666666e-05
2748 562 1.6276041666666666e-05
2750 562 2.7126736111111112e-06
2841 562 2.7126736111111112e-06
563 563 0.00019531249999999998
564 563 1.0850694444444445e-05
594 563 1.0850694444444445e-05
595 563 1.0850694444444445e-05
2651 563 2.7126736111111112e-06
2652 563 2.7126736111111112e-06
2653 563 1.6276041666666666e-05
2655 563 1.6276041666666666e-05
2656 563 2.7126736111111112e-06
2746 563 1.6276041666666666e-05
2748 563 2.7126736111111112e-06
2749 563 1.6276041666666666e-05
2750 563 1.6276041666666666e-05
2751 563 1.6276041666666666e-05
2753 563 2.7126736111111112e-06
2844 563 2.7126736111111112e-06
564 564 0.00019531249999999998
565 564 1.0850694444444445e-05
595 564 1.0850694444444445e-05
596 564 1.0850694444444445e-05
2654 564 2.7126736111111112e-06
2655 564 2.7126736111111112e-06
2656 564 1.6276041666666666e-05
2658 564 1.6276041666666666e-05
2659 564 2.7126736111111112e-06
2749 564 1.6276041666666666e-05
2751 564 2.7126736111111112e-06
2752 564 1.6276041666666666e-05
2753 564 1.6276041666666666e-05
2754 564 1.6276041666666666e-05
2756 564 2.7126736111111112e-06
2847 564 2.7126736111111112e-06
565 565 0.00019531249999999998
566 565 1.0850694444444445e-05
596 565 1.0850694444444445e-05
597 565 1.0850694444444445e-05
2657 565 2.7126736111111112e-06
2658 565 2.7126736111111112e-06
2659 565 1.6276041666666666e-05
2661 565 1.6276041666666666e-05
2662 565 2.7126736111111112e-06
2752 565 1.6276041666666666e-05
2754 565 2.7126736111111112e-06
2755 565 1.6276041666666666e-05
2756 565 1.6276041666666666e-05
2757 565 1.6276041666666666e-05
2759 565 2.7126736111111112e-06
2850 565 2.7126736111111112e-06
566 566 0.00019531249999999998
567 566 1.0850694444444445e-05
597 566 1.0850694444444445e-05
598 566 1.0850694444444445e-05
2660 566 2.7126736111111112e-06
2661 566 2.7126736111111112e-06
2662 566 1.6276041666666666e-05
2664 566 1.6276041666666666e-05
2665 566 2.7126736111111112e-06
2755 566 1.6276041666666666e-05
2757 566 2.7126736111111112e-06
2758 566 1.6276041666666666e-05
2759 566 1.6276041666666666e-05
2760 566 1.6276041666666666e-05
2762 566 2.7126736111111112e-06
2853 566 2.7126736111111112e-06
567 567 0.00019531249999999998
568 567 1.0850694444444445e-05
598 567 1.0850694444444445e-05
599 567 1.0850694444444445e-05
2663 567 2.7126736111111112e-06
2664 567 2.7126736111111112e-06
2665 567 1.6276041666666666e-05
2667 567 1.6276041666666666e-05
2668 567 2.7126736111111112e-06
2758 567 1.6276041666666666e-05
2760 567 2.7126736111111112e-06
2761 567 1.6276041666666666e-05
2762 567 1.6276041666666666e-05
2763 567 1.6276041666666666e-05
2765 567 2.7126736111111112e-06
2856 567 2.7126736111111112e-06
568 568 0.00019531249999999998
569 568 1.0850694444444445e-05
599 568 1.0850694444444445e-05
600 568 1.0850694444444445e-05
2666 568 2.7126736111111112e-06
2667 568 2.7126736111111112e-06
2668 568 1.6276041666666666e-05
2670 568 1.6276041666666666e-05
2671 568 2.7126736111111112e-06
2761 568 1.6276041666666666e-05
2763 568 2.7126736111111112e-06
2764 568 1.6276041666666666e-05
2765 568 1.6276041666666666e-05
2766 568 1.6276041666666666e-05
2768 568 2.7126736111111112e-06
2859 568 2.7126736111111112e-06
569 569 0.00019531249999999998
570 569 1.0850694444444445e-05
600 569 1.0850694444444445e-05
601 569 1.0850694444444445e-05
2669 569 2.7126736111111112e-06
2670 569 2.7126736111111112e-06
2671 569 1.6276041666666666e-05
2673 569 1.6276041666666666e-05
2674 569 2.7126736111111112e-06
2764 569 1.6276041666666666e-05
2766 569 2.7126736111111112e-06
2767 569 1.6276041666666666e-05
2768 569 1.6276041666666666e-05
2769 569 1.6276041666666666e-05
2771 569 2.7126736111111112e-06
2862 569 2.7126736111111112e-06
570 570 0.00019531249999999998
571 570 1.0850694444444445e-05
601 570 1.0850694444444445e-05
602 570 1.0850694444444445e-05
2672 570 2.7126736111111112e-06
2673 570 2.7126736111111112e-06
2674 570 1.6276041666666666e-05
2676 570 1.6276041666666666e-05
2677 570 2.7126736111111112e-06
2767 570 1.6276041666666666e-05
2769 570 2.7126736111111112e-06
2770 570 1.6276041666666666e-05
2771 570 1.6276041666666666e-05
2772 570 1.6276041666666666e-05
2774 570 2.7126736111111112e-06
2865 570 2.7126736111111112e-06
571 571 0.00019531249999999998
572 571 1.0850694444444445e-05
602 571 1.0850694444444445e-05
603 571 1.0850694444444445e-05
2675 571 2.7126736111111112e-06
2676 571 2.7126736111111112e-06
2677 571 1.6276041666666666e-05
2679 571 1.6276041666666666e-05
2680 571 2.7126736111111112e-06
2770 571 1.6276041666666666e-05
2772 571 2.7126736111111112e-06
2773 571 1.6276041666666666e-05
2774 571 1.6276041666666666e-05
2775 571 1.6276041666666666e-05
2777 571 2.7126736111111112e-06
2868 571 2.7126736111111112e-06
572 572 0.00019531249999999998
573 572 1.0850694444444445e-05
603 572 1.0850694444444445e-05
604 572 1.0850694444444445e-05
2678 572 2.7126736111111112e-06
2679 572 2.7126736111111112e-06
2680 572 1.6276041666666666e-05
2682 572 1.6276041666666666e-05
2683 572 2.7126736111111112e-06
2773 572 1.6276041666666666e-05
2775 572 2.7126736111111112e-06
2776 572 1.6276041666666666e-05
2777 572 1.6276041666666666e-05
2778 572 1.6276041666666666e-05
2780 572 2.7126736111111112e-06
2871 572 2.7126736111111112e-06
573 573 0.00019531249999999998
574 573 1.0850694444444445e-05
604 573 1.0850694444444445e-05
605 573 1.0850694444444445e-05
2681 573 2.7126736111111112e-06
2682 573 2.7126736111111112e-06
2683 573 1.6276041666666666e-05
2685 573 1.6276041666666666e-05
2686 573 2.7126736111111112e-06
2776 573 1.6276041666666666e-05
2778 573 2.7126736111111112e-06
2779 573 1.6276041666666666e-05
2780 573 1.6276041666666666e-05
2781 573 1.6276041666666666e-05
2783 573 2.7126736111111112e-06
2874 573 2.7126736111111112e-06
574 574 0.00019531249999999998
575 574 1.0850694444444445e-05
605 574 1.0850694444444445e-05
606 574 1.0850694444444445e-05
2684 574 2.7126736111111112e-06
2685 574 2.7126736111111112e-06
2686 574 1.6276041666666666e-05
2688 574 1.6276041666666666e-05
2689 574 2.7126736111111112e-06
2779 574 1.6276041666666666e-05
2781 574 2.7126736111111112e-06
2782 574 1.6276041666666666e-05
2783 574 1.6276041666666666e-05
2784 574 1.6276041666666666e-05
2786 574 2.7126736111111112e-06
2877 574 2.7126736111111112e-06
575 575 0.00019531249999999998
576 575 1.0850694444444445e-05
606 575 1.0850694444444445e-05
607 575 1.0850694444444445e-05
2687 575 2.7126736111111112e-06
2688 575 2.7126736111111112e-06
2689 575 1.6276041666666666e-05
2691 575 1.6276041666666666e-05
2692 575 2.7126736111111112e-06
2782 575 1.6276041666666666e-05
2784 575 2.7126736111111112e-06
2785 575 1.6276041666666666e-05
2786 575 1.6276041666666666e-05
2787 575 1.6276041666666666e-05
2789 575 2.7126736111111112e-06
2880 575 2.7126736111111112e-06
576 576 0.00019531249999999998
577 576 1.0850694444444445e-05
607 576 1.0850694444444445e-05
608 576 1.0850694444444445e-05
2690 576 2.7126736111111112e-06
2691 576 2.7126736111111112e-06
2692 576 1.6276041666666666e-05
2694 576 1.6276041666666666e-05
2695 576 2.7126736111111112e-06
2785 576 1.6276041666666666e-05
2787 576 2.7126736111111112e-06
2788 576 1.6276041666666666e-05
2789 576 1.6276041666666666e-05
2790 576 1.6276041666666666e-05
2792 576 2.7126736111111112e-06
2883 576 2.7126736111111112e-06
577 577 0.00019531249999999998
578 577 1.0850694444444445e-05
608 577 1.0850694444444445e-05
609 577 1.0850694444444445e-05
2693 577 2.7126736111111112e-06
2694 577 2.7126736111111112e-06
2695 577 1.6276041666666666e-05
2697 577 1.6276041666666666e-05
2698 577 2.7126736111111112e-06
2788 577 1.6276041666666666e-05
2790 577 2.7126736111111112e-06
2791 577 1.6276041666666666e-05
2792 577 1.6276041666666666e-05
2793 577 1.6276041666666666e-05
2795 577 2.7126736111111112e-06
2886 577 2.7126736111111112e-06
578 578 0.00019531249999999998
579 578 1.0850694444444445e-05
609 578 1.0850694444444445e-05
610 578 1.0850694444444445e-05
2696 578 2.7126736111111112e-06
2697 578 2.7126736111111112e-06
2698 578 1.6276041666666666e-05
2700 578 1.6276041666666666e-05
2701 578 2.7126736111111112e-06
2791 578 1.6276041666666666e-05
2793 578 2.7126736111111112e-06
2794 578 1.6276041666666666e-05
2795 578 1.6276041666666666e-05
2796 578 1.6276041666666666e-05
2798 578 2.7126736111111112e-06
2889 578 2.7126736111111112e-06
579 579 0.00019531249999999998
580 579 1.0850694444444445e-05
610 579 1.0850694444444445e-05
611 579 1.0850694444444445e-05
2699 579 2.7126736111111112e-06
2700 579 2.7126736111111112e-06
2701 579 1.6276041666666666e-05
2703 579 1.6276041666666666e-05
2704 579 2.7126736111111112e-06
2794 579 1.6276041666666666e-05
2796 579 2.7126736111111112e-06
2797 579 1.6276041666666666e-05
2798 579 1.6276041666666666e-05
2799 579 1.6276041666666666e-05
2801 579 2.7126736111111112e-06
2892 579 2.7126736111111112e-06
580 580 0.00019531249999999998
581 580 1.0850694444444445e-05
611 580 1.0850694444444445e-05
612 580 1.0850694444444445e-05
2702 580 2.7126736111111112e-06
2703 580 2.7126736111111112e-06
2704 580 1.6276041666666666e-05
2706 580 1.6276041666666666e-05
2707 580 2.7126736111111112e-06
2797 580 1.6276041666666666e-05
2799 580 2.7126736111111112e-06
2800 580 1.6276041666666666e-05
2801 580 1.6276041666666666e-05
2802 580 1.6276041666666666e-05
2804 580 2.7126736111111112e-06
2895 580 2.7126736111111112e-06
581 581 0.00019531249999999998
582 581 1.0850694444444445e-05
612 581 1.0850694444444445e-05
613 581 1.0850694444444445e-05
2705 581 2.7126736111111112e-06
2706 581 2.7126736111111112e-06
2707 581 1.6276041666666666e-05
2709 581 1.6276041666666666e-05
2710 581 2.7126736111111112e-06
2800 581 1.6276041666666666e-05
2802 581 2.7126736111111112e-06
2803 581 1.6276041666666666e-05
2804 581 1.6276041666666666e-05
2805 581 1.6276041666666666e-05
2807 581 2.7126736111111112e-06
2898 581 2.7126736111111112e-06
582 582 0.00019531249999999998
583 582 1.0850694444444445e-05
613 582 1.0850694444444445e-05
614 582 1.0850694444444445e-05
2708 582 2.7126736111111112e-06
2709 582 2.7126736111111112e-06
2710 582 1.6276041666666666e-05
2712 582 1.6276041666666666e-05
2713 582 2.7126736111111112e-06
2803 582 1.6276041666666666e-05
2805 582 2.7126736111111112e-06
2806 582 1.6276041666666666e-05
2807 582 1.6276041666666666e-05
2808 582 1.6276041666666666e-05
2810 582 2.7126736111111112e-06
2901 582 2.7126736111111112e-06
583 583 0.00019531249999999998
584 583 1.0850694444444445e-05
614 583 1.0850694444444445e-05
615 583 1.0850694444444445e-05
2711 583 2.7126736111111112e-06
2712 583 2.7126736111111112e-06
2713 583 1.6276041666666666e-05
2715 583 1.6276041666666666e-05
2716 583 2.7126736111111112e-06
2806 583 1.6276041666666666e-05
2808 583 2.7126736111111112e-06
2809 583 1.6276041666666666e-05
2810 583 1.6276041666666666e-05
2811 583 1.6276041666666666e-05
2813 583 2.7126736111111112e-06
2904 583 2.7126736111111112e-06
584 584 0.00019531249999999998
585 584 1.0850694444444445e-05
615 584 1.0850694444444445e-05
616 584 1.0850694444444445e-05
2714 584 2.7126736111111112e-06
2715 584 2.7126736111111112e-06
2716 584 1.6276041666666666e-05
2718 584 1.6276041666666666e-05
2719 584 2.7126736111111112e-06
2809 584 1.6276041666666666e-05
2811 584 2.7126736111111112e-06
2812 584 1.6276041666666666e-05
2813 584 1.6276041666666666e-05
2814 584 1.6276041666666666e-05
2816 584 2.7126736111111112e-06
2907 584 2.7126736111111112e-06
585 585 0.00019531249999999998
586 585 1.0850694444444445e-05
616 585 1.0850694444444445e-05
617 585 1.0850694444444445e-05
2717 585 2.7126736111111112e-06
2718 585 2.7126736111111112e-06
2719 585 1.6276041666666666e-05
2721 585 1.6276041666666666e-05
2722 585 2.7126736111111112e-06
2812 585 1.6276041666666666e-05
2814 585 2.7126736111111112e-06
2815 585 1.6276041666666666e-05
2816 585 1.6276041666666666e-05
2817 585 1.6276041666666666e-05
2819 585 2.7126736111111112e-06
2910 585 2.7126736111111112e-06
586 586 0.00019531249999999998
587 586 1.0850694444444445e-05
617 586 1.0850694444444445e-05
618 586 1.0850694444444445e-05
2720 586 2.7126736111111112e-06
2721 586 2.7126736111111112e-06
2722 586 1.6276041666666666e-05
2724 586 1.6276041666666666e-05
2725 586 2.7126736111111112e-06
2815 586 1.6276041666666666e-05
2817 586 2.7126736111111112e-06
2818 586 1.6276041666666666e-05
2819 586 1.6276041666666666e-05
2820 586 1.6276041666666666e-05
2822 586 2.7126736111111112e-06
2913 586 2.7126736111111112e-06
587 587 0.00019531249999999998
588 587 1.0850694444444445e-05
618 587 1.0850694444444445e-05
619 587 1.0850694444444445e-05
2723 587 2.7126736111111112e-06
2724 587 2.7126736111111112e-06
2725 587 1.6276041666666666e-05
2727 587 1.6276041666666666e-05
2728 587 2.7126736111111112e-06
2818 587 1.6276041666666666e-05
2820 587 2.7126736111111112e-06
2821 587 1.6276041666666666e-05
2822 587 1.6276041666666666e-05
2823 587 1.6276041666666666e-05
2825 587 2.7126736111111112e-06
2916 587 2.7126736111111112e-06
588 588 0.00019531249999999998
589 588 1.0850694444444445e-05
619 588 1.0850694444444445e-05
620 588 1.0850694444444445e-05
2726 588 2.7126736111111112e-06
2727 588 2.7126736111111112e-06
2728 588 1.6276041666666666e-05
2730 588 1.6276041666666666e-05
2731 588 2.7126736111111112e-06
2821 588 1.6276041666666666e-05
2823 588 2.7126736111111112e-06
2824 588 1.6276041666666666e-05
2825 588 1.6276041666666666e-05
2826 588 1.6276041666666666e-05
2828 588 2.7126736111111112e-06
2919 588 2.7126736111111112e-06
589 589 0.00019531249999999998
620 589 1.0850694444444445e-05
2729 589 2.7126736111111112e-06
2730 589 2.7126736111111112e-06
2731 589 1.6276041666666666e-05
2733 589 1.6276041666666666e-05
2734 589 2.7126736111111112e-06
2824 589 1.6276041666666666e-05
2826 589 2.7126736111111112e-06
2827 589 1.6276041666666666e-05
2828 589 1.6276041666666666e-05
2829 589 1.6276041666666666e-05
2922 589 2.7126736111111112e-06
590 590 0.00019531249999999998
591 590 1.0850694444444445e-05
621 590 1.0850694444444445e-05
622 590 1.0850694444444445e-05
2735 590 2.7126736111111112e-06
2736 590 1.6276041666666666e-05
2738 590 1.6276041666666666e-05
2739 590 2.7126736111111112e-06
2830 590 1.6276041666666666e-05
2831 590 2.7126736111111112e-06
2832 590 1.6276041666666666e-05
2833 590 1.6276041666666666e-05
2834 590 1.6276041666666666e-05
2836 590 2.7126736111111112e-06
2927 590 2.7126736111111112e-06
591 591 0.00019531249999999998
592 591 1.0850694444444445e-05
622 591 1.0850694444444445e-05
623 591 1.0850694444444445e-05
2737 591 2.7126736111111112e-06
2738 591 2.7126736111111112e-06
2739 591 1.6276041666666666e-05
2741 591 1.6276041666666666e-05
2742 591 2.7126736111111112e-06
2832 591 1.6276041666666666e-05
2834 591 2.7126736111111112e-06
2835 591 1.6276041666666666e-05
2836 591 1.6276041666666666e-05
2837 591 1.6276041666666666e-05
2839 591 2.7126736111111112e-06
2930 591 2.7126736111111112e-06
592 592 0.00019531249999999998
593 592 1.0850694444444445e-05
623 592 1.0850694444444445e-05
624 592 1.0850694444444445e-05
2740 592 2.7126736111111112e-06
2741 592 2.7126736111111112e-06
2742 592 1.6276041666666666e-05
2744 592 1.6276041666666666e-05
2745 592 2.7126736111111112e-06
2835 592 1.6276041666666666e-05
2837 592 2.7126736111111112e-06
2838 592 1.6276041666666666e-05
2839 592 1.6276041666666666e-05
2840 592 1.6276041666666666e-05
2842 592 2.7126736111111112e-06
2933 592 2.7126736111111112e-06
593 593 0.00019531249999999998
594 593 1.0850694444444445e-05
624 593 1.0850694444444445e-05
625 593 1.0850694444444445e-05
2743 593 2.7126736111111112e-06
2744 593 2.7126736111111112e-06
2745 593 1.6276041666666666e-05
2747 593 1.6276041666666666e-05
2748 593 2.7126736111111112e-06
2838 593 1.6276041666666666e-05
2840 593 2.7126736111111112e-06
2841 593 1.6276041666666666e-05
2842 593 1.6276041666666666e-05
2843 593 1.6276041666666666e-05
2845 593 2.7126736111111112e-06
2936 593 2.7126736111111112e-06
594 594 0.00019531249999999998
595 594 1.0850694444444445e-05
625 594 1.0850694444444445e-05
626 594 1.0850694444444445e-05
2746 594 2.7126736111111112e-06
2747 594 2.7126736111111112e-06
2748 594 1.6276041666666666e-05
2750 594 1.6276041666666666e-05
2751 594 2.7126736111111112e-06
2841 594 1.6276041666666666e-05
2843 594 2.7126736111111112e-06
2844 594 1.6276041666666666e-05
2845 594 1.6276041666666666e-05
2846 594 1.6276041666666666e-05
2848 594 2.7126736111111112e-06
2939 594 2.7126736111111112e-06
595 595 0.00019531249999999998
596 595 1.0850694444444445e-05
626 595 1.0850694444444445e-05
627 595 1.0850694444444445e-05
2749 595 2.7126736111111112e-06
2750 595 2.7126736111111112e-06
2751 595 1.6276041666666666e-05
2753 595 1.6276041666666666e-05
2754 595 2.7126736111111112e-06
2844 595 1.6276041666666666e-05
2846 595 2.7126736111111112e-06
2847 595 1.6276041666666666e-05
2848 595 1.6276041666666666e-05
2849 595 1.6276041666666666e-05
2851 595 2.7126736111111112e-06
2942 595 2.7126736111111112e-06
596 596 0.00019531249999999998
597 596 1.0850694444444445e-05
627 596 1.0850694444444445e-05
628 596 1.0850694444444445e-05
2752 596 2.7126736111111112e-06
2753 596 2.7126736111111112e-06
2754 596 1.6276041666666666e-05
2756 596 1.6276041666666666e-05
2757 596 2.7126736111111112e-06
2847 596 1.6276041666666666e-05
2849 596 2.7126736111111112e-06
2850 596 1.6276041666666666e-05
2851 596 1.6276041666666666e-05
2852 596 1.6276041666666666e-05
2854 596 2.7126736111111112e-06
2945 596 2.7126736111111112e-06
597 597 0.00019531249999999998
598 597 1.0850694444444445e-05
628 597 1.0850694444444445e-05
629 597 1.0850694444444445e-05
2755 597 2.7126736111111112e-06
2756 597 2.7126736111111112e-06
2757 597 1.6276041666666666e-05
2759 597 1.6276041666666666e-05
2760 597 2.7126736111111112e-06
2850 597 1.6276041666666666e-05
2852 597 2.7126736111111112e-06
2853 597 1.6276041666666666e-05
2854 597 1.6276041666666666e-05
2855 597 1.6276041666666666e-05
2857 597 2.7126736111111112e-06
2948 597 2.7126736111111112e-06
598 598 0.00019531249999999998
599 598 1.0850694444444445e-05
629 598 1.0850694444444445e-05
630 598 1.0850694444444445e-05
2758 598 2.7126736111111112e-06
2759 598 2.7126736111111112e-06
2760 598 1.6276041666666666e-05
2762 598 1.6276041666666666e-05
2763 598 2.7126736111111112e-06
2853 598 1.6276041666666666e-05
2855 598 2.7126736111111112e-06
2856 598 1.6276041666666666e-05
2857 598 1.6276041666666666e-05
2858 598 1.6276041666666666e-05
2860 598 2.7126736111111112e-06
2951 598 2.7126736111111112e-06
599 599 0.00019531249999999998
600 599 1.0850694444444445e-05
630 599 1.0850694444444445e-05
631 599 1.0850694444444445e-05
2761 599 2.7126736111111112e-06
2762 599 2.7126736111111112e-06
2763 599 1.6276041666666666e-05
2765 599 1.6276041666666666e-05
2766 599 2.7126736111111112e-06
2856 599 1.6276041666666666e-05
2858 599 2.7126736111111112e-06
2859 599 1.6276041666666666e-05
2860 599 1.6276041666666666e-05
2861 599 1.6276041666666666e-05
2863 599 2.7126736111111112e-06
2954 599 2.7126736111111112e-06
600 600 0.00019531249999999998
601 600 1.0850694444444445e-05
631 600 1.0850694444444445e-05
632 600 1.0850694444444445e-05
2764 600 2.7126736111111112e-06
2765 600 2.7126736111111112e-06
2766 600 1.6276041666666666e-05
2768 600 1.6276041666666666e-05
2769 600 2.7126736111111112e-06
2859 600 1.6276041666666666e-05
2861 600 2.7126736111111112e-06
2862 600 1.6276041666666666e-05
2863 600 1.6276041666666666e-05
2864 600 1.6276041666666666e-05
2866 600 2.7126736111111112e-06
2957 600 2.7126736111111112e-06
601 601 0.00019531249999999998
602 601 1.0850694444444445e-05
632 601 1.0850694444444445e-05
633 601 1.0850694444444445e-05
2767 601 2.7126736111111112e-06
2768 601 2.7126736111111112e-06
2769 601 1.6276041666666666e-05
2771 601 1.6276041666666666e-05
2772 601 2.7126736111111112e-06
2862 601 1.6276041666666666e-05
2864 601 2.7126736111111112e-06
2865 601 1.6276041666666666e-05
2866 601 1.6276041666666666e-05
2867 601 1.6276041666666666e-05
2869 601 2.7126736111111112e-06
2960 601 2.7126736111111112e-06
602 602 0.00019531249999999998
603 602 1.0850694444444445e-05
633 602 1.0850694444444445e-05
634 602 1.0850694444444445e-05
2770 602 2.7126736111111112e-06
2771 602 2.7126736111111112e-06
2772 602 1.6276041666666666e-05
2774 602 1.6276041666666666e-05
2775 602 2.7126736111111112e-06
2865 602 1.6276041666666666e-05
2867 602 2.7126736111111112e-06
2868 602 1.6276041666666666e-05
2869 602 1.6276041666666666e-05
2870 602 1.6276041666666666e-05
2872 602 2.7126736111111112e-06
2963 602 2.7126736111111112e-06
603 603 0.00019531249999999998
604 603 1.0850694444444445e-05
634 603 1.0850694444444445e-05
635 603 1.0850694444444445e-05
2773 603 2.7126736111111112e-06
2774 603 2.7126736111111112e-06
2775 603 1.6276041666666666e-05
2777 603 1.6276041666666666e-05
2778 603 2.7126736111111112e-06
2868 603 1.6276041666666666e-05
2870 603 2.7126736111111112e-06
2871 603 1.6276041666666666e-05
2872 603 1.6276041666666666e-05
2873 603 1.6276041666666666e-05
2875 603 2.7126736111111112e-06
2966 603 2.7126736111111112e-06
604 604 0.00019531249999999998
605 604 1.0850694444444445e-05
635 604 1.0850694444444445e-05
636 604 1.0850694444444445e-05
2776 604 2.7126736111111112e-06
2777 604 2.7126736111111112e-06
2778 604 1.6276041666666666e-05
2780 604 1.6276041666666666e-05
2781 604 2.7126736111111112e-06
2871 604 1.6276041666666666e-05
2873 604 2.7126736111111112e-06
2874 604 1.6276041666666666e-05
2875 604 1.6276041666666666e-05
2876 604 1.6276041666666666e-05
2878 604 2.7126736111111112e-06
2969 604 2.7126736111111112e-06
605 605 0.00019531249999999998
606 605 1.0850694444444445e-05
636 605 1.0850694444444445e-05
637 605 1.0850694444444445e-05
2779 605 2.7126736111111112e-06
2780 605 2.7126736111111112e-06
2781 605 1.6276041666666666e-05
2783 605 1.6276041666666666e-05
2784 605 2.7126736111111112e-06
2874 605 1.6276041666666666e-05
2876 605 2.7126736111111112e-06
2877 605 1.6276041666666666e-05
2878 605 1.6276041666666666e-05
2879 605 1.6276041666666666e-05
2881 605 2.7126736111111112e-06
2972 605 2.7126736111111112e-06
606 606 0.00019531249999999998
607 606 1.0850694444444445e-05
637 606 1.0850694444444445e-05
638 606 1.0850694444444445e-05
2782 606 2.7126736111111112e-06
2783 606 2.7126736111111112e-06
2784 606 1.6276041666666666e-05
2786 606 1.6276041666666666e-05
2787 606 2.7126736111111112e-06
2877 606 1.6276041666666666e-05
2879 606 2.7126736111111112e-06
2880 606 1.6276041666666666e-05
2881 606 1.6276041666666666e-05
2882 606 1.6276041666666666e-05
2884 606 2.7126736111111112e-06
2975 606 2.7126736111111112e-06
607 607 0.00019531249999999998
608 607 1.0850694444444445e-05
638 607 1.0850694444444445e-05
639 607 1.0850694444444445e-05
2785 607 2.7126736111111112e-06
2786 607 2.7126736111111112e-06
2787 607 1.6276041666666666e-05
2789 607 1.6276041666666666e-05
2790 607 2.7126736111111112e-06
2880 607 1.6276041666666666e-05
2882 607 2.7126736111111112e-06
2883 607 1.6276041666666666e-05
2884 607 1.6276041666666666e-05
2885 607 1.6276041666666666e-05
2887 607 2.7126736111111112e-06
2978 607 2.7126736111111112e-06
608 608 0.00019531249999999998
609 608 1.0850694444444445e-05
639 608 1.0850694444444445e-05
640 608 1.0850694444444445e-05
2788 608 2.7126736111111112e-06
2789 608 2.7126736111111112e-06
2790 608 1.6276041666666666e-05
2792 608 1.6276041666666666e-05
2793 608 2.7126736111111112e-06
2883 608 1.6276041666666666e-05
2885 608 2.7126736111111112e-06
2886 608 1.6276041666666666e-05
2887 608 1.6276041666666666e-05
2888 608 1.6276041666666666e-05
2890 608 2.7126736111111112e-06
2981 608 2.7126736111111112e-06
609 609 0.00019531249999999998
610 609 1.0850694444444445e-05
640 609 1.0850694444444445e-05
641 609 1.0850694444444445e-05
2791 609 2.7126736111111112e-06
2792 609 2.7126736111111112e-06
2793 609 1.6276041666666666e-05
2795 609 1.6276041666666666e-05
2796 609 2.7126736111111112e-06
2886 609 1.6276041666666666e-05
2888 609 2.7126736111111112e-06
2889 609 1.6276041666666666e-05
2890 609 1.6276041666666666e-05
2891 609 1.6276041666666666e-05
2893 609 2.7126736111111112e-06
2984 609 2.7126736111111112e-06
610 610 0.00019531249999999998
611 610 1.0850694444444445e-05
641 610 1.0850694444444445e-05
642 610 1.0850694444444445e-05
2794 610 2.7126736111111112e-06
2795 610 2.7126736111111112e-06
2796 610 1.6276041666666666e-05
2798 610 1.6276041666666666e-05
2799 610 2.7126736111111112e-06
2889 610 1.6276041666666666e-05
2891 610 2.7126736111111112e-06
2892 610 1.6276041666666666e-05
2893 610 1.6276041666666666e-05
2894 610 1.6276041666666666e-05
2896 610 2.7126736111111112e-06
2987 610 2.7126736111111112e-06
611 611 0.00019531249999999998
612 611 1.0850694444444445e-05
642 611 1.0850694444444445e-05
643 611 1.0850694444444445e-05
2797 611 2.7126736111111112e-06
2798 611 2.7126736111111112e-06
2799 611 1.6276041666666666e-05
2801 611 1.6276041666666666e-05
2802 611 2.7126736111111112e-06
2892 611 1.6276041666666666e-05
2894 611 2.7126736111111112e-06
2895 611 1.6276041666666666e-05
2896 611 1.6276041666666666e-05
2897 611 1.6276041666666666e-05
2899 611 2.7126736111111112e-06
2990 611 2.7126736111111112e-06
612 612 0.00019531249999999998
613 612 1.0850694444444445e-05
643 612 1.0850694444444445e-05
644 612 1.0850694444444445e-05
2800 612 2.7126736111111112e-06
2801 612 2.7126736111111112e-06
2802 612 1.6276041666666666e-05
2804 612 1.6276041666666666e-05
2805 612 2.7126736111111112e-06
2895 612 1.6276041666666666e-05
2897 612 2.7126736111111112e-06
2898 612 1.6276041666666666e-05
2899 612 1.6276041666666666e-05
2900 612 1.6276041666666666e-05
2902 612 2.7126736111111112e-06
2993 612 2.7126736111111112e-06
613 613 0.00019531249999999998
614 613 1.0850694444444445e-05
644 613 1.0850694444444445e-05
645 613 1.0850694444444445e-05
2803 613 2.7126736111111112e-06
2804 613 2.7126736111111112e-06
2805 613 1.6276041666666666e-05
2807 613 1.6276041666666666e-05
2808 613 2.7126736111111112e-06
2898 613 1.6276041666666666e-05
2900 613 2.7126736111111112e-06
2901 613 1.6276041666666666e-05
2902 613 1.6276041666666666e-05
2903 613 1.6276041666666666e-05
2905 613 2.7126736111111112e-06
2996 613 2.7126736111111112e-06
614 614 0.00019531249999999998
615 614 1.0850694444444445e-05
645 614 1.0850694444444445e-05
646 614 1.0850694444444445e-05
2806 614 2.7126736111111112e-06
2807 614 2.7126736111111112e-06
2808 614 1.6276041666666666e-05
2810 614 1.6276041666666666e-05
2811 614 2.7126736111111112e-06
2901 614 1.6276041666666666e-05
2903 614 2.7126736111111112e-06
2904 614 1.6276041666666666e-05
2905 614 1.6276041666666666e-05
2906 614 1.6276041666666666e-05
2908 614 2.7126736111111112e-06
2999 614 2.7126736111111112e-06
615 615 0.00019531249999999998
616 615 1.0850694444444445e-05
646 615 1.0850694444444445e-05
647 615 1.0850694444444445e-05
2809 615 2.7126736111111112e-06
2810 615 2.7126736111111112e-06
2811 615 1.6276041666666666e-05
2813 615 1.6276041666666666e-05
2814 615 2.7126736111111112e-06
2904 615 1.6276041666666666e-05
2906 615 2.7126736111111112e-06
2907 615 1.6276041666666666e-05
2908 615 1.6276041666666666e-05
2909 615 1.6276041666666666e-05
2911 615 2.7126736111111112e-06
3002 615 2.7126736111111112e-06
616 616 0.00019531249999999998
617 616 1.0850694444444445e-05
647 616 1.0850694444444445e-05
648 616 1.0850694444444445e-05
2812 616 2.7126736111111112e-06
2813 616 2.7126736111111112e-06
2814 616 1.6276041666666666e-05
2816 616 1.6276041666666666e-05
2817 616 2.7126736111111112e-06
2907 616 1.6276041666666666e-05
2909 616 2.7126736111111112e-06
2910 616 1.6276041666666666e-05
2911 616 1.6276041666666666e-05
2912 616 1.6276041666666666e-05
2914 616 2.7126736111111112e-06
3005 616 2.7126736111111112e-06
617 617 0.00019531249999999998
618 617 1.0850694444444445e-05
648 617 1.0850694444444445e-05
649 617 1.0850694444444445e-05
2815 617 2.7126736111111112e-06
2816 617 2.7126736111111112e-06
2817 617 1.6276041666666666e-05
2819 617 1.6276041666666666e-05
2820 617 2.7126736111111112e-06
2910 617 1.6276041666666666e-05
2912 617 2.7126736111111112e-06
2913 617 1.6276041666666666e-05
2914 617 1.6276041666666666e-05
2915 617 1.6276041666666666e-05
2917 617 2.7126736111111112e-06
3008 617 2.7126736111111112e-06
618 618 0.00019531249999999998
619 618 1.0850694444444445e-05
649 618 1.0850694444444445e-05
650 618 1.0850694444444445e-05
2818 618 2.7126736111111112e-06
2819 618 2.7126736111111112e-06
2820 618 1.6276041666666666e-05
2822 618 1.6276041666666666e-05
2823 618 2.7126736111111112e-06
2913 618 1.6276041666666666e-05
2915 618 2.7126736111111112e-06
2916 618 1.6276041666666666e-05
2917 618 1.6276041666666666e-05
2918 618 1.6276041666666666e-05
2920 618 2.7126736111111112e-06
3011 618 2.7126736111111112e-06
619 619 0.00019531249999999998
620 619 1.0850694444444445e-05
650 619 1.0850694444444445e-05
651 619 1.0850694444444445e-05
2821 619 2.7126736111111112e-06
2822 619 2.7126736111111112e-06
2823 619 1.6276041666666666e-05
2825 619 1.6276041666666666e-05
2826 619 2.7126736111111112e-06
2916 619 1.6276041666666666e-05
2918 619 2.7126736111111112e-06
2919 619 1.6276041666666666e-05
2920 619 1.6276041666666666e-05
2921 619 1.6276041666666666e-05
2923 619 2.7126736111111112e-06
3014 619 2.7126736111111112e-06
620 620 0.00019531249999999998
651 620 1.0850694444444445e-05
2824 620 2.7126736111111112e-06
2825 620 2.7126736111111112e-06
2826 620 1.6276041666666666e-05
2828 620 1.6276041666666666e-05
2829 620 2.7126736111111112e-06
2919 620 1.6276041666666666e-05
2921 620 2.7126736111111112e-06
2922 620 1.6276041666666666e-05
2923 620 1.6276041666666666e-05
2924 620 1.6276041666666666e-05
3017 620 2.7126736111111112e-06
621 621 0.00019531249999999998
622 621 1.0850694444444445e-05
652 621 1.0850694444444445e-05
653 621 1.0850694444444445e-05
2830 621 2.7126736111111112e-06
2831 621 1.6276041666666666e-05
2833 621 1.6276041666666666e-05
2834 621 2.7126736111111112e-06
2925 621 1.6276041666666666e-05
2926 621 2.7126736111111112e-06
2927 621 1.6276041666666666e-05
2928 621 1.6276041666666666e-05
2929 621 1.6276041666666666e-05
2931 621 2.7126736111111112e-06
3022 621 2.7126736111111112e-06
622 622 0.00019531249999999998
623 622 1.0850694444444445e-05
653 622 1.0850694444444445e-05
654 622 1.0850694444444445e-05
2832 622 2.7126736111111112e-06
2833 622 2.7126736111111112e-06
2834 622 1.6276041666666666e-05
2836 622 1.6276041666666666e-05
2837 622 2.7126736111111112e-06
2927 622 1.6276041666666666e-05
2929 622 2.7126736111111112e-06
2930 622 1.6276041666666666e-05
2931 622 1.6276041666666666e-05
2932 622 1.6276041666666666e-05
2934 622 2.7126736111111112e-06
3025 622 2.7126736111111112e-06
623 623 0.00019531249999999998
624 623 1.0850694444444445e-05
654 623 1.0850694444444445e-05
655 623 1.0850694444444445e-05
2835 623 2.7126736111111112e-06
2836 623 2.7126736111111112e-06
2837 623 1.6276041666666666e-05
2839 623 1.6276041666666666e-05
2840 623 2.7126736111111112e-06
2930 623 1.6276041666666666e-05
2932 623 2.7126736111111112e-06
2933 623 1.6276041666666666e-05
2934 623 1.6276041666666666e-05
2935 623 1.6276041666666666e-05
2937 623 2.7126736111111112e-06
3028 623 2.7126736111111112e-06
624 624 0.00019531249999999998
625 624 1.0850694444444445e-05
655 624 1.0850694444444445e-05
656 624 1.0850694444444445e-05
2838 624 2.7126736111111112e-06
2839 624 2.7126736111111112e-06
2840 624 1.6276041666666666e-05
2842 624 1.6276041666666666e-05
2843 624 2.7126736111111112e-06
2933 624 1.6276041666666666e-05
2935 624 2.7126736111111112e-06
2936 624 1.6276041666666666e-05
2937 624 1.6276041666666666e-05
2938 624 1.6276041666666666e-05
2940 624 2.7126736111111112e-06
3031 624 2.7126736111111112e-06
625 625 0.00019531249999999998
626 625 1.0850694444444445e-05
656 625 1.0850694444444445e-05
657 625 1.0850694444444445e-05
2841 625 2.7126736111111112e-06
2842 625 2.7126736111111112e-06
2843 625 1.6276041666666666e-05
2845 625 1.6276041666666666e-05
2846 625 2.7126736111111112e-06
2936 625 1.6276041666666666e-05
2938 625 2.7126736111111112e-06
2939 625 1.6276041666666666e-05
2940 625 1.6276041666666666e-05
2941 625 1.6276041666666666e-05
2943 625 2.7126736111111112e-06
3034 625 2.7126736111111112e-06
626 626 0.00019531249999999998
627 626 1.0850694444444445e-05
657 626 1.0850694444444445e-05
658 626 1.0850694444444445e-05
2844 626 2.7126736111111112e-06
2845 626 2.7126736111111112e-06
2846 626 1.6276041666666666e-05
2848 626 1.6276041666666666e-05
2849 626 2.7126736111111112e-06
2939 626 1.6276041666666666e-05
2941 626 2.7126736111111112e-06
2942 626 1.6276041666666666e-05
2943 626 1.6276041666666666e-05
2944 626 1.6276041666666666e-05
2946 626 2.7126736111111112e-06
3037 626 2.7126736111111112e-06
627 627 0.00019531249999999998
628 627 1.0850694444444445e-05
658 627 1.0850694444444445e-05
659 627 1.0850694444444445e-05
2847 627 2.7126736111111112e-06
2848 627 2.7126736111111112e-06
2849 627 1.6276041666666666e-05
2851 627 1.6276041666666666e-05
2852 627 2.7126736111111112e-06
2942 627 1.6276041666666666e-05
2944 627 2.7126736111111112e-06
2945 627 1.6276041666666666e-05
2946 627 1.6276041666666666e-05
2947 627 1.6276041666666666e-05
2949 627 2.7126736111111112e-06
3040 627 2.7126736111111112e-06
628 628 0.00019531249999999998
629 628 1.0850694444444445e-05
659 628 1.0850694444444445e-05
660 628 1.0850694444444445e-05
2850 628 2.7126736111111112e-06
2851 628 2.7126736111111112e-06
2852 628 1.6276041666666666e-05
2854 628 1.6276041666666666e-05
2855 628 2.7126736111111112e-06
2945 628 1.6276041666666666e-05
2947 628 2.7126736111111112e-06
2948 628 1.6276041666666666e-05
2949 628 1.6276041666666666e-05
2950 628 1.6276041666666666e-05
2952 628 2.7126736111111112e-06
3043 628 2.7126736111111112e-06
629 629 0.00019531249999999998
630 629 1.0850694444444445e-05
660 629 1.0850694444444445e-05
661 629 1.0850694444444445e-05
2853 629 2.7126736111111112e-06
2854 629 2.7126736111111112e-06
2855 629 1.6276041666666666e-05
2857 629 1.6276041666666666e-05
2858 629 2.7126736111111112e-06
2948 629 1.6276041666666666e-05
2950 629 2.7126736111111112e-06
2951 629 1.6276041666666666e-05
2952 629 1.6276041666666666e-05
2953 629 1.6276041666666666e-05
2955 629 2.7126736111111112e-06
3046 629 2.7126736111111112e-06
630 630 0.00019531249999999998
631 630 1.0850694444444445e-05
661 630 1.0850694444444445e-05
662 630 1.0850694444444445e-05
2856 630 2.7126736111111112e-06
2857 630 2.7126736111111112e-06
2858 630 1.6276041666666666e-05
2860 630 1.6276041666666666e-05
2861 630 2.7126736111111112e-06
2951 630 1.6276041666666666e-05
2953 630 2.7126736111111112e-06
2954 630 1.6276041666666666e-05
2955 630 1.6276041666666666e-05
2956 630 1.6276041666666666e-05
2958 630 2.7126736111111112e-06
3049 630 2.7126736111111112e-06
631 631 0.00019531249999999998
632 631 1.0850694444444445e-05
662 631 1.0850694444444445e-05
663 631 1.0850694444444445e-05
2859 631 2.7126736111111112e-06
2860 631 2.7126736111111112e-06
2861 631 1.6276041666666666e-05
2863 631 1.6276041666666666e-05
2864 631 2.7126736111111112e-06
2954 631 1.6276041666666666e-05
2956 631 2.7126736111111112e-06
2957 631 1.6276041666666666e-05
2958 631 1.6276041666666666e-05
2959 631 1.6276041666666666e-05
2961 631 2.7126736111111112e-06
3052 631 2.7126736111111112e-06
632 632 0.00019531249999999998
633 632 1.0850694444444445e-05
663 632 1.0850694444444445e-05
664 632 1.0850694444444445e-05
2862 632 2.7126736111111112e-06
2863 632 2.7126736111111112e-06
2864 632 1.6276041666666666e-05
2866 632 1.6276041666666666e-05
2867 632 2.7126736111111112e-06
2957 632 1.6276041666666666e-05
2959 632 2.7126736111111112e-06
2960 632 1.6276041666666666e-05
2961 632 1.6276041666666666e-05
2962 632 1.6276041666666666e-05
2964 632 2.7126736111111112e-06
3055 632 2.7126736111111112e-06
633 633 0.00019531249999999998
634 633 1.0850694444444445e-05
664 633 1.0850694444444445e-05
665 633 1.0850694444444445e-05
2865 633 2.7126736111111112e-06
2866 633 2.7126736111111112e-06
2867 633 1.6276041666666666e-05
2869 633 1.6276041666666666e-05
2870 633 2.7126736111111112e-06
2960 633 1.6276041666666666e-05
2962 633 2.7126736111111112e-06
2963 633 1.6276041666666666e-05
2964 633 1.6276041666666666e-05
2965 633 1.6276041666666666e-05
2967 633 2.7126736111111112e-06
3058 633 2.7126736111111112e-06
634 634 0.00019531249999999998
635 634 1.0850694444444445e-05
665 634 1.0850694444444445e-05
666 634 1.0850694444444445e-05
2868 634 2.7126736111111112e-06
2869 634 2.7126736111111112e-06
2870 634 1.6276041666666666e-05
2872 634 1.6276041666666666e-05
2873 634 2.7126736111111112e-06
2963 634 1.6276041666666666e-05
2965 634 2.7126736111111112e-06
2966 634 1.6276041666666666e-05
2967 634 1.6276041666666666e-05
2968 634 1.6276041666666666e-05
2970 634 2.7126736111111112e-06
3061 634 2.7126736111111112e-06
635 635 0.00019531249999999998
636 635 1.0850694444444445e-05
666 635 1.0850694444444445e-05
667 635 1.0850694444444445e-05
2871 635 2.7126736111111112e-06
2872 635 2.7126736111111112e-06
2873 635 1.6276041666666666e-05
2875 635 1.6276041666666666e-05
2876 635 2.7126736111111112e-06
2966 635 1.6276041666666666e-05
2968 635 2.7126736111111112e-06
2969 635 1.6276041666666666e-05
2970 635 1.6276041666666666e-05
2971 635 1.6276041666666666e-05
2973 635 2.7126736111111112e-06
3064 635 2.7126736111111112e-06
636 636 0.00019531249999999998
637 636 1.0850694444444445e-05
667 636 1.0850694444444445e-05
668 636 1.0850694444444445e-05
2874 636 2.7126736111111112e-06
2875 636 2.7126736111111112e-06
2876 636 1.6276041666666666e-05
2878 636 1.6276041666666666e-05
2879 636 2.7126736111111112e-06
2969 636 1.6276041666666666e-05
2971 636 2.7126736111111112e-06
2972 636 1.6276041666666666e-05
2973 636 1.6276041666666666e-05
2974 636 1.6276041666666666e-05
2976 636 2.7126736111111112e-06
3067 636 2.7126736111111112e-06
637 637 0.00019531249999999998
638 637 1.0850694444444445e-05
668 637 1.0850694444444445e-05
669 637 1.0850694444444445e-05
2877 637 2.7126736111111112e-06
2878 637 2.7126736111111112e-06
2879 637 1.6276041666666666e-05
2881 637 1.6276041666666666e-05
2882 637 2.7126736111111112e-06
2972 637 1.6276041666666666e-05
2974 637 2.7126736111111112e-06
2975 637 1.6276041666666666e-05
2976 637 1.6276041666666666e-05
2977 637 1.6276041666666666e-05
2979 637 2.7126736111111112e-06
3070 637 2.7126736111111112e-06
638 638 0.00019531249999999998
639 638 1.0850694444444445e-05
669 638 1.0850694444444445e-05
670 638 1.0850694444444445e-05
2880 638 2.7126736111111112e-06
2881 638 2.7126736111111112e-06
2882 638 1.6276041666666666e-05
2884 638 1.6276041666666666e-05
2885 638 2.7126736111111112e-06
2975 638 1.6276041666666666e-05
2977 638 2.7126736111111112e-06
2978 638 1.6276041666666666e-05
2979 638 1.6276041666666666e-05
2980 638 1.6276041666666666e-05
2982 638 2.7126736111111112e-06
3073 638 2.7126736111111112e-06
639 639 0.00019531249999999998
640 639 1.0850694444444445e-05
670 639 1.0850694444444445e-05
671 639 1.0850694444444445e-05
2883 639 2.7126736111111112e-06
2884 639 2.7126736111111112e-06
2885 639 1.6276041666666666e-05
2887 639 1.6276041666666666e-05
2888 639 2.7126736111111112e-06
2978 639 1.6276041666666666e-05
2980 639 2.7126736111111112e-06
2981 639 1.6276041666666666e-05
2982 639 1.6276041666666666e-05
2983 639 1.6276041666666666e-05
2985 639 2.7126736111111112e-06
3076 639 2.7126736111111112e-06
640 640 0.00019531249999999998
641 640 1.0850694444444445e-05
671 640 1.0850694444444445e-05
672 640 1.0850694444444445e-05
2886 640 2.7126736111111112e-06
2887 640 2.7126736111111112e-06
2888 640 1.6276041666666666e-05
2890 640 1.6276041666666666e-05
2891 640 2.7126736111111112e-06
2981 640 1.6276041666666666e-05
2983 640 2.7126736111111112e-06
2984 640 1.6276041666666666e-05
2985 640 1.6276041666666666e-05
2986 640 1.6276041666666666e-05
2988 640 2.7126736111111112e-06
3079 640 2.7126736111111112e-06
641 641 0.00019531249999999998
642 641 1.0850694444444445e-05
672 641 1.0850694444444445e-05
673 641 1.0850694444444445e-05
2889 641 2.7126736111111112e-06
2890 641 2.7126736111111112e-06
2891 641 1.6276041666666666e-05
2893 641 1.6276041666666666e-05
2894 641 2.7126736111111112e-06
2984 641 1.6276041666666666e-05
2986 641 2.7126736111111112e-06
2987 641 1.6276041666666666e-05
2988 641 1.6276041666666666e-05
2989 641 1.6276041666666666e-05
2991 641 2.7126736111111112e-06
3082 641 2.7126736111111112e-06
642 642 0.00019531249999999998
643 642 1.0850694444444445e-05
673 642 1.0850694444444445e-05
674 642 1.0850694444444445e-05
2892 642 2.7126736111111112e-06
2893 642 2.7126736111111112e-06
2894 642 1.6276041666666666e-05
2896 642 1.6276041666666666e-05
2897 642 2.7126736111111112e-06
2987 642 1.6276041666666666e-05
2989 642 2.7126736111111112e-06
2990 642 1.6276041666666666e-05
2991 642 1.6276041666666666e-05
2992 642 1.6276041666666666e-05
2994 642 2.7126736111111112e-06
3085 642 2.7126736111111112e-06
643 643 0.00019531249999999998
644 643 1.0850694444444445e-05
674 643 1.0850694444444445e-05
675 643 1.0850694444444445e-05
2895 643 2.7126736111111112e-06
2896 643 2.7126736111111112e-06
2897 643 1.6276041666666666e-05
2899 643 1.6276041666666666e-05
2900 643 2.7126736111111112e-06
2990 643 1.6276041666666666e-05
2992 643 2.7126736111111112e-06
2993 643 1.6276041666666666e-05
2994 643 1.6276041666666666e-05
2995 643 1.6276041666666666e-05
2997 643 2.7126736111111112e-06
3088 643 2.7126736111111112e-06
644 644 0.00019531249999999998
645 644 1.0850694444444445e-05
675 644 1.0850694444444445e-05
676 644 1.0850694444444445e-05
2898 644 2.7126736111111112e-06
2899 644 2.7126736111111112e-06
2900 644 1.6276041666666666e-05
2902 644 1.6276041666666666e-05
2903 644 2.7126736111111112e-06
2993 644 1.6276041666666666e-05
2995 644 2.7126736111111112e-06
2996 644 1.6276041666666666e-05
2997 644 1.6276041666666666e-05
2998 644 1.6276041666666666e-05
3000 644 2.7126736111111112e-06
3091 644 2.7126736111111112e-06
645 645 0.00019531249999999998
646 645 1.0850694444444445e-05
676 645 1.0850694444444445e-05
677 645 1.0850694444444445e-05
2901 645 2.7126736111111112e-06
2902 645 2.7126736111111112e-06
2903 645 1.6276041666666666e-05
2905 645 1.6276041666666666e-05
2906 645 2.7126736111111112e-06
2996 645 1.6276041666666666e-05
2998 645 2.7126736111111112e-06
2999 645 1.6276041666666666e-05
3000 645 1.6276041666666666e-05
3001 645 1.6276041666666666e-05
3003 645 2.7126736111111112e-06
3094 645 2.7126736111111112e-06
646 646 0.00019531249999999998
647 646 1.0850694444444445e-05
677 646 1.0850694444444445e-05
678 646 1.0850694444444445e-05
2904 646 2.7126736111111112e-06
2905 646 2.7126736111111112e-06
2906 646 1.6276041666666666e-05
2908 646 1.6276041666666666e-05
2909 646 2.7126736111111112e-06
2999 646 1.6276041666666666e-05
3001 646 2.7126736111111112e-06
3002 646 1.6276041666666666e-05
3003 646 1.6276041666666666e-05
3004 646 1.6276041666666666e-05
3006 646 2.7126736111111112e-06
3097 646 2.7126736111111112e-06
647 647 0.00019531249999999998
648 647 1.0850694444444445e-05
678 647 1.0850694444444445e-05
679 647 1.0850694444444445e-05
2907 647 2.7126736111111112e-06
2908 647 2.7126736111111112e-06
2909 647 1.6276041666666666e-05
2911 647 1.6276041666666666e-05
2912 647 2.7126736111111112e-06
3002 647 1.6276041666666666e-05
3004 647 2.7126736111111112e-06
3005 647 1.6276041666666666e-05
3006 647 1.6276041666666666e-05
3007 647 1.6276041666666666e-05
3009 647 2.7126736111111112e-06
3100 647 2.7126736111111112e-06
648 648 0.00019531249999999998
649 648 1.0850694444444445e-05
679 648 1.0850694444444445e-05
680 648 1.0850694444444445e-05
2910 648 2.7126736111111112e-06
2911 648 2.7126736111111112e-06
2912 648 1.6276041666666666e-05
2914 648 1.6276041666666666e-05
2915 648 2.7126736111111112e-06
3005 648 1.6276041666666666e-05
3007 648 2.7126736111111112e-06
3008 648 1.6276041666666666e-05
3009 648 1.6276041666666666e-05
3010 648 1.6276041666666666e-05
3012 648 2.7126736111111112e-06
3103 648 2.7126736111111112e-06
649 649 0.00019531249999999998
650 649 1.0850694444444445e-05
680 649 1.0850694444444445e-05
681 649 1.0850694444444445e-05
2913 649 2.7126736111111112e-06
2914 649 2.7126736111111112e-06
2915 649 1.6276041666666666e-05
2917 649 1.6276041666666666e-05
2918 649 2.7126736111111112e-06
3008 649 1.6276041666666666e-05
3010 649 2.7126736111111112e-06
3011 649 1.6276041666666666e-05
3012 649 1.6276041666666666e-05
3013 649 1.6276041666666666e-05
3015 649 2.7126736111111112e-06
3106 649 2.7126736111111112e-06
650 650 0.00019531249999999998
651 650 1.0850694444444445e-05
681 650 1.0850694444444445e-05
682 650 1.0850694444444445e-05
2916 650 2.7126736111111112e-06
2917 650 2.7126736111111112e-06
2918 650 1.6276041666666666e-05
2920 650 1.6276041666666666e-05
2921 650 2.7126736111111112e-06
3011 650 1.6276041666666666e-05
3013 650 2.7126736111111112e-06
3014 650 1.6276041666666666e-05
3015 650 1.6276041666666666e-05
3016 650 1.6276041666666666e-05
3018 650 2.7126736111111112e-06
3109 650 2.7126736111111112e-06
651 651 0.00019531249999999998
682 651 1.0850694444444445e-05
2919 651 2.7126736111111112e-06
2920 651 2.7126736111111112e-06
2921 651 1.6276041666666666e-05
2923 651 1.6276041666666666e-05
2924 651 2.7126736111111112e-06
3014 651 1.6276041666666666e-05
3016 651 2.7126736111111112e-06
3017 651 1.6276041666666666e-05
3018 651 1.6276041666666666e-05
3019 651 1.6276041666666666e-05
3112 651 2.7126736111111112e-06
652 652 0.00019531249999999998
653 652 1.0850694444444445e-05
683 652 1.0850694444444445e-05
684 652 1.0850694444444445e-05
2925 652 2.7126736111111112e-06
2926 652 1.6276041666666666e-05
2928 652 1.6276041666666666e-05
2929 652 2.7126736111111112e-06
3020 652 1.6276041666666666e-05
3021 652 2.7126736111111112e-06
3022 652 1.6276041666666666e-05
3023 652 1.6276041666666666e-05
3024 652 1.6276041666666666e-05
3026 652 2.7126736111111112e-06
3117 652 2.7126736111111112e-06
653 653 0.00019531249999999998
654 653 1.0850694444444445e-05
684 653 1.0850694444444445e-05
685 653 1.0850694444444445e-05
2927 653 2.7126736111111112e-06
2928 653 2.7126736111111112e-06
2929 653 1.6276041666666666e-05
2931 653 1.6276041666666666e-05
2932 653 2.7126736111111112e-06
3022 653 1.6276041666666666e-05
3024 653 2.7126736111111112e-06
3025 653 1.6276041666666666e-05
3026 653 1.6276041666666666e-05
3027 653 1.6276041666666666e-05
3029 653 2.7126736111111112e-06
3120 653 2.7126736111111112e-06
654 654 0.00019531249999999998
655 654 1.0850694444444445e-05
685 654 1.0850694444444445e-05
686 654 1.0850694444444445e-05
2930 654 2.7126736111111112e-06
2931 654 2.7126736111111112e-06
2932 654 1.6276041666666666e-05
2934 654 1.6276041666666666e-05
2935 654 2.7126736111111112e-06
3025 654 1.6276041666666666e-05
3027 654 2.7126736111111112e-06
3028 654 1.6276041666666666e-05
3029 654 1.6276041666666666e-05
3030 654 1.6276041666666666e-05
3032 654 2.7126736111111112e-06
3123 654 2.7126736111111112e-06
655 655 0.00019531249999999998
656 655 1.0850694444444445e-05
686 655 1.0850694444444445e-05
687 655 1.0850694444444445e-05
2933 655 2.7126736111111112e-06
2934 655 2.7126736111111112e-06
2935 655 1.6276041666666666e-05
2937 655 1.6276041666666666e-05
2938 655 2.7126736111111112e-06
3028 655 1.6276041666666666e-05
3030 655 2.7126736111111112e-06
3031 655 1.6276041666666666e-05
3032 655 1.6276041666666666e-05
3033 655 1.6276041666666666e-05
3035 655 2.7126736111111112e-06
3126 655 2.7126736111111112e-06
656 656 0.00019531249999999998
657 656 1.0850694444444445e-05
687 656 1.0850694444444445e-05
688 656 1.0850694444444445e-05
2936 656 2.7126736111111112e-06
2937 656 2.7126736111111112e-06
2938 656 1.6276041666666666e-05
2940 656 1.6276041666666666e-05
2941 656 2.7126736111111112e-06
3031 656 1.6276041666666666e-05
3033 656 2.7126736111111112e-06
3034 656 1.6276041666666666e-05
3035 656 1.6276041666666666e-05
3036 656 1.6276041666666666e-05
3038 656 2.7126736111111112e-06
3129 656 2.7126736111111112e-06
657 657 0.00019531249999999998
658 657 1.0850694444444445e-05
688 657 1.0850694444444445e-05
689 657 1.0850694444444445e-05
2939 657 2.7126736111111112e-06
2940 657 2.7126736111111112e-06
2941 657 1.6276041666666666e-05
2943 657 1.6276041666666666e-05
2944 657 2.7126736111111112e-06
3034 657 1.6276041666666666e-05
3036 657 2.7126736111111112e-06
3037 657 1.6276041666666666e-05
3038 657 1.6276041666666666e-05
3039 657 1.6276041666666666e-05
3041 657 2.7126736111111112e-06
3132 657 2.7126736111111112e-06
658 658 0.00019531249999999998
659 658 1.0850694444444445e-05
689 658 1.0850694444444445e-05
690 658 1.0850694444444445e-05
2942 658 2.7126736111111112e-06
2943 658 2.7126736111111112e-06
2944 658 1.6276041666666666e-05
2946 658 1.6276041666666666e-05
2947 658 2.7126736111111112e-06
3037 658 1.6276041666666666e-05
3039 658 2.7126736111111112e-06
3040 658 1.6276041666666666e-05
3041 658 1.6276041666666666e-05
3042 658 1.6276041666666666e-05
3044 658 2.7126736111111112e-06
3135 658 2.7126736111111112e-06
659 659 0.00019531249999999998
660 659 1.0850694444444445e-05
690 659 1.0850694444444445e-05
691 659 1.0850694444444445e-05
2945 659 2.7126736111111112e-06
2946 659 2.7126736111111112e-06
2947 659 1.6276041666666666e-05
2949 659 1.6276041666666666e-05
2950 659 2.7126736111111112e-06
3040 659 1.6276041666666666e-05
3042 659 2.7126736111111112e-06
3043 659 1.6276041666666666e-05
3044 659 1.6276041666666666e-05
3045 659 1.6276041666666666e-05
3047 659 2.7126736111111112e-06
3138 659 2.7126736111111112e-06
660 660 0.00019531249999999998
661 660 1.0850694444444445e-05
691 660 1.0850694444444445e-05
692 660 1.0850694444444445e-05
2948 660 2.7126736111111112e-06
2949 660 2.7126736111111112e-06
2950 660 1.6276041666666666e-05
2952 660 1.6276041666666666e-05
2953 660 2.7126736111111112e-06
3043 660 1.6276041666666666e-05
3045 660 2.7126736111111112e-06
3046 660 1.6276041666666666e-05
3047 660 1.6276041666666666e-05
3048 660 1.6276041666666666e-05
3050 660 2.7126736111111112e-06
3141 660 2.7126736111111112e-06
661 661 0.00019531249999999998
662 661 1.0850694444444445e-05
692 661 1.0850694444444445e-05
693 661 1.0850694444444445e-05
2951 661 2.7126736111111112e-06
2952 661 2.7126736111111112e-06
2953 661 1.6276041666666666e-05
2955 661 1.6276041666666666e-05
2956 661 2.7126736111111112e-06
3046 661 1.6276041666666666e-05
3048 661 2.7126736111111112e-06
3049 661 1.6276041666666666e-05
3050 661 1.6276041666666666e-05
3051 661 1.6276041666666666e-05
3053 661 2.7126736111111112e-06
3144 661 2.7126736111111112e-06
662 662 0.00019531249999999998
663 662 1.0850694444444445e-05
693 662 1.0850694444444445e-05
694 662 1.0850694444444445e-05
2954 662 2.7126736111111112e-06
2955 662 2.7126736111111112e-06
2956 662 1.6276041666666666e-05
2958 662 1.6276041666666666e-05
2959 662 2.7126736111111112e-06
3049 662 1.6276041666666666e-05
3051 662 2.7126736111111112e-06
3052 662 1.6276041666666666e-05
3053 662 1.6276041666666666e-05
3054 662 1.6276041666666666e-05
3056 662 2.7126736111111112e-06
3147 662 2.7126736111111112e-06
663 663 0.00019531249999999998
664 663 1.0850694444444445e-05
694 663 1.0850694444444445e-05
695 663 1.0850694444444445e-05
2957 663 2.7126736111111112e-06
2958 663 2.7126736111111112e-06
2959 663 1.6276041666666666e-05
2961 663 1.6276041666666666e-05
2962 663 2.7126736111111112e-06
3052 663 1.6276041666666666e-05
3054 663 2.7126736111111112e-06
3055 663 1.6276041666666666e-05
3056 663 1.6276041666666666e-05
3057 663 1.6276041666666666e-05
3059 663 2.7126736111111112e-06
3150 663 2.7126736111111112e-06
664 664 0.00019531249999999998
665 664 1.0850694444444445e-05
695 664 1.0850694444444445e-05
696 664 1.0850694444444445e-05
2960 664 2.7126736111111112e-06
2961 664 2.7126736111111112e-06
2962 664 1.6276041666666666e-05
2964 664 1.6276041666666666e-05
2965 664 2.7126736111111112e-06
3055 664 1.6276041666666666e-05
3057 664 2.7126736111111112e-06
3058 664 1.6276041666666666e-05
3059 664 1.6276041666666666e-05
3060 664 1.6276041666666666e-05
3062 664 2.7126736111111112e-06
3153 664 2.7126736111111112e-06
665 665 0.00019531249999999998
666 665 1.0850694444444445e-05
696 665 1.0850694444444445e-05
697 665 1.0850694444444445e-05
2963 665 2.7126736111111112e-06
2964 665 2.7126736111111112e-06
2965 665 1.6276041666666666e-05
2967 665 1.6276041666666666e-05
2968 665 2.7126736111111112e-06
3058 665 1.6276041666666666e-05
3060 665 2.7126736111111112e-06
3061 665 1.6276041666666666e-05
3062 665 1.6276041666666666e-05
3063 665 1.6276041666666666e-05
3065 665 2.7126736111111112e-06
3156 665 2.7126736111111112e-06
666 666 0.00019531249999999998
667 666 1.0850694444444445e-05
697 666 1.0850694444444445e-05
698 666 1.0850694444444445e-05
2966 666 2.7126736111111112e-06
2967 666 2.7126736111111112e-06
2968 666 1.6276041666666666e-05
2970 666 1.6276041666666666e-05
2971 666 2.7126736111111112e-06
3061 666 1.6276041666666666e-05
3063 666 2.7126736111111112e-06
3064 666 1.6276041666666666e-05
3065 666 1.6276041666666666e-05
3066 666 1.6276041666666666e-05
3068 666 2.7126736111111112e-06
3159 666 2.7126736111111112e-06
667 667 0.00019531249999999998
668 667 1.0850694444444445e-05
698 667 1.0850694444444445e-05
699 667 1.0850694444444445e-05
2969 667 2.7126736111111112e-06
2970 667 2.7126736111111112e-06
2971 667 1.6276041666666666e-05
2973 667 1.6276041666666666e-05
2974 667 2.7126736111111112e-06
3064 667 1.6276041666666666e-05
3066 667 2.7126736111111112e-06
3067 667 1.6276041666666666e-05
3068 667 1.6276041666666666e-05
3069 667 1.6276041666666666e-05
3071 667 2.7126736111111112e-06
3162 667 2.7126736111111112e-06
668 668 0.00019531249999999998
669 668 1.0850694444444445e-05
699 668 1.0850694444444445e-05
700 668 1.0850694444444445e-05
2972 668 2.7126736111111112e-06
2973 668 2.7126736111111112e-06
2974 668 1.6276041666666666e-05
2976 668 1.6276041666666666e-05
2977 668 2.7126736111111112e-06
3067 668 1.6276041666666666e-05
3069 668 2.7126736111111112e-06
3070 668 1.6276041666666666e-05
3071 668 1.6276041666666666e-05
3072 668 1.6276041666666666e-05
3074 668 2.7126736111111112e-06
3165 668 2.7126736111111112e-06
669 669 0.00019531249999999998
670 669 1.0850694444444445e-05
700 669 1.0850694444444445e-05
701 669 1.0850694444444445e-05
2975 669 2.7126736111111112e-06
2976 669 2.7126736111111112e-06
2977 669 1.6276041666666666e-05
2979 669 1.6276041666666666e-05
2980 669 2.7126736111111112e-06
3070 669 1.6276041666666666e-05
3072 669 2.7126736111111112e-06
3073 669 1.6276041666666666e-05
3074 669 1.6276041666666666e-05
3075 669 1.6276041666666666e-05
3077 669 2.7126736111111112e-06
3168 669 2.7126736111111112e-06
670 670 0.00019531249999999998
671 670 1.0850694444444445e-05
701 670 1.0850694444444445e-05
702 670 1.0850694444444445e-05
2978 670 2.7126736111111112e-06
2979 670 2.7126736111111112e-06
2980 670 1.6276041666666666e-05
2982 670 1.6276041666666666e-05
2983 670 2.7126736111111112e-06
3073 670 1.6276041666666666e-05
3075 670 2.7126736111111112e-06
3076 670 1.6276041666666666e-05
3077 670 1.6276041666666666e-05
3078 670 1.6276041666666666e-05
3080 670 2.7126736111111112e-06
3171 670 2.7126736111111112e-06
671 671 0.00019531249999999998
672 671 1.0850694444444445e-05
702 671 1.0850694444444445e-05
703 671 1.0850694444444445e-05
2981 671 2.7126736111111112e-06
2982 671 2.7126736111111112e-06
2983 671 1.6276041666666666e-05
2985 671 1.6276041666666666e-05
2986 671 2.7126736111111112e-06
3076 671 1.6276041666666666e-05
3078 671 2.7126736111111112e-06
3079 671 1.6276041666666666e-05
3080 671 1.6276041666666666e-05
3081 671 1.6276041666666666e-05
3083 671 2.7126736111111112e-06
3174 671 2.7126736111111112e-06
672 672 0.00019531249999999998
673 672 1.0850694444444445e-05
703 672 1.0850694444444445e-05
704 672 1.0850694444444445e-05
2984 672 2.7126736111111112e-06
2985 672 2.7126736111111112e-06
2986 672 1.6276041666666666e-05
2988 672 1.6276041666666666e-05
2989 672 2.7126736111111112e-06
3079 672 1.6276041666666666e-05
3081 672 2.7126736111111112e-06
3082 672 1.6276041666666666e-05
3083 672 1.6276041666666666e-05
3084 672 1.6276041666666666e-05
3086 672 2.7126736111111112e-06
3177 672 2.7126736111111112e-06
673 673 0.00019531249999999998
674 673 1.0850694444444445e-05
704 673 1.0850694444444445e-05
705 673 1.0850694444444445e-05
2987 673 2.7126736111111112e-06
2988 673 2.7126736111111112e-06
2989 673 1.6276041666666666e-05
2991 673 1.6276041666666666e-05
2992 673 2.7126736111111112e-06
3082 673 1.6276041666666666e-05
3084 673 2.7126736111111112e-06
3085 673 1.6276041666666666e-05
3086 673 1.6276041666666666e-05
3087 673 1.6276041666666666e-05
3089 673 2.7126736111111112e-06
3180 673 2.7126736111111112e-06
674 674 0.00019531249999999998
675 674 1.0850694444444445e-05
705 674 1.0850694444444445e-05
706 674 1.0850694444444445e-05
2990 674 2.7126736111111112e-06
2991 674 2.7126736111111112e-06
2992 674 1.6276041666666666e-05
2994 674 1.6276041666666666e-05
2995 674 2.7126736111111112e-06
3085 674 1.6276041666666666e-05
3087 674 2.7126736111111112e-06
3088 674 1.6276041666666666e-05
3089 674 1.6276041666666666e-05
3090 674 1.6276041666666666e-05
3092 674 2.7126736111111112e-06
3183 674 2.7126736111111112e-06
675 675 0.00019531249999999998
676 675 1.0850694444444445e-05
706 675 1.0850694444444445e-05
707 675 1.0850694444444445e-05
2993 675 2.7126736111111112e-06
2994 675 2.7126736111111112e-06
2995 675 1.6276041666666666e-05
2997 675 1.6276041666666666e-05
2998 675 2.7126736111111112e-06
3088 675 1.6276041666666666e-05
3090 675 2.7126736111111112e-06
3091 675 1.6276041666666666e-05
3092 675 1.6276041666666666e-05
3093 675 1.6276041666666666e-05
3095 675 2.7126736111111112e-06
3186 675 2.7126736111111112e-06
676 676 0.00019531249999999998
677 676 1.0850694444444445e-05
707 676 1.0850694444444445e-05
708 676 1.0850694444444445e-05
2996 676 2.7126736111111112e-06
2997 676 2.7126736111111112e-06
2998 676 1.6276041666666666e-05
3000 676 1.6276041666666666e-05
3001 676 2.7126736111111112e-06
3091 676 1.6276041666666666e-05
3093 676 2.7126736111111112e-06
3094 676 1.6276041666666666e-05
3095 676 1.6276041666666666e-05
3096 676 1.6276041666666666e-05
3098 676 2.7126736111111112e-06
3189 676 2.7126736111111112e-06
677 677 0.00019531249999999998
678 677 1.0850694444444445e-05
708 677 1.0850694444444445e-05
709 677 1.0850694444444445e-05
2999 677 2.7126736111111112e-06
3000 677 2.7126736111111112e-06
3001 677 1.6276041666666666e-05
3003 677 1.6276041666666666e-05
3004 677 2.7126736111111112e-06
3094 677 1.6276041666666666e-05
3096 677 2.7126736111111112e-06
3097 677 1.6276041666666666e-05
3098 677 1.6276041666666666e-05
3099 677 1.6276041666666666e-05
3101 677 2.7126736111111112e-06
3192 677 2.7126736111111112e-06
678 678 0.00019531249999999998
679 678 1.0850694444444445e-05
709 678 1.0850694444444445e-05
710 678 1.0850694444444445e-05
3002 678 2.7126736111111112e-06
3003 678 2.7126736111111112e-06
3004 678 1.6276041666666666e-05
3006 678 1.6276041666666666e-05
3007 678 2.7126736111111112e-06
3097 678 1.6276041666666666e-05
3099 678 2.7126736111111112e-06
3100 678 1.6276041666666666e-05
3101 678 1.6276041666666666e-05
3102 678 1.6276041666666666e-05
3104 678 2.7126736111111112e-06
3195 678 2.7126736111111112e-06
679 679 0.00019531249999999998
680 679 1.0850694444444445e-05
710 679 1.0850694444444445e-05
711 679 1.0850694444444445e-05
3005 679 2.7126736111111112e-06
3006 679 2.7126736111111112e-06
3007 679 1.6276041666666666e-05
3009 679 1.6276041666666666e-05
3010 679 2.7126736111111112e-06
3100 679 1.6276041666666666e-05
3102 679 2.7126736111111112e-06
3103 679 1.6276041666666666e-05
3104 679 1.6276041666666666e-05
3105 679 1.6276041666666666e-05
3107 679 2.7126736111111112e-06
3198 679 2.7126736111111112e-06
680 680 0.00019531249999999998
681 680 1.0850694444444445e-05
711 680 1.0850694444444445e-05
712 680 1.0850694444444445e-05
3008 680 2.7126736111111112e-06
3009 680 2.7126736111111112e-06
3010 680 1.6276041666666666e-05
3012 680 1.6276041666666666e-05
3013 680 2.7126736111111112e-06
3103 680 1.6276041666666666e-05
3105 680 2.7126736111111112e-06
3106 680 1.6276041666666666e-05
3107 680 1.6276041666666666e-05
3108 680 1.6276041666666666e-05
3110 680 2.7126736111111112e-06
3201 680 2.7126736111111112e-06
681 681 0.00019531249999999998
682 681 1.0850694444444445e-05
712 681 1.0850694444444445e-05
713 681 1.0850694444444445e-05
3011 681 2.7126736111111112e-06
3012 681 2.7126736111111112e-06
3013 681 1.6276041666666666e-05
3015 681 1.6276041666666666e-05
3016 681 2.7126736111111112e-06
3106 681 1.6276041666666666e-05
3108 681 2.7126736111111112e-06
3109 681 1.6276041666666666e-05
3110 681 1.6276041666666666e-05
3111 681 1.6276041666666666e-05
3113 681 2.7126736111111112e-06
3204 681 2.7126736111111112e-06
682 682 0.00019531249999999998
713 682 1.0850694444444445e-05
3014 682 2.7126736111111112e-06
3015 682 2.7126736111111112e-06
3016 682 1.6276041666666666e-05
3018 682 1.6276041666666666e-05
3019 682 2.7126736111111112e-06
3109 682 1.6276041666666666e-05
3111 682 2.7126736111111112e-06
3112 682 1.6276041666666666e-05
3113 682 1.6276041666666666e-05
3114 682 1.6276041666666666e-05
3207 682 2.7126736111111112e-06
683 683 0.00019531249999999998
684 683 1.0850694444444445e-05
714 683 1.0850694444444445e-05
715 683 1.0850694444444445e-05
3020 683 2.7126736111111112e-06
3021 683 1.6276041666666666e-05
3023 683 1.6276041666666666e-05
3024 683 2.7126736111111112e-06
3115 683 1.6276041666666666e-05
3116 683 2.7126736111111112e-06
3117 683 1.6276041666666666e-05
3118 683 1.6276041666666666e-05
3119 683 1.6276041666666666e-05
3121 683 2.7126736111111112e-06
3212 683 2.7126736111111112e-06
684 684 0.00019531249999999998
685 684 1.0850694444444445e-05
715 684 1.0850694444444445e-05
716 684 1.0850694444444445e-05
3022 684 2.7126736111111112e-06
3023 684 2.7126736111111112e-06
3024 684 1.6276041666666666e-05
3026 684 1.6276041666666666e-05
3027 684 2.7126736111111112e-06
3117 684 1.6276041666666666e-05
3119 684 2.7126736111111112e-06
3120 684 1.6276041666666666e-05
3121 684 1.6276041666666666e-05
3122 684 1.6276041666666666e-05
3124 684 2.7126736111111112e-06
3215 684 2.7126736111111112e-06
685 685 0.00019531249999999998
686 685 1.0850694444444445e-05
716 685 1.0850694444444445e-05
717 685 1.0850694444444445e-05
3025 685 2.7126736111111112e-06
3026 685 2.7126736111111112e-06
3027 685 1.6276041666666666e-05
3029 685 1.6276041666666666e-05
3030 685 2.7126736111111112e-06
3120 685 1.6276041666666666e-05
3122 685 2.7126736111111112e-06
3123 685 1.6276041666666666e-05
3124 685 1.6276041666666666e-05
3125 685 1.6276041666666666e-05
3127 685 2.7126736111111112e-06
3218 685 2.7126736111111112e-06
686 686 0.00019531249999999998
687 686 1.0850694444444445e-05
717 686 1.0850694444444445e-05
718 686 1.0850694444444445e-05
3028 686 2.7126736111111112e-06
3029 686 2.7126736111111112e-06
3030 686 1.6276041666666666e-05
3032 686 1.6276041666666666e-05
3033 686 2.7126736111111112e-06
3123 686 1.6276041666666666e-05
3125 686 2.7126736111111112e-06
3126 686 1.6276041666666666e-05
3127 686 1.6276041666666666e-05
3128 686 1.6276041666666666e-05
3130 686 2.7126736111111112e-06
3221 686 2.7126736111111112e-06
687 687 0.00019531249999999998
688 687 1.0850694444444445e-05
718 687 1.0850694444444445e-05
719 687 1.0850694444444445e-05
3031 687 2.7126736111111112e-06
3032 687 2.7126736111111112e-06
3033 687 1.6276041666666666e-05
3035 687 1.6276041666666666e-05
3036 687 2.7126736111111112e-06
3126 687 1.6276041666666666e-05
3128 687 2.7126736111111112e-06
3129 687 1.6276041666666666e-05
3130 687 1.6276041666666666e-05
3131 687 1.6276041666666666e-05
3133 687 2.7126736111111112e-06
3224 687 2.7126736111111112e-06
688 688 0.00019531249999999998
689 688 1.0850694444444445e-05
719 688 1.0850694444444445e-05
720 688 1.0850694444444445e-05
3034 688 2.7126736111111112e-06
3035 688 2.7126736111111112e-06
3036 688 1.6276041666666666e-05
3038 688 1.6276041666666666e-05
3039 688 2.7126736111111112e-06
3129 688 1.6276041666666666e-05
3131 688 2.7126736111111112e-06
3132 688 1.6276041666666666e-05
3133 688 1.6276041666666666e-05
3134 688 1.6276041666666666e-05
3136 688 2.7126736111111112e-06
3227 688 2.7126736111111112e-06
689 689 0.00019531249999999998
690 689 1.0850694444444445e-05
720 689 1.0850694444444445e-05
721 689 1.0850694444444445e-05
3037 689 2.7126736111111112e-06
3038 689 2.7126736111111112e-06
3039 689 1.6276041666666666e-05
3041 689 1.6276041666666666e-05
3042 689 2.7126736111111112e-06
3132 689 1.6276041666666666e-05
3134 689 2.7126736111111112e-06
3135 689 1.6276041666666666e-05
3136 689 1.6276041666666666e-05
3137 689 1.6276041666666666e-05
3139 689 2.7126736111111112e-06
3230 689 2.7126736111111112e-06
690 690 0.00019531249999999998
691 690 1.0850694444444445e-05
721 690 1.0850694444444445e-05
722 690 1.0850694444444445e-05
3040 690 2.7126736111111112e-06
3041 690 2.7126736111111112e-06
3042 690 1.6276041666666666e-05
3044 690 1.6276041666666666e-05
3045 690 2.7126736111111112e-06
3135 690 1.6276041666666666e-05
3137 690 2.7126736111111112e-06
3138 690 1.6276041666666666e-05
3139 690 1.6276041666666666e-05
3140 690 1.6276041666666666e-05
3142 690 2.7126736111111112e-06
3233 690 2.7126736111111112e-06
691 691 0.00019531249999999998
692 691 1.0850694444444445e-05
722 691 1.0850694444444445e-05
723 691 1.0850694444444445e-05
3043 691 2.7126736111111112e-06
3044 691 2.7126736111111112e-06
3045 691 1.6276041666666666e-05
3047 691 1.6276041666666666e-05
3048 691 2.7126736111111112e-06
3138 691 1.6276041666666666e-05
3140 691 2.7126736111111112e-06
3141 691 1.6276041666666666e-05
3142 691 1.6276041666666666e-05
3143 691 1.6276041666666666e-05
3145 691 2.7126736111111112e-06
3236 691 2.7126736111111112e-06
692 692 0.00019531249999999998
693 692 1.0850694444444445e-05
723 692 1.0850694444444445e-05
724 692 1.0850694444444445e-05
3046 692 2.7126736111111112e-06
3047 692 2.7126736111111112e-06
3048 692 1.6276041666666666e-05
3050 692 1.6276041666666666e-05
3051 692 2.7126736111111112e-06
3141 692 1.6276041666666666e-05
3143 692 2.7126736111111112e-06
3144 692 1.6276041666666666e-05
3145 692 1.6276041666666666e-05
3146 692 1.6276041666666666e-05
3148 692 2.7126736111111112e-06
3239 692 2.7126736111111112e-06
693 693 0.00019531249999999998
694 693 1.0850694444444445e-05
724 693 1.0850694444444445e-05
725 693 1.0850694444444445e-05
3049 693 2.7126736111111112e-06
3050 693 2.7126736111111112e-06
3051 693 1.6276041666666666e-05
3053 693 1.6276041666666666e-05
3054 693 2.7126736111111112e-06
3144 693 1.6276041666666666e-05
3146 693 2.7126736111111112e-06
3147 693 1.6276041666666666e-05
3148 693 1.6276041666666666e-05
3149 693 1.6276041666666666e-05
3151 693 2.7126736111111112e-06
3242 693 2.7126736111111112e-06
694 694 0.00019531249999999998
695 694 1.0850694444444445e-05
725 694 1.0850694444444445e-05
726 694 1.0850694444444445e-05
3052 694 2.7126736111111112e-06
3053 694 2.7126736111111112e-06
3054 694 1.6276041666666666e-05
3056 694 1.6276041666666666e-05
3057 694 2.7126736111111112e-06
3147 694 1.6276041666666666e-05
3149 694 2.7126736111111112e-06
3150 694 1.6276041666666666e-05
3151 694 1.6276041666666666e-05
3152 694 1.6276041666666666e-05
3154 694 2.7126736111111112e-06
3245 694 2.7126736111111112e-06
695 695 0.00019531249999999998
696 695 1.0850694444444445e-05
726 695 1.0850694444444445e-05
727 695 1.0850694444444445e-05
3055 695 2.7126736111111112e-06
3056 695 2.7126736111111112e-06
3057 695 1.6276041666666666e-05
3059 695 1.6276041666666666e-05
3060 695 2.7126736111111112e-06
3150 695 1.6276041666666666e-05
3152 695 2.7126736111111112e-06
3153 695 1.6276041666666666e-05
3154 695 1.6276041666666666e-05
3155 695 1.6276041666666666e-05
3157 695 2.7126736111111112e-06
3248 695 2.7126736111111112e-06
696 696 0.00019531249999999998
697 696 1.0850694444444445e-05
727 696 1.0850694444444445e-05
728 696 1.0850694444444445e-05
3058 696 2.7126736111111112e-06
3059 696 2.7126736111111112e-06
3060 696 1.6276041666666666e-05
3062 696 1.6276041666666666e-05
3063 696 2.7126736111111112e-06
3153 696 1.6276041666666666e-05
3155 696 2.7126736111111112e-06
3156 696 1.6276041666666666e-05
3157 696 1.6276041666666666e-05
3158 696 1.6276041666666666e-05
3160 696 2.7126736111111112e-06
3251 696 2.7126736111111112e-06
697 697 0.00019531249999999998
698 697 1.0850694444444445e-05
728 697 1.0850694444444445e-05
729 697 1.0850694444444445e-05
3061 697 2.7126736111111112e-06
3062 697 2.7126736111111112e-06
3063 697 1.6276041666666666e-05
3065 697 1.6276041666666666e-05
3066 697 2.7126736111111112e-06
3156 697 1.6276041666666666e-05
3158 697 2.7126736111111112e-06
3159 697 1.6276041666666666e-05
3160 697 1.6276041666666666e-05
3161 697 1.6276041666666666e-05
3163 697 2.7126736111111112e-06
3254 697 2.7126736111111112e-06
698 698 0.00019531249999999998
699 698 1.0850694444444445e-05
729 698 1.0850694444444445e-05
730 698 1.0850694444444445e-05
3064 698 2.7126736111111112e-06
3065 698 2.7126736111111112e-06
3066 698 1.6276041666666666e-05
3068 698 1.6276041666666666e-05
3069 698 2.7126736111111112e-06
3159 698 1.6276041666666666e-05
3161 698 2.7126736111111112e-06
3162 698 1.6276041666666666e-05
3163 698 1.6276041666666666e-05
3164 698 1.6276041666666666e-05
3166 698 2.7126736111111112e-06
3257 698 2.7126736111111112e-06
699 699 0.00019531249999999998
700 699 1.0850694444444445e-05
730 699 1.0850694444444445e-05
731 699 1.0850694444444445e-05
3067 699 2.7126736111111112e-06
3068 699 2.7126736111111112e-06
3069 699 1.6276041666666666e-05
3071 699 1.6276041666666666e-05
3072 699 2.7126736111111112e-06
3162 699 1.6276041666666666e-05
3164 699 2.7126736111111112e-06
3165 699 1.6276041666666666e-05
3166 699 1.6276041666666666e-05
3167 699 1.6276041666666666e-05
3169 699 2.7126736111111112e-06
3260 699 2.7126736111111112e-06
700 700 0.00019531249999999998
701 700 1.0850694444444445e-05
731 700 1.0850694444444445e-05
732 700 1.0850694444444445e-05
3070 700 2.7126736111111112e-06
3071 700 2.7126736111111112e-06
3072 700 1.6276041666666666e-05
3074 700 1.6276041666666666e-05
3075 700 2.7126736111111112e-06
3165 700 1.6276041666666666e-05
3167 700 2.7126736111111112e-06
3168 700 1.6276041666666666e-05
3169 700 1.6276041666666666e-05
3170 700 1.6276041666666666e-05
3172 700 2.7126736111111112e-06
3263 700 2.7126736111111112e-06
701 701 0.00019531249999999998
702 701 1.0850694444444445e-05
732 701 1.0850694444444445e-05
733 701 1.0850694444444445e-05
3073 701 2.7126736111111112e-06
3074 701 2.7126736111111112e-06
3075 701 1.6276041666666666e-05
3077 701 1.6276041666666666e-05
3078 701 2.7126736111111112e-06
3168 701 1.6276041666666666e-05
3170 701 2.7126736111111112e-06
3171 701 1.6276041666666666e-05
3172 701 1.6276041666666666e-05
3173 701 1.6276041666666666e-05
3175 701 2.7126736111111112e-06
3266 701 2.7126736111111112e-06
702 702 0.00019531249999999998
703 702 1.0850694444444445e-05
733 702 1.0850694444444445e-05
734 702 1.0850694444444445e-05
3076 702 2.7126736111111112e-06
3077 702 2.7126736111111112e-06
3078 702 1.6276041666666666e-05
3080 702 1.6276041666666666e-05
3081 702 2.7126736111111112e-06
3171 702 1.6276041666666666e-05
3173 702 2.7126736111111112e-06
3174 702 1.6276041666666666e-05
3175 702 1.6276041666666666e-05
3176 702 1.6276041666666666e-05
3178 702 2.7126736111111112e-06
3269 702 2.7126736111111112e-06
703 703 0.00019531249999999998
704 703 1.0850694444444445e-05
734 703 1.0850694444444445e-05
735 703 1.0850694444444445e-05
3079 703 2.7126736111111112e-06
3080 703 2.7126736111111112e-06
3081 703 1.6276041666666666e-05
3083 703 1.6276041666666666e-05
3084 703 2.7126736111111112e-06
3174 703 1.6276041666666666e-05
3176 703 2.7126736111111112e-06
3177 703 1.6276041666666666e-05
3178 703 1.6276041666666666e-05
3179 703 1.6276041666666666e-05
3181 703 2.7126736111111112e-06
3272 703 2.7126736111111112e-06
704 704 0.00019531249999999998
705 704 1.0850694444444445e-05
735 704 1.0850694444444445e-05
736 704 1.0850694444444445e-05
3082 704 2.7126736111111112e-06
3083 704 2.7126736111111112e-06
3084 704 1.6276041666666666e-05
3086 704 1.6276041666666666e-05
3087 704 2.7126736111111112e-06
3177 704 1.6276041666666666e-05
3179 704 2.7126736111111112e-06
3180 704 1.6276041666666666e-05
3181 704 1.6276041666666666e-05
3182 704 1.6276041666666666e-05
3184 704 2.7126736111111112e-06
3275 704 2.7126736111111112e-06
705 705 0.00019531249999999998
706 705 1.0850694444444445e-05
736 705 1.0850694444444445e-05
737 705 1.0850694444444445e-05
3085 705 2.7126736111111112e-06
3086 705 2.7126736111111112e-06
3087 705 1.6276041666666666e-05
3089 705 1.6276041666666666e-05
3090 705 2.7126736111111112e-06
3180 705 1.6276041666666666e-05
3182 705 2.7126736111111112e-06
3183 705 1.6276041666666666e-05
3184 705 1.6276041666666666e-05
3185 705 1.6276041666666666e-05
3187 705 2.7126736111111112e-06
3278 705 2.7126736111111112e-06
706 706 0.00019531249999999998
707 706 1.0850694444444445e-05
737 706 1.0850694444444445e-05
738 706 1.0850694444444445e-05
3088 706 2.7126736111111112e-06
3089 706 2.7126736111111112e-06
3090 706 1.6276041666666666e-05
3092 706 1.6276041666666666e-05
3093 706 2.7126736111111112e-06
3183 706 1.6276041666666666e-05
3185 706 2.7126736111111112e-06
3186 706 1.6276041666666666e-05
3187 706 1.6276041666666666e-05
3188 706 1.6276041666666666e-05
3190 706 2.7126736111111112e-06
3281 706 2.7126736111111112e-06
707 707 0.00019531249999999998
708 707 1.0850694444444445e-05
738 707 1.0850694444444445e-05
739 707 1.0850694444444445e-05
3091 707 2.7126736111111112e-06
3092 707 2.7126736111111112e-06
3093 707 1.6276041666666666e-05
3095 707 1.6276041666666666e-05
3096 707 2.7126736111111112e-06
3186 707 1.6276041666666666e-05
3188 707 2.7126736111111112e-06
3189 707 1.6276041666666666e-05
3190 707 1.6276041666666666e-05
3191 707 1.6276041666666666e-05
3193 707 2.7126736111111112e-06
3284 707 2.7126736111111112e-06
708 708 0.00019531249999999998
709 708 1.0850694444444445e-05
739 708 1.0850694444444445e-05
740 708 1.0850694444444445e-05
3094 708 2.7126736111111112e-06
3095 708 2.7126736111111112e-06
3096 708 1.6276041666666666e-05
3098 708 1.6276041666666666e-05
3099 708 2.7126736111111112e-06
3189 708 1.6276041666666666e-05
3191 708 2.7126736111111112e-06
3192 708 1.6276041666666666e-05
3193 708 1.6276041666666666e-05
3194 708 1.6276041666666666e-05
3196 708 2.7126736111111112e-06
3287 708 2.7126736111111112e-06
709 709 0.00019531249999999998
710 709 1.0850694444444445e-05
740 709 1.0850694444444445e-05
741 709 1.0850694444444445e-05
3097 709 2.7126736111111112e-06
3098 709 2.7126736111111112e-06
3099 709 1.6276041666666666e-05
3101 709 1.6276041666666666e-05
3102 709 2.7126736111111112e-06
3192 709 1.6276041666666666e-05
3194 709 2.7126736111111112e-06
3195 709 1.6276041666666666e-05
3196 709 1.6276041666666666e-05
3197 709 1.6276041666666666e-05
3199 709 2.7126736111111112e-06
3290 709 2.7126736111111112e-06
710 710 0.00019531249999999998
711 710 1.0850694444444445e-05
741 710 1.0850694444444445e-05
742 710 1.0850694444444445e-05
3100 710 2.7126736111111112e-06
3101 710 2.7126736111111112e-06
3102 710 1.6276041666666666e-05
3104 710 1.6276041666666666e-05
3105 710 2.7126736111111112e-06
3195 710 1.6276041666666666e-05
3197 710 2.7126736111111112e-06
3198 710 1.6276041666666666e-05
3199 710 1.6276041666666666e-05
3200 710 1.6276041666666666e-05
3202 710 2.7126736111111112e-06
3293 710 2.7126736111111112e-06
711 711 0.00019531249999999998
712 711 1.0850694444444445e-05
742 711 1.0850694444444445e-05
743 711 1.0850694444444445e-05
3103 711 2.7126736111111112e-06
3104 711 2.7126736111111112e-06
3105 711 1.6276041666666666e-05
3107 711 1.6276041666666666e-05
3108 711 2.7126736111111112e-06
3198 711 1.6276041666666666e-05
3200 711 2.7126736111111112e-06
3201 711 1.6276041666666666e-05
3202 711 1.6276041666666666e-05
3203 711 1.6276041666666666e-05
3205 711 2.7126736111111112e-06
3296 711 2.7126736111111112e-06
712 712 0.00019531249999999998
713 712 1.0850694444444445e-05
743 712 1.0850694444444445e-05
744 712 1.0850694444444445e-05
3106 712 2.7126736111111112e-06
3107 712 2.7126736111111112e-06
3108 712 1.6276041666666666e-05
3110 712 1.6276041666666666e-05
3111 712 2.7126736111111112e-06
3201 712 1.6276041666666666e-05
3203 712 2.7126736111111112e-06
3204 712 1.6276041666666666e-05
3205 712 1.6276041666666666e-05
3206 712 1.6276041666666666e-05
3208 712 2.7126736111111112e-06
3299 712 2.7126736111111112e-06
713 713 0.00019531249999999998
744 713 1.0850694444444445e-05
3109 713 2.7126736111111112e-06
3110 713 2.7126736111111112e-06
3111 713 1.6276041666666666e-05
3113 713 1.6276041666666666e-05
3114 713 2.7126736111111112e-06
3204 713 1.6276041666666666e-05
3206 713 2.7126736111111112e-06
3207 713 1.6276041666666666e-05
3208 713 1.6276041666666666e-05
3209 713 1.6276041666666666e-05
3302 713 2.7126736111111112e-06
714 714 0.00019531249999999998
715 714 1.0850694444444445e-05
745 714 1.0850694444444445e-05
746 714 1.0850694444444445e-05
3115 714 2.7126736111111112e-06
3116 714 1.6276041666666666e-05
3118 714 1.6276041666666666e-05
3119 714 2.7126736111111112e-06
3210 714 1.6276041666666666e-05
3211 714 2.7126736111111112e-06
3212 714 1.6276041666666666e-05
3213 714 1.6276041666666666e-05
3214 714 1.6276041666666666e-05
3216 714 2.7126736111111112e-06
3307 714 2.7126736111111112e-06
715 715 0.00019531249999999998
716 715 1.0850694444444445e-05
746 715 1.0850694444444445e-05
747 715 1.0850694444444445e-05
3117 715 2.7126736111111112e-06
3118 715 2.7126736111111112e-06
3119 715 1.6276041666666666e-05
3121 715 1.6276041666666666e-05
3122 715 2.7126736111111112e-06
3212 715 1.6276041666666666e-05
3214 715 2.7126736111111112e-06
3215 715 1.6276041666666666e-05
3216 715 1.6276041666666666e-05
3217 715 1.6276041666666666e-05
3219 715 2.7126736111111112e-06
3310 715 2.7126736111111112e-06
716 716 0.00019531249999999998
717 716 1.0850694444444445e-05
747 716 1.0850694444444445e-05
748 716 1.0850694444444445e-05
3120 716 2.7126736111111112e-06
3121 716 2.7126736111111112e-06
3122 716 1.6276041666666666e-05
3124 716 1.6276041666666666e-05
3125 716 2.7126736111111112e-06
3215 716 1.6276041666666666e-05
3217 716 2.7126736111111112e-06
3218 716 1.6276041666666666e-05
3219 716 1.6276041666666666e-05
3220 716 1.6276041666666666e-05
3222 716 2.7126736111111112e-06
3313 716 2.7126736111111112e-06
717 717 0.00019531249999999998
718 717 1.0850694444444445e-05
748 717 1.0850694444444445e-05
749 717 1.0850694444444445e-05
3123 717 2.7126736111111112e-06
3124 717 2.7126736111111112e-06
3125 717 1.6276041666666666e-05
3127 717 1.6276041666666666e-05
3128 717 2.7126736111111112e-06
3218 717 1.6276041666666666e-05
3220 717 2.7126736111111112e-06
3221 717 1.6276041666666666e-05
3222 717 1.6276041666666666e-05
3223 717 1.6276041666666666e-05
3225 717 2.7126736111111112e-06
3316 717 2.7126736111111112e-06
718 718 0.00019531249999999998
719 718 1.0850694444444445e-05
749 718 1.0850694444444445e-05
750 718 1.0850694444444445e-05
3126 718 2.7126736111111112e-06
3127 718 2.7126736111111112e-06
3128 718 1.6276041666666666e-05
3130 718 1.6276041666666666e-05
3131 718 2.7126736111111112e-06
3221 718 1.6276041666666666e-05
3223 718 2.7126736111111112e-06
3224 718 1.6276041666666666e-05
3225 718 1.6276041666666666e-05
3226 718 1.6276041666666666e-05
3228 718 2.7126736111111112e-06
3319 718 2.7126736111111112e-06
719 719 0.00019531249999999998
720 719 1.0850694444444445e-05
750 719 1.0850694444444445e-05
751 719 1.0850694444444445e-05
3129 719 2.7126736111111112e-06
3130 719 2.7126736111111112e-06
3131 719 1.6276041666666666e-05
3133 719 1.6276041666666666e-05
3134 719 2.7126736111111112e-06
3224 719 1.6276041666666666e-05
3226 719 2.7126736111111112e-06
3227 719 1.6276041666666666e-05
3228 719 1.6276041666666666e-05
3229 719 1.6276041666666666e-05
3231 719 2.7126736111111112e-06
3322 719 2.7126736111111112e-06
720 720 0.00019531249999999998
721 720 1.0850694444444445e-05
751 720 1.0850694444444445e-05
752 720 1.0850694444444445e-05
3132 720 2.7126736111111112e-06
3133 720 2.7126736111111112e-06
3134 720 1.6276041666666666e-05
3136 720 1.6276041666666666e-05
3137 720 2.7126736111111112e-06
3227 720 1.6276041666666666e-05
3229 720 2.7126736111111112e-06
3230 720 1.6276041666666666e-05
3231 720 1.6276041666666666e-05
3232 720 1.6276041666666666e-05
3234 720 2.7126736111111112e-06
3325 720 2.7126736111111112e-06
721 721 0.00019531249999999998
722 721 1.0850694444444445e-05
752 721 1.0850694444444445e-05
753 721 1.0850694444444445e-05
3135 721 2.7126736111111112e-06
3136 721 2.7126736111111112e-06
3137 721 1.6276041666666666e-05
3139 721 1.6276041666666666e-05
3140 721 2.7126736111111112e-06
3230 721 1.6276041666666666e-05
3232 721 2.7126736111111112e-06
3233 721 1.6276041666666666e-05
3234 721 1.6276041666666666e-05
3235 721 1.6276041666666666e-05
3237 721 2.7126736111111112e-06
3328 721 2.7126736111111112e-06
722 722 0.00019531249999999998
723 722 1.0850694444444445e-05
753 722 1.0850694444444445e-05
754 722 1.0850694444444445e-05
3138 722 2.7126736111111112e-06
3139 722 2.7126736111111112e-06
3140 722 1.6276041666666666e-05
3142 722 1.6276041666666666e-05
3143 722 2.7126736111111112e-06
3233 722 1.6276041666666666e-05
3235 722 2.7126736111111112e-06
3236 722 1.6276041666666666e-05
3237 722 1.6276041666666666e-05
3238 722 1.6276041666666666e-05
3240 722 2.7126736111111112e-06
3331 722 2.7126736111111112e-06
723 723 0.00019531249999999998
724 723 1.0850694444444445e-05
754 723 1.0850694444444445e-05
755 723 1.0850694444444445e-05
3141 723 2.7126736111111112e-06
3142 723 2.7126736111111112e-06
3143 723 1.6276041666666666e-05
3145 723 1.6276041666666666e-05
3146 723 2.7126736111111112e-06
3236 723 1.6276041666666666e-05
3238 723 2.7126736111111112e-06
3239 723 1.6276041666666666e-05
3240 723 1.6276041666666666e-05
3241 723 1.6276041666666666e-05
3243 723 2.7126736111111112e-06
3334 723 2.7126736111111112e-06
724 724 0.00019531249999999998
725 724 1.0850694444444445e-05
755 724 1.0850694444444445e-05
756 724 1.0850694444444445e-05
3144 724 2.7126736111111112e-06
3145 724 2.7126736111111112e-06
3146 724 1.6276041666666666e-05
3148 724 1.6276041666666666e-05
3149 724 2.7126736111111112e-06
3239 724 1.6276041666666666e-05
3241 724 2.7126736111111112e-06
3242 724 1.6276041666666666e-05
3243 724 1.6276041666666666e-05
3244 724 1.6276041666666666e-05
3246 724 2.7126736111111112e-06
3337 724 2.7126736111111112e-06
725 725 0.00019531249999999998
726 725 1.0850694444444445e-05
756 725 1.0850694444444445e-05
757 725 1.0850694444444445e-05
3147 725 2.7126736111111112e-06
3148 725 2.7126736111111112e-06
3149 725 1.6276041666666666e-05
3151 725 1.6276041666666666e-05
3152 725 2.7126736111111112e-06
3242 725 1.6276041666666666e-05
3244 725 2.7126736111111112e-06
3245 725 1.6276041666666666e-05
3246 725 1.6276041666666666e-05
3247 725 1.6276041666666666e-05
3249 725 2.7126736111111112e-06
3340 725 2.7126736111111112e-06
726 726 0.00019531249999999998
727 726 1.0850694444444445e-05
757 726 1.0850694444444445e-05
758 726 1.0850694444444445e-05
3150 726 2.7126736111111112e-06
3151 726 2.7126736111111112e-06
3152 726 1.6276041666666666e-05
3154 726 1.6276041666666666e-05
3155 726 2.7126736111111112e-06
3245 726 1.6276041666666666e-05
3247 726 2.7126736111111112e-06
3248 726 1.6276041666666666e-05
3249 726 1.6276041666666666e-05
3250 726 1.6276041666666666e-05
3252 726 2.7126736111111112e-06
3343 726 2.7126736111111112e-06
727 727 0.00019531249999999998
728 727 1.0850694444444445e-05
758 727 1.0850694444444445e-05
759 727 1.0850694444444445e-05
3153 727 2.7126736111111112e-06
3154 727 2.7126736111111112e-06
3155 727 1.6276041666666666e-05
3157 727 1.6276041666666666e-05
3158 727 2.7126736111111112e-06
3248 727 1.6276041666666666e-05
3250 727 2.7126736111111112e-06
3251 727 1.6276041666666666e-05
3252 727 1.6276041666666666e-05
3253 727 1.6276041666666666e-05
3255 727 2.7126736111111112e-06
3346 727 2.7126736111111112e-06
728 728 0.00019531249999999998
729 728 1.0850694444444445e-05
759 728 1.0850694444444445e-05
760 728 1.0850694444444445e-05
3156 728 2.7126736111111112e-06
3157 728 2.7126736111111112e-06
3158 728 1.6276041666666666e-05
3160 728 1.6276041666666666e-05
3161 728 2.7126736111111112e-06
3251 728 1.6276041666666666e-05
3253 728 2.7126736111111112e-06
3254 728 1.6276041666666666e-05
3255 728 1.6276041666666666e-05
3256 728 1.6276041666666666e-05
3258 728 2.7126736111111112e-06
3349 728 2.7126736111111112e-06
729 729 0.00019531249999999998
730 729 1.0850694444444445e-05
760 729 1.0850694444444445e-05
761 729 1.0850694444444445e-05
3159 729 2.7126736111111112e-06
3160 729 2.7126736111111112e-06
3161 729 1.6276041666666666e-05
3163 729 1.6276041666666666e-05
3164 729 2.7126736111111112e-06
3254 729 1.6276041666666666e-05
3256 729 2.7126736111111112e-06
3257 729 1.6276041666666666e-05
3258 729 1.6276041666666666e-05
3259 729 1.6276041666666666e-05
3261 729 2.7126736111111112e-06
3352 729 2.7126736111111112e-06
730 730 0.00019531249999999998
731 730 1.0850694444444445e-05
761 730 1.0850694444444445e-05
762 730 1.0850694444444445e-05
3162 730 2.7126736111111112e-06
3163 730 2.7126736111111112e-06
3164 730 1.6276041666666666e-05
3166 730 1.6276041666666666e-05
3167 730 2.7126736111111112e-06
3257 730 1.6276041666666666e-05
3259 730 2.7126736111111112e-06
3260 730 1.6276041666666666e-05
3261 730 1.6276041666666666e-05
3262 730 1.6276041666666666e-05
3264 730 2.7126736111111112e-06
3355 730 2.7126736111111112e-06
731 731 0.00019531249999999998
732 731 1.0850694444444445e-05
762 731 1.0850694444444445e-05
763 731 1.0850694444444445e-05
3165 731 2.7126736111111112e-06
3166 731 2.7126736111111112e-06
3167 731 1.6276041666666666e-05
3169 731 1.6276041666666666e-05
3170 731 2.7126736111111112e-06
3260 731 1.6276041666666666e-05
3262 731 2.7126736111111112e-06
3263 731 1.6276041666666666e-05
3264 731 1.6276041666666666e-05
3265 731 1.6276041666666666e-05
3267 731 2.7126736111111112e-06
3358 731 2.7126736111111112e-06
732 732 0.00019531249999999998
733 732 1.0850694444444445e-05
763 732 1.0850694444444445e-05
764 732 1.0850694444444445e-05
3168 732 2.7126736111111112e-06
3169 732 2.7126736111111112e-06
3170 732 1.6276041666666666e-05
3172 732 1.6276041666666666e-05
3173 732 2.7126736111111112e-06
3263 732 1.6276041666666666e-05
3265 732 2.7126736111111112e-06
3266 732 1.6276041666666666e-05
3267 732 1.6276041666666666e-05
3268 732 1.6276041666666666e-05
3270 732 2.7126736111111112e-06
3361 732 2.7126736111111112e-06
733 733 0.00019531249999999998
734 733 1.0850694444444445e-05
764 733 1.0850694444444445e-05
765 733 1.0850694444444445e-05
3171 733 2.7126736111111112e-06
3172 733 2.7126736111111112e-06
3173 733 1.6276041666666666e-05
3175 733 1.6276041666666666e-05
3176 733 2.7126736111111112e-06
3266 733 1.6276041666666666e-05
3268 733 2.7126736111111112e-06
3269 733 1.6276041666666666e-05
3270 733 1.6276041666666666e-05
3271 733 1.6276041666666666e-05
3273 733 2.7126736111111112e-06
3364 733 2.7126736111111112e-06
734 734 0.00019531249999999998
735 734 1.0850694444444445e-05
765 734 1.0850694444444445e-05
766 734 1.0850694444444445e-05
3174 734 2.7126736111111112e-06
3175 734 2.7126736111111112e-06
3176 734 1.6276041666666666e-05
3178 734 1.6276041666666666e-05
3179 734 2.7126736111111112e-06
3269 734 1.6276041666666666e-05
3271 734 2.7126736111111112e-06
3272 734 1.6276041666666666e-05
3273 734 1.6276041666666666e-05
3274 734 1.6276041666666666e-05
3276 734 2.7126736111111112e-06
3367 734 2.7126736111111112e-06
735 735 0.00019531249999999998
736 735 1.0850694444444445e-05
766 735 1.0850694444444445e-05
767 735 1.0850694444444445e-05
3177 735 2.7126736111111112e-06
3178 735 2.7126736111111112e-06
3179 735 1.6276041666666666e-05
3181 735 1.6276041666666666e-05
3182 735 2.7126736111111112e-06
3272 735 1.6276041666666666e-05
3274 735 2.7126736111111112e-06
3275 735 1.6276041666666666e-05
3276 735 1.6276041666666666e-05
3277 735 1.6276041666666666e-05
3279 735 2.7126736111111112e-06
3370 735 2.7126736111111112e-06
736 736 0.00019531249999999998
737 736 1.0850694444444445e-05
767 736 1.0850694444444445e-05
768 736 1.0850694444444445e-05
3180 736 2.7126736111111112e-06
3181 736 2.7126736111111112e-06
3182 736 1.6276041666666666e-05
3184 736 1.6276041666666666e-05
3185 736 2.7126736111111112e-06
3275 736 1.6276041666666666e-05
3277 736 2.7126736111111112e-06
3278 736 1.6276041666666666e-05
3279 736 1.6276041666666666e-05
3280 736 1.6276041666666666e-05
3282 736 2.7126736111111112e-06
3373 736 2.7126736111111112e-06
737 737 0.00019531249999999998
738 737 1.0850694444444445e-05
768 737 1.0850694444444445e-05
769 737 1.0850694444444445e-05
3183 737 2.7126736111111112e-06
3184 737 2.7126736111111112e-06
3185 737 1.6276041666666666e-05
3187 737 1.6276041666666666e-05
3188 737 2.7126736111111112e-06
3278 737 1.6276041666666666e-05
3280 737 2.7126736111111112e-06
3281 737 1.6276041666666666e-05
3282 737 1.6276041666666666e-05
3283 737 1.6276041666666666e-05
3285 737 2.7126736111111112e-06
3376 737 2.7126736111111112e-06
738 738 0.00019531249999999998
739 738 1.0850694444444445e-05
769 738 1.0850694444444445e-05
770 738 1.0850694444444445e-05
3186 738 2.7126736111111112e-06
3187 738 2.7126736111111112e-06
3188 738 1.6276041666666666e-05
3190 738 1.6276041666666666e-05
3191 738 2.7126736111111112e-06
3281 738 1.6276041666666666e-05
3283 738 2.7126736111111112e-06
3284 738 1.6276041666666666e-05
3285 738 1.6276041666666666e-05
3286 738 1.6276041666666666e-05
3288 738 2.7126736111111112e-06
3379 738 2.7126736111111112e-06
739 739 0.00019531249999999998
740 739 1.0850694444444445e-05
770 739 1.0850694444444445e-05
771 739 1.0850694444444445e-05
3189 739 2.7126736111111112e-06
3190 739 2.7126736111111112e-06
3191 739 1.6276041666666666e-05
3193 739 1.6276041666666666e-05
3194 739 2.7126736111111112e-06
3284 739 1.6276041666666666e-05
3286 739 2.7126736111111112e-06
3287 739 1.6276041666666666e-05
3288 739 1.6276041666666666e-05
3289 739 1.6276041666666666e-05
3291 739 2.7126736111111112e-06
3382 739 2.7126736111111112e-06
740 740 0.00019531249999999998
741 740 1.0850694444444445e-05
771 740 1.0850694444444445e-05
772 740 1.0850694444444445e-05
3192 740 2.7126736111111112e-06
3193 740 2.7126736111111112e-06
3194 740 1.6276041666666666e-05
3196 740 1.6276041666666666e-05
3197 740 2.7126736111111112e-06
3287 740 1.6276041666666666e-05
3289 740 2.7126736111111112e-06
3290 740 1.6276041666666666e-05
3291 740 1.6276041666666666e-05
3292 740 1.6276041666666666e-05
3294 740 2.7126736111111112e-06
3385 740 2.7126736111111112e-06
741 741 0.00019531249999999998
742 741 1.0850694444444445e-05
772 741 1.0850694444444445e-05
773 741 1.0850694444444445e-05
3195 741 2.7126736111111112e-06
3196 741 2.7126736111111112e-06
3197 741 1.6276041666666666e-05
3199 741 1.6276041666666666e-05
3200 741 2.7126736111111112e-06
3290 741 1.6276041666666666e-05
3292 741 2.7126736111111112e-06
3293 741 1.6276041666666666e-05
3294 741 1.6276041666666666e-05
3295 741 1.6276041666666666e-05
3297 741 2.7126736111111112e-06
3388 741 2.7126736111111112e-06
742 742 0.00019531249999999998
743 742 1.0850694444444445e-05
773 742 1.0850694444444445e-05
774 742 1.0850694444444445e-05
3198 742 2.7126736111111112e-06
3199 742 2.7126736111111112e-06
3200 742 1.6276041666666666e-05
3202 742 1.6276041666666666e-05
3203 742 2.7126736111111112e-06
3293 742 1.6276041666666666e-05
3295 742 2.7126736111111112e-06
3296 742 1.6276041666666666e-05
3297 742 1.6276041666666666e-05
3298 742 1.6276041666666666e-05
3300 742 2.7126736111111112e-06
3391 742 2.7126736111111112e-06
743 743 0.00019531249999999998
744 743 1.0850694444444445e-05
774 743 1.0850694444444445e-05
775 743 1.0850694444444445e-05
3201 743 2.7126736111111112e-06
3202 743 2.7126736111111112e-06
3203 743 1.6276041666666666e-05
3205 743 1.6276041666666666e-05
3206 743 2.7126736111111112e-06
3296 743 1.6276041666666666e-05
3298 743 2.7126736111111112e-06
3299 743 1.6276041666666666e-05
3300 743 1.6276041666666666e-05
3301 743 1.6276041666666666e-05
3303 743 2.7126736111111112e-06
3394 743 2.7126736111111112e-06
744 744 0.00019531249999999998
775 744 1.0850694444444445e-05
3204 744 2.7126736111111112e-06
3205 744 2.7126736111111112e-06
3206 744 1.6276041666666666e-05
3208 744 1.6276041666666666e-05
3209 744 2.7126736111111112e-06
3299 744 1.6276041666666666e-05
3301 744 2.7126736111111112e-06
3302 744 1.6276041666666666e-05
3303 744 1.6276041666666666e-05
3304 744 1.6276041666666666e-05
3397 744 2.7126736111111112e-06
745 745 0.00019531249999999998
746 745 1.0850694444444445e-05
776 745 1.0850694444444445e-05
777 745 1.0850694444444445e-05
3210 745 2.7126736111111112e-06
3211 745 1.6276041666666666e-05
3213 745 1.6276041666666666e-05
3214 745 2.7126736111111112e-06
3305 745 1.6276041666666666e-05
3306 745 2.7126736111111112e-06
3307 745 1.6276041666666666e-05
3308 745 1.6276041666666666e-05
3309 745 1.6276041666666666e-05
3311 745 2.7126736111111112e-06
3402 745 2.7126736111111112e-06
746 746 0.00019531249999999998
747 746 1.0850694444444445e-05
777 746 1.0850694444444445e-05
778 746 1.0850694444444445e-05
3212 746 2.7126736111111112e-06
3213 746 2.7126736111111112e-06
3214 746 1.6276041666666666e-05
3216 746 1.6276041666666666e-05
3217 746 2.7126736111111112e-06
3307 746 1.6276041666666666e-05
3309 746 2.7126736111111112e-06
3310 746 1.6276041666666666e-05
3311 746 1.6276041666666666e-05
3312 746 1.6276041666666666e-05
3314 746 2.7126736111111112e-06
3405 746 2.7126736111111112e-06
747 747 0.00019531249999999998
748 747 1.0850694444444445e-05
778 747 1.0850694444444445e-05
779 747 1.0850694444444445e-05
3215 747 2.7126736111111112e-06
3216 747 2.7126736111111112e-06
3217 747 1.6276041666666666e-05
3219 747 1.6276041666666666e-05
3220 747 2.7126736111111112e-06
3310 747 1.6276041666666666e-05
3312 747 2.7126736111111112e-06
3313 747 1.6276041666666666e-05
3314 747 1.6276041666666666e-05
3315 747 1.6276041666666666e-05
3317 747 2.7126736111111112e-06
3408 747 2.7126736111111112e-06
748 748 0.00019531249999999998
749 748 1.0850694444444445e-05
779 748 1.0850694444444445e-05
780 748 1.0850694444444445e-05
3218 748 2.7126736111111112e-06
3219 748 2.7126736111111112e-06
3220 748 1.6276041666666666e-05
3222 748 1.6276041666666666e-05
3223 748 2.7126736111111112e-06
3313 748 1.6276041666666666e-05
3315 748 2.7126736111111112e-06
3316 748 1.6276041666666666e-05
3317 748 1.6276041666666666e-05
3318 748 1.6276041666666666e-05
3320 748 2.7126736111111112e-06
3411 748 2.7126736111111112e-06
749 749 0.00019531249999999998
750 749 1.0850694444444445e-05
780 749 1.0850694444444445e-05
781 749 1.0850694444444445e-05
3221 749 2.7126736111111112e-06
3222 749 2.7126736111111112e-06
3223 749 1.6276041666666666e-05
3225 749 1.6276041666666666e-05
3226 749 2.7126736111111112e-06
3316 749 1.6276041666666666e-05
3318 749 2.7126736111111112e-06
3319 749 1.6276041666666666e-05
3320 749 1.6276041666666666e-05
3321 749 1.6276041666666666e-05
3323 749 2.7126736111111112e-06
3414 749 2.7126736111111112e-06
750 750 0.00019531249999999998
751 750 1.0850694444444445e-05
781 750 1.0850694444444445e-05
782 750 1.0850694444444445e-05
3224 750 2.7126736111111112e-06
3225 750 2.7126736111111112e-06
3226 750 1.6276041666666666e-05
3228 750 1.6276041666666666e-05
3229 750 2.7126736111111112e-06
3319 750 1.6276041666666666e-05
3321 750 2.7126736111111112e-06
3322 750 1.6276041666666666e-05
3323 750 1.6276041666666666e-05
3324 750 1.6276041666666666e-05
3326 750 2.7126736111111112e-06
3417 750 2.7126736111111112e-06
751 751 0.00019531249999999998
752 751 1.0850694444444445e-05
782 751 1.0850694444444445e-05
783 751 1.0850694444444445e-05
3227 751 2.7126736111111112e-06
3228 751 2.7126736111111112e-06
3229 751 1.6276041666666666e-05
3231 751 1.6276041666666666e-05
3232 751 2.7126736111111112e-06
3322 751 1.6276041666666666e-05
3324 751 2.7126736111111112e-06
3325 751 1.6276041666666666e-05
3326 751 1.6276041666666666e-05
3327 751 1.6276041666666666e-05
3329 751 2.7126736111111112e-06
3420 751 2.7126736111111112e-06
752 752 0.00019531249999999998
753 752 1.0850694444444445e-05
783 752 1.0850694444444445e-05
784 752 1.0850694444444445e-05
3230 752 2.7126736111111112e-06
3231 752 2.7126736111111112e-06
3232 752 1.6276041666666666e-05
3234 752 1.6276041666666666e-05
3235 752 2.7126736111111112e-06
3325 752 1.6276041666666666e-05
3327 752 2.7126736111111112e-06
3328 752 1.6276041666666666e-05
3329 752 1.6276041666666666e-05
3330 752 1.6276041666666666e-05
3332 752 2.7126736111111112e-06
3423 752 2.7126736111111112e-06
753 753 0.00019531249999999998
754 753 1.0850694444444445e-05
784 753 1.0850694444444445e-05
785 753 1.0850694444444445e-05
3233 753 2.7126736111111112e-06
3234 753 2.7126736111111112e-06
3235 753 1.6276041666666666e-05
3237 753 1.6276041666666666e-05
3238 753 2.7126736111111112e-06
3328 753 1.6276041666666666e-05
3330 753 2.7126736111111112e-06
3331 753 1.6276041666666666e-05
3332 753 1.6276041666666666e-05
3333 753 1.6276041666666666e-05
3335 753 2.7126736111111112e-06
3426 753 2.7126736111111112e-06
754 754 0.00019531249999999998
755 754 1.0850694444444445e-05
785 754 1.0850694444444445e-05
786 754 1.0850694444444445e-05
3236 754 2.7126736111111112e-06
3237 754 2.7126736111111112e-06
3238 754 1.6276041666666666e-05
3240 754 1.6276041666666666e-05
3241 754 2.7126736111111112e-06
3331 754 1.6276041666666666e-05
3333 754 2.7126736111111112e-06
3334 754 1.6276041666666666e-05
3335 754 1.6276041666666666e-05
3336 754 1.6276041666666666e-05
3338 754 2.7126736111111112e-06
3429 754 2.7126736111111112e-06
755 755 0.00019531249999999998
756 755 1.0850694444444445e-05
786 755 1.0850694444444445e-05
787 755 1.0850694444444445e-05
3239 755 2.7126736111111112e-06
3240 755 2.7126736111111112e-06
3241 755 1.6276041666666666e-05
3243 755 1.6276041666666666e-05
3244 755 2.7126736111111112e-06
3334 755 1.6276041666666666e-05
3336 755 2.7126736111111112e-06
3337 755 1.6276041666666666e-05
3338 755 1.6276041666666666e-05
3339 755 1.6276041666666666e-05
3341 755 2.7126736111111112e-06
3432 755 2.7126736111111112e-06
756 756 0.00019531249999999998
757 756 1.0850694444444445e-05
787 756 1.0850694444444445e-05
788 756 1.0850694444444445e-05
3242 756 2.7126736111111112e-06
3243 756 2.7126736111111112e-06
3244 756 1.6276041666666666e-05
3246 756 1.6276041666666666e-05
3247 756 2.7126736111111112e-06
3337 756 1.6276041666666666e-05
3339 756 2.7126736111111112e-06
3340 756 1.6276041666666666e-05
3341 756 1.6276041666666666e-05
3342 756 1.6276041666666666e-05
3344 756 2.7126736111111112e-06
3435 756 2.7126736111111112e-06
757 757 0.00019531249999999998
758 757 1.0850694444444445e-05
788 757 1.0850694444444445e-05
789 757 1.0850694444444445e-05
3245 757 2.7126736111111112e-06
3246 757 2.7126736111111112e-06
3247 757 1.6276041666666666e-05
3249 757 1.6276041666666666e-05
3250 757 2.7126736111111112e-06
3340 757 1.6276041666666666e-05
3342 757 2.7126736111111112e-06
3343 757 1.6276041666666666e-05
3344 757 1.6276041666666666e-05
3345 757 1.6276041666666666e-05
3347 757 2.7126736111111112e-06
3438 757 2.7126736111111112e-06
758 758 0.00019531249999999998
759 758 1.0850694444444445e-05
789 758 1.0850694444444445e-05
790 758 1.0850694444444445e-05
3248 758 2.7126736111111112e-06
3249 758 2.7126736111111112e-06
3250 758 1.6276041666666666e-05
3252 758 1.6276041666666666e-05
3253 758 2.7126736111111112e-06
3343 758 1.6276041666666666e-05
3345 758 2.7126736111111112e-06
3346 758 1.6276041666666666e-05
3347 758 1.6276041666666666e-05
3348 758 1.6276041666666666e-05
3350 758 2.7126736111111112e-06
3441 758 2.7126736111111112e-06
759 759 0.00019531249999999998
760 759 1.0850694444444445e-05
790 759 1.0850694444444445e-05
791 759 1.0850694444444445e-05
3251 759 2.7126736111111112e-06
3252 759 2.7126736111111112e-06
3253 759 1.6276041666666666e-05
3255 759 1.6276041666666666e-05
3256 759 2.7126736111111112e-06
3346 759 1.6276041666666666e-05
3348 759 2.7126736111111112e-06
3349 759 1.6276041666666666e-05
3350 759 1.6276041666666666e-05
3351 759 1.6276041666666666e-05
3353 759 2.7126736111111112e-06
3444 759 2.7126736111111112e-06
760 760 0.00019531249999999998
761 760 1.0850694444444445e-05
791 760 1.0850694444444445e-05
792 760 1.0850694444444445e-05
3254 760 2.7126736111111112e-06
3255 760 2.7126736111111112e-06
3256 760 1.6276041666666666e-05
3258 760 1.6276041666666666e-05
3259 760 2.7126736111111112e-06
3349 760 1.6276041666666666e-05
3351 760 2.7126736111111112e-06
3352 760 1.6276041666666666e-05
3353 760 1.6276041666666666e-05
3354 760 1.6276041666666666e-05
3356 760 2.7126736111111112e-06
3447 760 2.7126736111111112e-06
761 761 0.00019531249999999998
762 761 1.0850694444444445e-05
792 761 1.0850694444444445e-05
793 761 1.0850694444444445e-05
3257 761 2.7126736111111112e-06
3258 761 2.7126736111111112e-06
3259 761 1.6276041666666666e-05
3261 761 1.6276041666666666e-05
3262 761 2.7126736111111112e-06
3352 761 1.6276041666666666e-05
3354 761 2.7126736111111112e-06
3355 761 1.6276041666666666e-05
3356 761 1.6276041666666666e-05
3357 761 1.6276041666666666e-05
3359 761 2.7126736111111112e-06
3450 761 2.7126736111111112e-06
762 762 0.00019531249999999998
763 762 1.0850694444444445e-05
793 762 1.0850694444444445e-05
794 762 1.0850694444444445e-05
3260 762 2.7126736111111112e-06
3261 762 2.7126736111111112e-06
3262 762 1.6276041666666666e-05
3264 762 1.6276041666666666e-05
3265 762 2.7126736111111112e-06
3355 762 1.6276041666666666e-05
3357 762 2.7126736111111112e-06
3358 762 1.6276041666666666e-05
3359 762 1.6276041666666666e-05
3360 762 1.6276041666666666e-05
3362 762 2.7126736111111112e-06
3453 762 2.7126736111111112e-06
763 763 0.00019531249999999998
764 763 1.0850694444444445e-05
794 763 1.0850694444444445e-05
795 763 1.0850694444444445e-05
3263 763 2.7126736111111112e-06
3264 763 2.7126736111111112e-06
3265 763 1.6276041666666666e-05
3267 763 1.6276041666666666e-05
3268 763 2.7126736111111112e-06
3358 763 1.6276041666666666e-05
3360 763 2.7126736111111112e-06
3361 763 1.6276041666666666e-05
3362 763 1.6276041666666666e-05
3363 763 1.6276041666666666e-05
3365 763 2.7126736111111112e-06
3456 763 2.7126736111111112e-06
764 764 0.00019531249999999998
765 764 1.0850694444444445e-05
795 764 1.0850694444444445e-05
796 764 1.0850694444444445e-05
3266 764 2.7126736111111112e-06
3267 764 2.7126736111111112e-06
3268 764 1.6276041666666666e-05
3270 764 1.6276041666666666e-05
3271 764 2.7126736111111112e-06
3361 764 1.6276041666666666e-05
3363 764 2.7126736111111112e-06
3364 764 1.6276041666666666e-05
3365 764 1.6276041666666666e-05
3366 764 1.6276041666666666e-05
3368 764 2.7126736111111112e-06
3459 764 2.7126736111111112e-06
765 765 0.00019531249999999998
766 765 1.0850694444444445e-05
796 765 1.0850694444444445e-05
797 765 1.0850694444444445e-05
3269 765 2.7126736111111112e-06
3270 765 2.7126736111111112e-06
3271 765 1.6276041666666666e-05
3273 765 1.6276041666666666e-05
3274 765 2.7126736111111112e-06
3364 765 1.6276041666666666e-05
3366 765 2.7126736111111112e-06
3367 765 1.6276041666666666e-05
3368 765 1.6276041666666666e-05
3369 765 1.6276041666666666e-05
3371 765 2.7126736111111112e-06
3462 765 2.7126736111111112e-06
766 766 0.00019531249999999998
767 766 1.0850694444444445e-05
797 766 1.0850694444444445e-05
798 766 1.0850694444444445e-05
3272 766 2.7126736111111112e-06
3273 766 2.7126736111111112e-06
3274 766 1.6276041666666666e-05
3276 766 1.6276041666666666e-05
3277 766 2.7126736111111112e-06
3367 766 1.6276041666666666e-05
3369 766 2.7126736111111112e-06
3370 766 1.6276041666666666e-05
3371 766 1.6276041666666666e-05
3372 766 1.6276041666666666e-05
3374 766 2.7126736111111112e-06
3465 766 2.7126736111111112e-06
767 767 0.00019531249999999998
768 767 1.0850694444444445e-05
798 767 1.0850694444444445e-05
799 767 1.0850694444444445e-05
3275 767 2.7126736111111112e-06
3276 767 2.7126736111111112e-06
3277 767 1.6276041666666666e-05
3279 767 1.6276041666666666e-05
3280 767 2.7126736111111112e-06
3370 767 1.6276041666666666e-05
3372 767 2.7126736111111112e-06
3373 767 1.6276041666666666e-05
3374 767 1.6276041666666666e-05
3375 767 1.6276041666666666e-05
3377 767 2.7126736111111112e-06
3468 767 2.7126736111111112e-06
768 768 0.00019531249999999998
769 768 1.0850694444444445e-05
799 768 1.0850694444444445e-05
800 768 1.0850694444444445e-05
3278 768 2.7126736111111112e-06
3279 768 2.7126736111111112e-06
3280 768 1.6276041666666666e-05
3282 768 1.6276041666666666e-05
3283 768 2.7126736111111112e-06
3373 768 1.6276041666666666e-05
3375 768 2.7126736111111112e-06
3376 768 1.6276041666666666e-05
3377 768 1.6276041666666666e-05
3378 768 1.6276041666666666e-05
3380 768 2.7126736111111112e-06
3471 768 2.7126736111111112e-06
769 769 0.00019531249999999998
770 769 1.0850694444444445e-05
800 769 1.0850694444444445e-05
801 769 1.0850694444444445e-05
3281 769 2.7126736111111112e-06
3282 769 2.7126736111111112e-06
3283 769 1.6276041666666666e-05
3285 769 1.6276041666666666e-05
3286 769 2.7126736111111112e-06
3376 769 1.6276041666666666e-05
3378 769 2.7126736111111112e-06
3379 769 1.6276041666666666e-05
3380 769 1.6276041666666666e-05
3381 769 1.6276041666666666e-05
3383 769 2.7126736111111112e-06
3474 769 2.7126736111111112e-06
770 770 0.00019531249999999998
771 770 1.0850694444444445e-05
801 770 1.0850694444444445e-05
802 770 1.0850694444444445e-05
3284 770 2.7126736111111112e-06
3285 770 2.7126736111111112e-06
3286 770 1.6276041666666666e-05
3288 770 1.6276041666666666e-05
3289 770 2.7126736111111112e-06
3379 770 1.6276041666666666e-05
3381 770 2.7126736111111112e-06
3382 770 1.6276041666666666e-05
3383 770 1.6276041666666666e-05
3384 770 1.6276041666666666e-05
3386 770 2.7126736111111112e-06
3477 770 2.7126736111111112e-06
771 771 0.00019531249999999998
772 771 1.0850694444444445e-05
802 771 1.0850694444444445e-05
803 771 1.0850694444444445e-05
3287 771 2.7126736111111112e-06
3288 771 2.7126736111111112e-06
3289 771 1.6276041666666666e-05
3291 771 1.6276041666666666e-05
3292 771 2.7126736111111112e-06
3382 771 1.6276041666666666e-05
3384 771 2.7126736111111112e-06
3385 771 1.6276041666666666e-05
3386 771 1.6276041666666666e-05
3387 771 1.6276041666666666e-05
3389 771 2.7126736111111112e-06
3480 771 2.7126736111111112e-06
772 772 0.00019531249999999998
773 772 1.0850694444444445e-05
803 772 1.0850694444444445e-05
804 772 1.0850694444444445e-05
3290 772 2.7126736111111112e-06
3291 772 2.7126736111111112e-06
3292 772 1.6276041666666666e-05
3294 772 1.6276041666666666e-05
3295 772 2.7126736111111112e-06
3385 772 1.6276041666666666e-05
3387 772 2.7126736111111112e-06
3388 772 1.6276041666666666e-05
3389 772 1.6276041666666666e-05
3390 772 1.6276041666666666e-05
3392 772 2.7126736111111112e-06
3483 772 2.7126736111111112e-06
773 773 0.00019531249999999998
774 773 1.0850694444444445e-05
804 773 1.0850694444444445e-05
805 773 1.0850694444444445e-05
3293 773 2.7126736111111112e-06
3294 773 2.7126736111111112e-06
3295 773 1.6276041666666666e-05
3297 773 1.6276041666666666e-05
3298 773 2.7126736111111112e-06
3388 773 1.6276041666666666e-05
3390 773 2.7126736111111112e-06
3391 773 1.6276041666666666e-05
3392 773 1.6276041666666666e-05
3393 773 1.6276041666666666e-05
3395 773 2.7126736111111112e-06
3486 773 2.7126736111111112e-06
774 774 0.00019531249999999998
775 774 1.0850694444444445e-05
805 774 1.0850694444444445e-05
806 774 1.0850694444444445e-05
3296 774 2.7126736111111112e-06
3297 774 2.7126736111111112e-06
3298 774 1.6276041666666666e-05
3300 774 1.6276041666666666e-05
3301 774 2.7126736111111112e-06
3391 774 1.6276041666666666e-05
3393 774 2.7126736111111112e-06
3394 774 1.6276041666666666e-05
3395 774 1.6276041666666666e-05
3396 774 1.6276041666666666e-05
3398 774 2.7126736111111112e-06
3489 774 2.7126736111111112e-06
775 775 0.00019531249999999998
806 775 1.0850694444444445e-05
3299 775 2.7126736111111112e-06
3300 775 2.7126736111111112e-06
3301 775 1.6276041666666666e-05
3303 775 1.6276041666666666e-05
3304 775 2.7126736111111112e-06
3394 775 1.6276041666666666e-05
3396 775 2.7126736111111112e-06
3397 775 1.6276041666666666e-05
3398 775 1.6276041666666666e-05
3399 775 1.6276041666666666e-05
3492 775 2.7126736111111112e-06
776 776 0.00019531249999999998
777 776 1.0850694444444445e-05
807 776 1.0850694444444445e-05
808 776 1.0850694444444445e-05
3305 776 2.7126736111111112e-06
3306 776 1.6276041666666666e-05
3308 776 1.6276041666666666e-05
3309 776 2.7126736111111112e-06
3400 776 1.6276041666666666e-05
3401 776 2.7126736111111112e-06
3402 776 1.6276041666666666e-05
3403 776 1.6276041666666666e-05
3404 776 1.6276041666666666e-05
3406 776 2.7126736111111112e-06
3497 776 2.7126736111111112e-06
777 777 0.00019531249999999998
778 777 1.0850694444444445e-05
808 777 1.0850694444444445e-05
809 777 1.0850694444444445e-05
3307 777 2.7126736111111112e-06
3308 777 2.7126736111111112e-06
3309 777 1.6276041666666666e-05
3311 777 1.6276041666666666e-05
3312 777 2.7126736111111112e-06
3402 777 1.6276041666666666e-05
3404 777 2.7126736111111112e-06
3405 777 1.6276041666666666e-05
3406 777 1.6276041666666666e-05
3407 777 1.6276041666666666e-05
3409 777 2.7126736111111112e-06
3500 777 2.7126736111111112e-06
778 778 0.00019531249999999998
779 778 1.0850694444444445e-05
809 778 1.0850694444444445e-05
810 778 1.0850694444444445e-05
3310 778 2.7126736111111112e-06
3311 778 2.7126736111111112e-06
3312 778 1.6276041666666666e-05
3314 778 1.6276041666666666e-05
3315 778 2.7126736111111112e-06
3405 778 1.6276041666666666e-05
3407 778 2.7126736111111112e-06
3408 778 1.6276041666666666e-05
3409 778 1.6276041666666666e-05
3410 778 1.6276041666666666e-05
3412 778 2.7126736111111112e-06
3503 778 2.7126736111111112e-06
779 779 0.00019531249999999998
780 779 1.0850694444444445e-05
810 779 1.0850694444444445e-05
811 779 1.0850694444444445e-05
3313 779 2.7126736111111112e-06
3314 779 2.7126736111111112e-06
3315 779 1.6276041666666666e-05
3317 779 1.6276041666666666e-05
3318 779 2.7126736111111112e-06
3408 779 1.6276041666666666e-05
3410 779 2.7126736111111112e-06
3411 779 1.6276041666666666e-05
3412 779 1.6276041666666666e-05
3413 779 1.6276041666666666e-05
3415 779 2.7126736111111112e-06
3506 779 2.7126736111111112e-06
780 780 0.00019531249999999998
781 780 1.0850694444444445e-05
811 780 1.0850694444444445e-05
812 780 1.0850694444444445e-05
3316 780 2.7126736111111112e-06
3317 780 2.7126736111111112e-06
3318 780 1.6276041666666666e-05
3320 780 1.6276041666666666e-05
3321 780 2.7126736111111112e-06
3411 780 1.6276041666666666e-05
3413 780 2.7126736111111112e-06
3414 780 1.6276041666666666e-05
3415 780 1.6276041666666666e-05
3416 780 1.6276041666666666e-05
3418 780 2.7126736111111112e-06
3509 780 2.7126736111111112e-06
781 781 0.00019531249999999998
782 781 1.0850694444444445e-05
812 781 1.0850694444444445e-05
813 781 1.0850694444444445e-05
3319 781 2.7126736111111112e-06
3320 781 2.7126736111111112e-06
3321 781 1.6276041666666666e-05
3323 781 1.6276041666666666e-05
3324 781 2.7126736111111112e-06
3414 781 1.6276041666666666e-05
3416 781 2.7126736111111112e-06
3417 781 1.6276041666666666e-05
3418 781 1.6276041666666666e-05
3419 781 1.6276041666666666e-05
3421 781 2.7126736111111112e-06
3512 781 2.7126736111111112e-06
782 782 0.00019531249999999998
783 782 1.0850694444444445e-05
813 782 1.0850694444444445e-05
814 782 1.0850694444444445e-05
3322 782 2.7126736111111112e-06
3323 782 2.7126736111111112e-06
3324 782 1.6276041666666666e-05
3326 782 1.6276041666666666e-05
3327 782 2.7126736111111112e-06
3417 782 1.6276041666666666e-05
3419 782 2.7126736111111112e-06
3420 782 1.6276041666666666e-05
3421 782 1.6276041666666666e-05
3422 782 1.6276041666666666e-05
3424 782 2.7126736111111112e-06
3515 782 2.7126736111111112e-06
783 783 0.00019531249999999998
784 783 1.0850694444444445e-05
814 783 1.0850694444444445e-05
815 783 1.0850694444444445e-05
3325 783 2.7126736111111112e-06
3326 783 2.7126736111111112e-06
3327 783 1.6276041666666666e-05
3329 783 1.6276041666666666e-05
3330 783 2.7126736111111112e-06
3420 783 1.6276041666666666e-05
3422 783 2.7126736111111112e-06
3423 783 1.6276041666666666e-05
3424 783 1.6276041666666666e-05
3425 783 1.6276041666666666e-05
3427 783 2.7126736111111112e-06
3518 783 2.7126736111111112e-06
784 784 0.00019531249999999998
785 784 1.0850694444444445e-05
815 784 1.0850694444444445e-05
816 784 1.0850694444444445e-05
3328 784 2.7126736111111112e-06
3329 784 2.7126736111111112e-06
3330 784 1.6276041666666666e-05
3332 784 1.6276041666666666e-05
3333 784 2.7126736111111112e-06
3423 784 1.6276041666666666e-05
3425 784 2.7126736111111112e-06
3426 784 1.6276041666666666e-05
3427 784 1.6276041666666666e-05
3428 784 1.6276041666666666e-05
3430 784 2.7126736111111112e-06
3521 784 2.7126736111111112e-06
785 785 0.00019531249999999998
786 785 1.0850694444444445e-05
816 785 1.0850694444444445e-05
817 785 1.0850694444444445e-05
3331 785 2.7126736111111112e-06
3332 785 2.7126736111111112e-06
3333 785 1.6276041666666666e-05
3335 785 1.6276041666666666e-05
3336 785 2.7126736111111112e-06
3426 785 1.6276041666666666e-05
3428 785 2.7126736111111112e-06
3429 785 1.6276041666666666e-05
3430 785 1.6276041666666666e-05
3431 785 1.6276041666666666e-05
3433 785 2.7126736111111112e-06
3524 785 2.7126736111111112e-06
786 786 0.00019531249999999998
787 786 1.0850694444444445e-05
817 786 1.0850694444444445e-05
818 786 1.0850694444444445e-05
3334 786 2.7126736111111112e-06
3335 786 2.7126736111111112e-06
3336 786 1.6276041666666666e-05
3338 786 1.6276041666666666e-05
3339 786 2.7126736111111112e-06
3429 786 1.6276041666666666e-05
3431 786 2.7126736111111112e-06
3432 786 1.6276041666666666e-05
3433 786 1.6276041666666666e-05
3434 786 1.6276041666666666e-05
3436 786 2.7126736111111112e-06
3527 786 2.7126736111111112e-06
787 787 0.00019531249999999998
788 787 1.0850694444444445e-05
818 787 1.0850694444444445e-05
819 787 1.0850694444444445e-05
3337 787 2.7126736111111112e-06
3338 787 2.7126736111111112e-06
3339 787 1.6276041666666666e-05
3341 787 1.6276041666666666e-05
3342 787 2.7126736111111112e-06
3432 787 1.6276041666666666e-05
3434 787 2.7126736111111112e-06
3435 787 1.6276041666666666e-05
3436 787 1.6276041666666666e-05
3437 787 1.6276041666666666e-05
3439 787 2.7126736111111112e-06
3530 787 2.7126736111111112e-06
788 788 0.00019531249999999998
789 788 1.0850694444444445e-05
819 788 1.0850694444444445e-05
820 788 1.0850694444444445e-05
3340 788 2.7126736111111112e-06
3341 788 2.7126736111111112e-06
3342 788 1.6276041666666666e-05
3344 788 1.6276041666666666e-05
3345 788 2.7126736111111112e-06
3435 788 1.6276041666666666e-05
3437 788 2.7126736111111112e-06
3438 788 1.6276041666666666e-05
3439 788 1.6276041666666666e-05
3440 788 1.6276041666666666e-05
3442 788 2.7126736111111112e-06
3533 788 2.7126736111111112e-06
789 789 0.00019531249999999998
790 789 1.0850694444444445e-05
820 789 1.0850694444444445e-05
821 789 1.0850694444444445e-05
3343 789 2.7126736111111112e-06
3344 789 2.7126736111111112e-06
3345 789 1.6276041666666666e-05
3347 789 1.6276041666666666e-05
3348 789 2.7126736111111112e-06
3438 789 1.6276041666666666e-05
3440 789 2.7126736111111112e-06
3441 789 1.6276041666666666e-05
3442 789 1.6276041666666666e-05
3443 789 1.6276041666666666e-05
3445 789 2.7126736111111112e-06
3536 789 2.7126736111111112e-06
790 790 0.00019531249999999998
791 790 1.0850694444444445e-05
821 790 1.0850694444444445e-05
822 790 1.0850694444444445e-05
3346 790 2.7126736111111112e-06
3347 790 2.7126736111111112e-06
3348 790 1.6276041666666666e-05
3350 790 1.6276041666666666e-05
3351 790 2.7126736111111112e-06
3441 790 1.6276041666666666e-05
3443 790 2.7126736111111112e-06
3444 790 1.6276041666666666e-05
3445 790 1.6276041666666666e-05
3446 790 1.6276041666666666e-05
3448 790 2.7126736111111112e-06
3539 790 2.7126736111111112e-06
791 791 0.00019531249999999998
792 791 1.0850694444444445e-05
822 791 1.0850694444444445e-05
823 791 1.0850694444444445e-05
3349 791 2.7126736111111112e-06
3350 791 2.7126736111111112e-06
3351 791 1.6276041666666666e-05
3353 791 1.6276041666666666e-05
3354 791 2.7126736111111112e-06
3444 791 1.6276041666666666e-05
3446 791 2.7126736111111112e-06
3447 791 1.6276041666666666e-05
3448 791 1.6276041666666666e-05
3449 791 1.6276041666666666e-05
3451 791 2.7126736111111112e-06
3542 791 2.7126736111111112e-06
792 792 0.00019531249999999998
793 792 1.0850694444444445e-05
823 792 1.0850694444444445e-05
824 792 1.0850694444444445e-05
3352 792 2.7126736111111112e-06
3353 792 2.7126736111111112e-06
3354 792 1.6276041666666666e-05
3356 792 1.6276041666666666e-05
3357 792 2.7126736111111112e-06
3447 792 1.6276041666666666e-05
3449 792 2.7126736111111112e-06
3450 792 1.6276041666666666e-05
3451 792 1.6276041666666666e-05
3452 792 1.6276041666666666e-05
3454 792 2.7126736111111112e-06
3545 792 2.7126736111111112e-06
793 793 0.00019531249999999998
794 793 1.0850694444444445e-05
824 793 1.0850694444444445e-05
825 793 1.0850694444444445e-05
3355 793 2.7126736111111112e-06
3356 793 2.7126736111111112e-06
3357 793 1.6276041666666666e-05
3359 793 1.6276041666666666e-05
3360 793 2.7126736111111112e-06
3450 793 1.6276041666666666e-05
3452 793 2.7126736111111112e-06
3453 793 1.6276041666666666e-05
3454 793 1.6276041666666666e-05
3455 793 1.6276041666666666e-05
3457 793 2.7126736111111112e-06
3548 793 2.7126736111111112e-06
794 794 0.00019531249999999998
795 794 1.0850694444444445e-05
825 794 1.0850694444444445e-05
826 794 1.0850694444444445e-05
3358 794 2.7126736111111112e-06
3359 794 2.7126736111111112e-06
3360 794 1.6276041666666666e-05
3362 794 1.6276041666666666e-05
3363 794 2.7126736111111112e-06
3453 794 1.6276041666666666e-05
3455 794 2.7126736111111112e-06
3456 794 1.6276041666666666e-05
3457 794 1.6276041666666666e-05
3458 794 1.6276041666666666e-05
3460 794 2.7126736111111112e-06
3551 794 2.7126736111111112e-06
795 795 0.00019531249999999998
796 795 1.0850694444444445e-05
826 795 1.0850694444444445e-05
827 795 1.0850694444444445e-05
3361 795 2.7126736111111112e-06
3362 795 2.7126736111111112e-06
3363 795 1.6276041666666666e-05
3365 795 1.6276041666666666e-05
3366 795 2.7126736111111112e-06
3456 795 1.6276041666666666e-05
3458 795 2.7126736111111112e-06
3459 795 1.6276041666666666e-05
3460 795 1.6276041666666666e-05
3461 795 1.6276041666666666e-05
3463 795 2.7126736111111112e-06
3554 795 2.7126736111111112e-06
796 796 0.00019531249999999998
797 796 1.0850694444444445e-05
827 796 1.0850694444444445e-05
828 796 1.0850694444444445e-05
3364 796 2.7126736111111112e-06
3365 796 2.7126736111111112e-06
3366 796 1.6276041666666666e-05
3368 796 1.6276041666666666e-05
3369 796 2.7126736111111112e-06
3459 796 1.6276041666666666e-05
3461 796 2.7126736111111112e-06
3462 796 1.6276041666666666e-05
3463 796 1.6276041666666666e-05
3464 796 1.6276041666666666e-05
3466 796 2.7126736111111112e-06
3557 796 2.7126736111111112e-06
797 797 0.00019531249999999998
798 797 1.0850694444444445e-05
828 797 1.0850694444444445e-05
829 797 1.0850694444444445e-05
3367 797 2.7126736111111112e-06
3368 797 2.7126736111111112e-06
3369 797 1.6276041666666666e-05
3371 797 1.6276041666666666e-05
3372 797 2.7126736111111112e-06
3462 797 1.6276041666666666e-05
3464 797 2.7126736111111112e-06
3465 797 1.6276041666666666e-05
3466 797 1.6276041666666666e-05
3467 797 1.6276041666666666e-05
3469 797 2.7126736111111112e-06
3560 797 2.7126736111111112e-06
798 798 0.00019531249999999998
799 798 1.0850694444444445e-05
829 798 1.0850694444444445e-05
830 798 1.0850694444444445e-05
3370 798 2.7126736111111112e-06
3371 798 2.7126736111111112e-06
3372 798 1.6276041666666666e-05
3374 798 1.6276041666666666e-05
3375 798 2.7126736111111112e-06
3465 798 1.6276041666666666e-05
3467 798 2.7126736111111112e-06
3468 798 1.6276041666666666e-05
3469 798 1.6276041666666666e-05
3470 798 1.6276041666666666e-05
3472 798 2.7126736111111112e-06
3563 798 2.7126736111111112e-06
799 799 0.00019531249999999998
800 799 1.0850694444444445e-05
830 799 1.0850694444444445e-05
831 799 1.0850694444444445e-05
3373 799 2.7126736111111112e-06
3374 799 2.7126736111111112e-06
3375 799 1.6276041666666666e-05
3377 799 1.6276041666666666e-05
3378 799 2.7126736111111112e-06
3468 799 1.6276041666666666e-05
3470 799 2.7126736111111112e-06
3471 799 1.6276041666666666e-05
3472 799 1.6276041666666666e-05
3473 799 1.6276041666666666e-05
3475 799 2.7126736111111112e-06
3566 799 2.7126736111111112e-06
800 800 0.00019531249999999998
801 800 1.0850694444444445e-05
831 800 1.0850694444444445e-05
832 800 1.0850694444444445e-05
3376 800 2.7126736111111112e-06
3377 800 2.7126736111111112e-06
3378 800 1.6276041666666666e-05
3380 800 1.6276041666666666e-05
3381 800 2.7126736111111112e-06
3471 800 1.6276041666666666e-05
3473 800 2.7126736111111112e-06
3474 800 1.6276041666666666e-05
3475 800 1.6276041666666666e-05
3476 800 1.6276041666666666e-05
3478 800 2.7126736111111112e-06
3569 800 2.7126736111111112e-06
801 801 0.00019531249999999998
802 801 1.0850694444444445e-05
832 801 1.0850694444444445e-05
833 801 1.0850694444444445e-05
3379 801 2.7126736111111112e-06
3380 801 2.7126736111111112e-06
3381 801 1.6276041666666666e-05
3383 801 1.6276041666666666e-05
3384 801 2.7126736111111112e-06
3474 801 1.6276041666666666e-05
3476 801 2.7126736111111112e-06
3477 801 1.6276041666666666e-05
3478 801 1.6276041666666666e-05
3479 801 1.6276041666666666e-05
3481 801 2.7126736111111112e-06
3572 801 2.7126736111111112e-06
802 802 0.00019531249999999998
803 802 1.0850694444444445e-05
833 802 1.0850694444444445e-05
834 802 1.0850694444444445e-05
3382 802 2.7126736111111112e-06
3383 802 2.7126736111111112e-06
3384 802 1.6276041666666666e-05
3386 802 1.6276041666666666e-05
3387 802 2.7126736111111112e-06
3477 802 1.6276041666666666e-05
3479 802 2.7126736111111112e-06
3480 802 1.6276041666666666e-05
3481 802 1.6276041666666666e-05
3482 802 1.6276041666666666e-05
3484 802 2.7126736111111112e-06
3575 802 2.7126736111111112e-06
803 803 0.00019531249999999998
804 803 1.0850694444444445e-05
834 803 1.0850694444444445e-05
835 803 1.0850694444444445e-05
3385 803 2.7126736111111112e-06
3386 803 2.7126736111111112e-06
3387 803 1.6276041666666666e-05
3389 803 1.6276041666666666e-05
3390 803 2.7126736111111112e-06
3480 803 1.6276041666666666e-05
3482 803 2.7126736111111112e-06
3483 803 1.6276041666666666e-05
3484 803 1.6276041666666666e-05
3485 803 1.6276041666666666e-05
3487 803 2.7126736111111112e-06
3578 803 2.7126736111111112e-06
804 804 0.00019531249999999998
805 804 1.0850694444444445e-05
835 804 1.0850694444444445e-05
836 804 1.0850694444444445e-05
3388 804 2.7126736111111112e-06
3389 804 2.7126736111111112e-06
3390 804 1.6276041666666666e-05
3392 804 1.6276041666666666e-05
3393 804 2.7126736111111112e-06
3483 804 1.6276041666666666e-05
3485 804 2.7126736111111112e-06
3486 804 1.6276041666666666e-05
3487 804 1.6276041666666666e-05
3488 804 1.6276041666666666e-05
3490 804 2.7126736111111112e-06
3581 804 2.7126736111111112e-06
805 805 0.00019531249999999998
806 805 1.0850694444444445e-05
836 805 1.0850694444444445e-05
837 805 1.0850694444444445e-05
3391 805 2.7126736111111112e-06
3392 805 2.7126736111111112e-06
3393 805 1.6276041666666666e-05
3395 805 1.6276041666666666e-05
3396 805 2.7126736111111112e-06
3486 805 1.6276041666666666e-05
3488 805 2.7126736111111112e-06
3489 805 1.6276041666666666e-05
3490 805 1.6276041666666666e-05
3491 805 1.6276041666666666e-05
3493 805 2.7126736111111112e-06
3584 805 2.7126736111111112e-06
806 806 0.00019531249999999998
837 806 1.0850694444444445e-05
3394 806 2.7126736111111112e-06
3395 806 2.7126736111111112e-06
3396 806 1.6276041666666666e-05
3398 806 1.6276041666666666e-05
3399 806 2.7126736111111112e-06
3489 806 1.6276041666666666e-05
3491 806 2.7126736111111112e-06
3492 806 1.6276041666666666e-05
3493 806 1.6276041666666666e-05
3494 806 1.6276041666666666e-05
3587 806 2.7126736111111112e-06
807 807 0.00019531249999999998
808 807 1.0850694444444445e-05
838 807 1.0850694444444445e-05
839 807 1.0850694444444445e-05
3400 807 2.7126736111111112e-06
3401 807 1.6276041666666666e-05
3403 807 1.6276041666666666e-05
3404 807 2.7126736111111112e-06
3495 807 1.6276041666666666e-05
3496 807 2.7126736111111112e-06
3497 807 1.6276041666666666e-05
3498 807 1.6276041666666666e-05
3499 807 1.6276041666666666e-05
3501 807 2.7126736111111112e-06
3592 807 2.7126736111111112e-06
808 808 0.00019531249999999998
809 808 1.0850694444444445e-05
839 808 1.0850694444444445e-05
840 808 1.0850694444444445e-05
3402 808 2.7126736111111112e-06
3403 808 2.7126736111111112e-06
3404 808 1.6276041666666666e-05
3406 808 1.6276041666666666e-05
3407 808 2.7126736111111112e-06
3497 808 1.6276041666666666e-05
3499 808 2.7126736111111112e-06
3500 808 1.6276041666666666e-05
3501 808 1.6276041666666666e-05
3502 808 1.6276041666666666e-05
3504 808 2.7126736111111112e-06
3595 808 2.7126736111111112e-06
809 809 0.00019531249999999998
810 809 1.0850694444444445e-05
840 809 1.0850694444444445e-05
841 809 1.0850694444444445e-05
3405 809 2.7126736111111112e-06
3406 809 2.7126736111111112e-06
3407 809 1.6276041666666666e-05
3409 809 1.6276041666666666e-05
3410 809 2.7126736111111112e-06
3500 809 1.6276041666666666e-05
3502 809 2.7126736111111112e-06
3503 809 1.6276041666666666e-05
3504 809 1.6276041666666666e-05
3505 809 1.6276041666666666e-05
3507 809 2.7126736111111112e-06
3598 809 2.7126736111111112e-06
810 810 0.00019531249999999998
811 810 1.0850694444444445e-05
841 810 1.0850694444444445e-05
842 810 1.0850694444444445e-05
3408 810 2.7126736111111112e-06
3409 810 2.7126736111111112e-06
3410 810 1.6276041666666666e-05
3412 810 1.6276041666666666e-05
3413 810 2.7126736111111112e-06
3503 810 1.6276041666666666e-05
3505 810 2.7126736111111112e-06
3506 810 1.6276041666666666e-05
3507 810 1.6276041666666666e-05
3508 810 1.6276041666666666e-05
3510 810 2.7126736111111112e-06
3601 810 2.7126736111111112e-06
811 811 0.00019531249999999998
812 811 1.0850694444444445e-05
842 811 1.0850694444444445e-05
843 811 1.0850694444444445e-05
3411 811 2.7126736111111112e-06
3412 811 2.7126736111111112e-06
3413 811 1.6276041666666666e-05
3415 811 1.6276041666666666e-05
3416 811 2.7126736111111112e-06
3506 811 1.6276041666666666e-05
3508 811 2.7126736111111112e-06
3509 811 1.6276041666666666e-05
3510 811 1.6276041666666666e-05
3511 811 1.6276041666666666e-05
3513 811 2.7126736111111112e-06
3604 811 2.7126736111111112e-06
812 812 0.00019531249999999998
813 812 1.0850694444444445e-05
843 812 1.0850694444444445e-05
844 812 1.0850694444444445e-05
3414 812 2.7126736111111112e-06
3415 812 2.7126736111111112e-06
3416 812 1.6276041666666666e-05
3418 812 1.6276041666666666e-05
3419 812 2.7126736111111112e-06
3509 812 1.6276041666666666e-05
3511 812 2.7126736111111112e-06
3512 812 1.6276041666666666e-05
3513 812 1.6276041666666666e-05
3514 812 1.6276041666666666e-05
3516 812 2.7126736111111112e-06
3607 812 2.7126736111111112e-06
813 813 0.00019531249999999998
814 813 1.0850694444444445e-05
844 813 1.0850694444444445e-05
845 813 1.0850694444444445e-05
3417 813 2.7126736111111112e-06
3418 813 2.7126736111111112e-06
3419 813 1.6276041666666666e-05
3421 813 1.6276041666666666e-05
3422 813 2.7126736111111112e-06
3512 813 1.6276041666666666e-05
3514 813 2.7126736111111112e-06
3515 813 1.6276041666666666e-05
3516 813 1.6276041666666666e-05
3517 813 1.6276041666666666e-05
3519 813 2.7126736111111112e-06
3610 813 2.7126736111111112e-06
814 814 0.00019531249999999998
815 814 1.0850694444444445e-05
845 814 1.0850694444444445e-05
846 814 1.0850694444444445e-05
3420 814 2.7126736111111112e-06
3421 814 2.7126736111111112e-06
3422 814 1.6276041666666666e-05
3424 814 1.6276041666666666e-05
3425 814 2.7126736111111112e-06
3515 814 1.6276041666666666e-05
3517 814 2.7126736111111112e-06
3518 814 1.6276041666666666e-05
3519 814 1.6276041666666666e-05
3520 814 1.6276041666666666e-05
3522 814 2.7126736111111112e-06
3613 814 2.7126736111111112e-06
815 815 0.00019531249999999998
816 815 1.0850694444444445e-05
846 815 1.0850694444444445e-05
847 815 1.0850694444444445e-05
3423 815 2.7126736111111112e-06
3424 815 2.7126736111111112e-06
3425 815 1.6276041666666666e-05
3427 815 1.6276041666666666e-05
3428 815 2.7126736111111112e-06
3518 815 1.6276041666666666e-05
3520 815 2.7126736111111112e-06
3521 815 1.6276041666666666e-05
3522 815 1.6276041666666666e-05
3523 815 1.6276041666666666e-05
3525 815 2.7126736111111112e-06
3616 815 2.7126736111111112e-06
816 816 0.00019531249999999998
817 816 1.0850694444444445e-05
847 816 1.0850694444444445e-05
848 816 1.0850694444444445e-05
3426 816 2.7126736111111112e-06
3427 816 2.7126736111111112e-06
3428 816 1.6276041666666666e-05
3430 816 1.6276041666666666e-05
3431 816 2.7126736111111112e-06
3521 816 1.6276041666666666e-05
3523 816 2.7126736111111112e-06
3524 816 1.6276041666666666e-05
3525 816 1.6276041666666666e-05
3526 816 1.6276041666666666e-05
3528 816 2.7126736111111112e-06
3619 816 2.7126736111111112e-06
817 817 0.00019531249999999998
818 817 1.0850694444444445e-05
848 817 1.0850694444444445e-05
849 817 1.0850694444444445e-05
3429 817 2.7126736111111112e-06
3430 817 2.7126736111111112e-06
3431 817 1.6276041666666666e-05
3433 817 1.6276041666666666e-05
3434 817 2.7126736111111112e-06
3524 817 1.6276041666666666e-05
3526 817 2.7126736111111112e-06
3527 817 1.6276041666666666e-05
3528 817 1.6276041666666666e-05
3529 817 1.6276041666666666e-05
3531 817 2.7126736111111112e-06
3622 817 2.7126736111111112e-06
818 818 0.00019531249999999998
819 818 1.0850694444444445e-05
849 818 1.0850694444444445e-05
850 818 1.0850694444444445e-05
3432 818 2.7126736111111112e-06
3433 818 2.7126736111111112e-06
3434 818 1.6276041666666666e-05
3436 818 1.6276041666666666e-05
3437 818 2.7126736111111112e-06
3527 818 1.6276041666666666e-05
3529 818 2.7126736111111112e-06
3530 818 1.6276041666666666e-05
3531 818 1.6276041666666666e-05
3532 818 1.6276041666666666e-05
3534 818 2.7126736111111112e-06
3625 818 2.7126736111111112e-06
819 819 0.00019531249999999998
820 819 1.0850694444444445e-05
850 819 1.0850694444444445e-05
851 819 1.0850694444444445e-05
3435 819 2.7126736111111112e-06
3436 819 2.7126736111111112e-06
3437 819 1.6276041666666666e-05
3439 819 1.6276041666666666e-05
3440 819 2.7126736111111112e-06
3530 819 1.6276041666666666e-05
3532 819 2.7126736111111112e-06
3533 819 1.6276041666666666e-05
3534 819 1.6276041666666666e-05
3535 819 1.6276041666666666e-05
3537 819 2.7126736111111112e-06
3628 819 2.7126736111111112e-06
820 820 0.00019531249999999998
821 820 1.0850694444444445e-05
851 820 1.0850694444444445e-05
852 820 1.0850694444444445e-05
3438 820 2.7126736111111112e-06
3439 820 2.7126736111111112e-06
3440 820 1.6276041666666666e-05
3442 820 1.6276041666666666e-05
3443 820 2.7126736111111112e-06
3533 820 1.6276041666666666e-05
3535 820 2.7126736111111112e-06
3536 820 1.6276041666666666e-05
3537 820 1.6276041666666666e-05
3538 820 1.6276041666666666e-05
3540 820 2.7126736111111112e-06
3631 820 2.7126736111111112e-06
821 821 0.00019531249999999998
822 821 1.0850694444444445e-05
852 821 1.0850694444444445e-05
853 821 1.0850694444444445e-05
3441 821 2.7126736111111112e-06
3442 821 2.7126736111111112e-06
3443 821 1.6276041666666666e-05
3445 821 1.6276041666666666e-05
3446 821 2.7126736111111112e-06
3536 821 1.6276041666666666e-05
3538 821 2.7126736111111112e-06
3539 821 1.6276041666666666e-05
3540 821 1.6276041666666666e-05
3541 821 1.6276041666666666e-05
3543 821 2.7126736111111112e-06
3634 821 2.7126736111111112e-06
822 822 0.00019531249999999998
823 822 1.0850694444444445e-05
853 822 1.0850694444444445e-05
854 822 1.0850694444444445e-05
3444 822 2.7126736111111112e-06
3445 822 2.7126736111111112e-06
3446 822 1.6276041666666666e-05
3448 822 1.6276041666666666e-05
3449 822 2.7126736111111112e-06
3539 822 1.6276041666666666e-05
3541 822 2.7126736111111112e-06
3542 822 1.6276041666666666e-05
3543 822 1.6276041666666666e-05
3544 822 1.6276041666666666e-05
3546 822 2.7126736111111112e-06
3637 822 2.7126736111111112e-06
823 823 0.00019531249999999998
824 823 1.0850694444444445e-05
854 823 1.0850694444444445e-05
855 823 1.0850694444444445e-05
3447 823 2.7126736111111112e-06
3448 823 2.7126736111111112e-06
3449 823 1.6276041666666666e-05
3451 823 1.6276041666666666e-05
3452 823 2.7126736111111112e-06
3542 823 1.6276041666666666e-05
3544 823 2.7126736111111112e-06
3545 823 1.6276041666666666e-05
3546 823 1.6276041666666666e-05
3547 823 1.6276041666666666e-05
3549 823 2.7126736111111112e-06
3640 823 2.7126736111111112e-06
824 824 0.00019531249999999998
825 824 1.0850694444444445e-05
855 824 1.0850694444444445e-05
856 824 1.0850694444444445e-05
3450 824 2.7126736111111112e-06
3451 824 2.7126736111111112e-06
3452 824 1.6276041666666666e-05
3454 824 1.6276041666666666e-05
3455 824 2.7126736111111112e-06
3545 824 1.6276041666666666e-05
3547 824 2.7126736111111112e-06
3548 824 1.6276041666666666e-05
3549 824 1.6276041666666666e-05
3550 824 1.6276041666666666e-05
3552 824 2.7126736111111112e-06
3643 824 2.7126736111111112e-06
825 825 0.00019531249999999998
826 825 1.0850694444444445e-05
856 825 1.0850694444444445e-05
857 825 1.0850694444444445e-05
3453 825 2.7126736111111112e-06
3454 825 2.7126736111111112e-06
3455 825 1.6276041666666666e-05
3457 825 1.6276041666666666e-05
3458 825 2.7126736111111112e-06
3548 825 1.6276041666666666e-05
3550 825 2.7126736111111112e-06
3551 825 1.6276041666666666e-05
3552 825 1.6276041666666666e-05
3553 825 1.6276041666666666e-05
3555 825 2.7126736111111112e-06
3646 825 2.7126736111111112e-06
826 826 0.00019531249999999998
827 826 1.0850694444444445e-05
857 826 1.0850694444444445e-05
858 826 1.0850694444444445e-05
3456 826 2.7126736111111112e-06
3457 826 2.7126736111111112e-06
3458 826 1.6276041666666666e-05
3460 826 1.6276041666666666e-05
3461 826 2.7126736111111112e-06
3551 826 1.6276041666666666e-05
3553 826 2.7126736111111112e-06
3554 826 1.6276041666666666e-05
3555 826 1.6276041666666666e-05
3556 826 1.6276041666666666e-05
3558 826 2.7126736111111112e-06
3649 826 2.7126736111111112e-06
827 827 0.00019531249999999998
828 827 1.0850694444444445e-05
858 827 1.0850694444444445e-05
859 827 1.0850694444444445e-05
3459 827 2.7126736111111112e-06
3460 827 2.7126736111111112e-06
3461 827 1.6276041666666666e-05
3463 827 1.6276041666666666e-05
3464 827 2.7126736111111112e-06
3554 827 1.6276041666666666e-05
3556 827 2.7126736111111112e-06
3557 827 1.6276041666666666e-05
3558 827 1.6276041666666666e-05
3559 827 1.6276041666666666e-05
3561 827 2.7126736111111112e-06
3652 827 2.7126736111111112e-06
828 828 0.00019531249999999998
829 828 1.0850694444444445e-05
859 828 1.0850694444444445e-05
860 828 1.0850694444444445e-05
3462 828 2.7126736111111112e-06
3463 828 2.7126736111111112e-06
3464 828 1.6276041666666666e-05
3466 828 1.6276041666666666e-05
3467 828 2.7126736111111112e-06
3557 828 1.6276041666666666e-05
3559 828 2.7126736111111112e-06
3560 828 1.6276041666666666e-05
3561 828 1.6276041666666666e-05
3562 828 1.6276041666666666e-05
3564 828 2.7126736111111112e-06
3655 828 2.7126736111111112e-06
829 829 0.00019531249999999998
830 829 1.0850694444444445e-05
860 829 1.0850694444444445e-05
861 829 1.0850694444444445e-05
3465 829 2.7126736111111112e-06
3466 829 2.7126736111111112e-06
3467 829 1.6276041666666666e-05
3469 829 1.6276041666666666e-05
3470 829 2.7126736111111112e-06
3560 829 1.6276041666666666e-05
3562 829 2.7126736111111112e-06
3563 829 1.6276041666666666e-05
3564 829 1.6276041666666666e-05
3565 829 1.6276041666666666e-05
3567 829 2.7126736111111112e-06
3658 829 2.7126736111111112e-06
830 830 0.00019531249999999998
831 830 1.0850694444444445e-05
861 830 1.0850694444444445e-05
862 830 1.0850694444444445e-05
3468 830 2.7126736111111112e-06
3469 830 2.7126736111111112e-06
3470 830 1.6276041666666666e-05
3472 830 1.6276041666666666e-05
3473 830 2.7126736111111112e-06
3563 830 1.6276041666666666e-05
3565 830 2.7126736111111112e-06
3566 830 1.6276041666666666e-05
3567 830 1.6276041666666666e-05
3568 830 1.6276041666666666e-05
3570 830 2.7126736111111112e-06
3661 830 2.7126736111111112e-06
831 831 0.00019531249999999998
832 831 1.0850694444444445e-05
862 831 1.0850694444444445e-05
863 831 1.0850694444444445e-05
3471 831 2.7126736111111112e-06
3472 831 2.7126736111111112e-06
3473 831 1.6276041666666666e-05
3475 831 1.6276041666666666e-05
3476 831 2.7126736111111112e-06
3566 831 1.6276041666666666e-05
3568 831 2.7126736111111112e-06
3569 831 1.6276041666666666e-05
3570 831 1.6276041666666666e-05
3571 831 1.6276041666666666e-05
3573 831 2.7126736111111112e-06
3664 831 2.7126736111111112e-06
832 832 0.00019531249999999998
833 832 1.0850694444444445e-05
863 832 1.0850694444444445e-05
864 832 1.0850694444444445e-05
3474 832 2.7126736111111112e-06
3475 832 2.7126736111111112e-06
3476 832 1.6276041666666666e-05
3478 832 1.6276041666666666e-05
3479 832 2.7126736111111112e-06
3569 832 1.6276041666666666e-05
3571 832 2.7126736111111112e-06
3572 832 1.6276041666666666e-05
3573 832 1.6276041666666666e-05
3574 832 1.6276041666666666e-05
3576 832 2.7126736111111112e-06
3667 832 2.7126736111111112e-06
833 833 0.00019531249999999998
834 833 1.0850694444444445e-05
864 833 1.0850694444444445e-05
865 833 1.0850694444444445e-05
3477 833 2.7126736111111112e-06
3478 833 2.7126736111111112e-06
3479 833 1.6276041666666666e-05
3481 833 1.6276041666666666e-05
3482 833 2.7126736111111112e-06
3572 833 1.6276041666666666e-05
3574 833 2.7126736111111112e-06
3575 833 1.6276041666666666e-05
3576 833 1.6276041666666666e-05
3577 833 1.6276041666666666e-05
3579 833 2.7126736111111112e-06
3670 833 2.7126736111111112e-06
834 834 0.00019531249999999998
835 834 1.0850694444444445e-05
865 834 1.0850694444444445e-05
866 834 1.0850694444444445e-05
3480 834 2.7126736111111112e-06
3481 834 2.7126736111111112e-06
3482 834 1.6276041666666666e-05
3484 834 1.6276041666666666e-05
3485 834 2.7126736111111112e-06
3575 834 1.6276041666666666e-05
3577 834 2.7126736111111112e-06
3578 834 1.6276041666666666e-05
3579 834 1.6276041666666666e-05
3580 834 1.6276041666666666e-05
3582 834 2.7126736111111112e-06
3673 834 2.7126736111111112e-06
835 835 0.00019531249999999998
836 835 1.0850694444444445e-05
866 835 1.0850694444444445e-05
867 835 1.0850694444444445e-05
3483 835 2.7126736111111112e-06
3484 835 2.7126736111111112e-06
3485 835 1.6276041666666666e-05
3487 835 1.6276041666666666e-05
3488 835 2.7126736111111112e-06
3578 835 1.6276041666666666e-05
3580 835 2.7126736111111112e-06
3581 835 1.6276041666666666e-05
3582 835 1.6276041666666666e-05
3583 835 1.6276041666666666e-05
3585 835 2.7126736111111112e-06
3676 835 2.7126736111111112e-06
836 836 0.00019531249999999998
837 836 1.0850694444444445e-05
867 836 1.0850694444444445e-05
868 836 1.0850694444444445e-05
3486 836 2.7126736111111112e-06
3487 836 2.7126736111111112e-06
3488 836 1.6276041666666666e-05
3490 836 1.6276041666666666e-05
3491 836 2.7126736111111112e-06
3581 836 1.6276041666666666e-05
3583 836 2.7126736111111112e-06
3584 836 1.6276041666666666e-05
3585 836 1.6276041666666666e-05
3586 836 1.6276041666666666e-05
3588 836 2.7126736111111112e-06
3679 836 2.7126736111111112e-06
837 837 0.00019531249999999998
868 837 1.0850694444444445e-05
3489 837 2.7126736111111112e-06
3490 837 2.7126736111111112e-06
3491 837 1.6276041666666666e-05
3493 837 1.6276041666666666e-05
3494 837 2.7126736111111112e-06
3584 837 1.6276041666666666e-05
3586 837 2.7126736111111112e-06
3587 837 1.6276041666666666e-05
3588 837 1.6276041666666666e-05
3589 837 1.6276041666666666e-05
3682 837 2.7126736111111112e-06
838 838 0.00019531249999999998
839 838 1.0850694444444445e-05
869 838 1.0850694444444445e-05
870 838 1.0850694444444445e-05
3495 838 2.7126736111111112e-06
3496 838 1.6276041666666666e-05
3498 838 1.6276041666666666e-05
3499 838 2.7126736111111112e-06
3590 838 1.6276041666666666e-05
3591 838 2.7126736111111112e-06
3592 838 1.6276041666666666e-05
3593 838 1.6276041666666666e-05
3594 838 1.6276041666666666e-05
3596 838 2.7126736111111112e-06
3687 838 2.7126736111111112e-06
839 839 0.00019531249999999998
840 839 1.0850694444444445e-05
870 839 1.0850694444444445e-05
871 839 1.0850694444444445e-05
3497 839 2.7126736111111112e-06
3498 839 2.7126736111111112e-06
3499 839 1.6276041666666666e-05
3501 839 1.6276041666666666e-05
3502 839 2.7126736111111112e-06
3592 839 1.6276041666666666e-05
3594 839 2.7126736111111112e-06
3595 839 1.6276041666666666e-05
3596 839 1.6276041666666666e-05
3597 839 1.6276041666666666e-05
3599 839 2.7126736111111112e-06
3690 839 2.7126736111111112e-06
840 840 0.00019531249999999998
841 840 1.0850694444444445e-05
871 840 1.0850694444444445e-05
872 840 1.0850694444444445e-05
3500 840 2.7126736111111112e-06
3501 840 2.7126736111111112e-06
3502 840 1.6276041666666666e-05
3504 840 1.6276041666666666e-05
3505 840 2.7126736111111112e-06
3595 840 1.6276041666666666e-05
3597 840 2.7126736111111112e-06
3598 840 1.6276041666666666e-05
3599 840 1.6276041666666666e-05
3600 840 1.6276041666666666e-05
3602 840 2.7126736111111112e-06
3693 840 2.7126736111111112e-06
841 841 0.00019531249999999998
842 841 1.0850694444444445e-05
872 841 1.0850694444444445e-05
873 841 1.0850694444444445e-05
3503 841 2.7126736111111112e-06
3504 841 2.7126736111111112e-06
3505 841 1.6276041666666666e-05
3507 841 1.6276041666666666e-05
3508 841 2.7126736111111112e-06
3598 841 1.6276041666666666e-05
3600 841 2.7126736111111112e-06
3601 841 1.6276041666666666e-05
3602 841 1.6276041666666666e-05
3603 841 1.6276041666666666e-05
3605 841 2.7126736111111112e-06
3696 841 2.7126736111111112e-06
842 842 0.00019531249999999998
843 842 1.0850694444444445e-05
873 842 1.0850694444444445e-05
874 842 1.0850694444444445e-05
3506 842 2.7126736111111112e-06
3507 842 2.7126736111111112e-06
3508 842 1.6276041666666666e-05
3510 842 1.6276041666666666e-05
3511 842 2.7126736111111112e-06
3601 842 1.6276041666666666e-05
3603 842 2.7126736111111112e-06
3604 842 1.6276041666666666e-05
3605 842 1.6276041666666666e-05
3606 842 1.6276041666666666e-05
3608 842 2.7126736111111112e-06
3699 842 2.7126736111111112e-06
843 843 0.00019531249999999998
844 843 1.0850694444444445e-05
874 843 1.0850694444444445e-05
875 843 1.0850694444444445e-05
3509 843 2.7126736111111112e-06
3510 843 2.7126736111111112e-06
3511 843 1.6276041666666666e-05
3513 843 1.6276041666666666e-05
3514 843 2.7126736111111112e-06
3604 843 1.6276041666666666e-05
3606 843 2.7126736111111112e-06
3607 843 1.6276041666666666e-05
3608 843 1.6276041666666666e-05
3609 843 1.6276041666666666e-05
3611 843 2.7126736111111112e-06
3702 843 2.7126736111111112e-06
844 844 0.00019531249999999998
845 844 1.0850694444444445e-05
875 844 1.0850694444444445e-05
876 844 1.0850694444444445e-05
3512 844 2.7126736111111112e-06
3513 844 2.7126736111111112e-06
3514 844 1.6276041666666666e-05
3516 844 1.6276041666666666e-05
3517 844 2.7126736111111112e-06
3607 844 1.6276041666666666e-05
3609 844 2.7126736111111112e-06
3610 844 1.6276041666666666e-05
3611 844 1.6276041666666666e-05
3612 844 1.6276041666666666e-05
3614 844 2.7126736111111112e-06
3705 844 2.7126736111111112e-06
845 845 0.00019531249999999998
846 845 1.0850694444444445e-05
876 845 1.0850694444444445e-05
877 845 1.0850694444444445e-05
3515 845 2.7126736111111112e-06
3516 845 2.7126736111111112e-06
3517 845 1.6276041666666666e-05
3519 845 1.6276041666666666e-05
3520 845 2.7126736111111112e-06
3610 845 1.6276041666666666e-05
3612 845 2.7126736111111112e-06
3613 845 1.6276041666666666e-05
3614 845 1.6276041666666666e-05
3615 845 1.6276041666666666e-05
3617 845 2.7126736111111112e-06
3708 845 2.7126736111111112e-06
846 846 0.00019531249999999998
847 846 1.0850694444444445e-05
877 846 1.0850694444444445e-05
878 846 1.0850694444444445e-05
3518 846 2.7126736111111112e-06
3519 846 2.7126736111111112e-06
3520 846 1.6276041666666666e-05
3522 846 1.6276041666666666e-05
3523 846 2.7126736111111112e-06
3613 846 1.6276041666666666e-05
3615 846 2.7126736111111112e-06
3616 846 1.6276041666666666e-05
3617 846 1.6276041666666666e-05
3618 846 1.6276041666666666e-05
3620 846 2.7126736111111112e-06
3711 846 2.7126736111111112e-06
847 847 0.00019531249999999998
848 847 1.0850694444444445e-05
878 847 1.0850694444444445e-05
879 847 1.0850694444444445e-05
3521 847 2.7126736111111112e-06
3522 847 2.7126736111111112e-06
3523 847 1.6276041666666666e-05
3525 847 1.6276041666666666e-05
3526 847 2.7126736111111112e-06
3616 847 1.6276041666666666e-05
3618 847 2.7126736111111112e-06
3619 847 1.6276041666666666e-05
3620 847 1.6276041666666666e-05
3621 847 1.6276041666666666e-05
3623 847 2.7126736111111112e-06
3714 847 2.7126736111111112e-06
848 848 0.00019531249999999998
849 848 1.0850694444444445e-05
879 848 1.0850694444444445e-05
880 848 1.0850694444444445e-05
3524 848 2.7126736111111112e-06
3525 848 2.7126736111111112e-06
3526 848 1.6276041666666666e-05
3528 848 1.6276041666666666e-05
3529 848 2.7126736111111112e-06
3619 848 1.6276041666666666e-05
3621 848 2.7126736111111112e-06
3622 848 1.6276041666666666e-05
3623 848 1.6276041666666666e-05
3624 848 1.6276041666666666e-05
3626 848 2.7126736111111112e-06
3717 848 2.7126736111111112e-06
849 849 0.00019531249999999998
850 849 1.0850694444444445e-05
880 849 1.0850694444444445e-05
881 849 1.0850694444444445e-05
3527 849 2.7126736111111112e-06
3528 849 2.7126736111111112e-06
3529 849 1.6276041666666666e-05
3531 849 1.6276041666666666e-05
3532 849 2.7126736111111112e-06
3622 849 1.6276041666666666e-05
3624 849 2.7126736111111112e-06
3625 849 1.6276041666666666e-05
3626 849 1.6276041666666666e-05
3627 849 1.6276041666666666e-05
3629 849 2.7126736111111112e-06
3720 849 2.7126736111111112e-06
850 850 0.00019531249999999998
851 850 1.0850694444444445e-05
881 850 1.0850694444444445e-05
882 850 1.0850694444444445e-05
3530 850 2.7126736111111112e-06
3531 850 2.7126736111111112e-06
3532 850 1.6276041666666666e-05
3534 850 1.6276041666666666e-05
3535 850 2.7126736111111112e-06
3625 850 1.6276041666666666e-05
3627 850 2.7126736111111112e-06
3628 850 1.6276041666666666e-05
3629 850 1.6276041666666666e-05
3630 850 1.6276041666666666e-05
3632 850 2.7126736111111112e-06
3723 850 2.7126736111111112e-06
851 851 0.00019531249999999998
852 851 1.0850694444444445e-05
882 851 1.0850694444444445e-05
883 851 1.0850694444444445e-05
3533 851 2.7126736111111112e-06
3534 851 2.7126736111111112e-06
3535 851 1.6276041666666666e-05
3537 851 1.6276041666666666e-05
3538 851 2.7126736111111112e-06
3628 851 1.6276041666666666e-05
3630 851 2.7126736111111112e-06
3631 851 1.6276041666666666e-05
3632 851 1.6276041666666666e-05
3633 851 1.6276041666666666e-05
3635 851 2.7126736111111112e-06
3726 851 2.7126736111111112e-06
852 852 0.00019531249999999998
853 852 1.0850694444444445e-05
883 852 1.0850694444444445e-05
884 852 1.0850694444444445e-05
3536 852 2.7126736111111112e-06
3537 852 2.7126736111111112e-06
3538 852 1.6276041666666666e-05
3540 852 1.6276041666666666e-05
3541 852 2.7126736111111112e-06
3631 852 1.6276041666666666e-05
3633 852 2.7126736111111112e-06
3634 852 1.6276041666666666e-05
3635 852 1.6276041666666666e-05
3636 852 1.6276041666666666e-05
3638 852 2.7126736111111112e-06
3729 852 2.7126736111111112e-06
853 853 0.00019531249999999998
854 853 1.0850694444444445e-05
884 853 1.0850694444444445e-05
885 853 1.0850694444444445e-05
3539 853 2.7126736111111112e-06
3540 853 2.7126736111111112e-06
3541 853 1.6276041666666666e-05
3543 853 1.6276041666666666e-05
3544 853 2.7126736111111112e-06
3634 853 1.6276041666666666e-05
3636 853 2.7126736111111112e-06
3637 853 1.6276041666666666e-05
3638 853 1.6276041666666666e-05
3639 853 1.6276041666666666e-05
3641 853 2.7126736111111112e-06
3732 853 2.7126736111111112e-06
854 854 0.00019531249999999998
855 854 1.0850694444444445e-05
885 854 1.0850694444444445e-05
886 854 1.0850694444444445e-05
3542 854 2.7126736111111112e-06
3543 854 2.7126736111111112e-06
3544 854 1.6276041666666666e-05
3546 854 1.6276041666666666e-05
3547 854 2.7126736111111112e-06
3637 854 1.6276041666666666e-05
3639 854 2.7126736111111112e-06
3640 854 1.6276041666666666e-05
3641 854 1.6276041666666666e-05
3642 854 1.6276041666666666e-05
3644 854 2.7126736111111112e-06
3735 854 2.7126736111111112e-06
855 855 0.00019531249999999998
856 855 1.0850694444444445e-05
886 855 1.0850694444444445e-05
887 855 1.0850694444444445e-05
3545 855 2.7126736111111112e-06
3546 855 2.7126736111111112e-06
3547 855 1.6276041666666666e-05
3549 855 1.6276041666666666e-05
3550 855 2.7126736111111112e-06
3640 855 1.6276041666666666e-05
3642 855 2.7126736111111112e-06
3643 855 1.6276041666666666e-05
3644 855 1.6276041666666666e-05
3645 855 1.6276041666666666e-05
3647 855 2.7126736111111112e-06
3738 855 2.7126736111111112e-06
856 856 0.00019531249999999998
857 856 1.0850694444444445e-05
887 856 1.0850694444444445e-05
888 856 1.0850694444444445e-05
3548 856 2.7126736111111112e-06
3549 856 2.7126736111111112e-06
3550 856 1.6276041666666666e-05
3552 856 1.6276041666666666e-05
3553 856 2.7126736111111112e-06
3643 856 1.6276041666666666e-05
3645 856 2.7126736111111112e-06
3646 856 1.6276041666666666e-05
3647 856 1.6276041666666666e-05
3648 856 1.6276041666666666e-05
3650 856 2.7126736111111112e-06
3741 856 2.7126736111111112e-06
857 857 0.00019531249999999998
858 857 1.0850694444444445e-05
888 857 1.0850694444444445e-05
889 857 1.0850694444444445e-05
3551 857 2.7126736111111112e-06
3552 857 2.7126736111111112e-06
3553 857 1.6276041666666666e-05
3555 857 1.6276041666666666e-05
3556 857 2.7126736111111112e-06
3646 857 1.6276041666666666e-05
3648 857 2.7126736111111112e-06
3649 857 1.6276041666666666e-05
3650 857 1.6276041666666666e-05
3651 857 1.6276041666666666e-05
3653 857 2.7126736111111112e-06
3744 857 2.7126736111111112e-06
858 858 0.00019531249999999998
859 858 1.0850694444444445e-05
889 858 1.0850694444444445e-05
890 858 1.0850694444444445e-05
3554 858 2.7126736111111112e-06
3555 858 2.7126736111111112e-06
3556 858 1.6276041666666666e-05
3558 858 1.6276041666666666e-05
3559 858 2.7126736111111112e-06
3649 858 1.6276041666666666e-05
3651 858 2.7126736111111112e-06
3652 858 1.6276041666666666e-05
3653 858 1.6276041666666666e-05
3654 858 1.6276041666666666e-05
3656 858 2.7126736111111112e-06
3747 858 2.7126736111111112e-06
859 859 0.00019531249999999998
860 859 1.0850694444444445e-05
890 859 1.0850694444444445e-05
891 859 1.0850694444444445e-05
3557 859 2.7126736111111112e-06
3558 859 2.7126736111111112e-06
3559 859 1.6276041666666666e-05
3561 859 1.6276041666666666e-05
3562 859 2.7126736111111112e-06
3652 859 1.6276041666666666e-05
3654 859 2.7126736111111112e-06
3655 859 1.6276041666666666e-05
3656 859 1.6276041666666666e-05
3657 859 1.6276041666666666e-05
3659 859 2.7126736111111112e-06
3750 859 2.7126736111111112e-06
860 860 0.00019531249999999998
861 860 1.0850694444444445e-05
891 860 1.0850694444444445e-05
892 860 1.0850694444444445e-05
3560 860 2.7126736111111112e-06
3561 860 2.7126736111111112e-06
3562 860 1.6276041666666666e-05
3564 860 1.6276041666666666e-05
3565 860 2.7126736111111112e-06
3655 860 1.6276041666666666e-05
3657 860 2.7126736111111112e-06
3658 860 1.6276041666666666e-05
3659 860 1.6276041666666666e-05
3660 860 1.6276041666666666e-05
3662 860 2.7126736111111112e-06
3753 860 2.7126736111111112e-06
861 861 0.00019531249999999998
862 861 1.0850694444444445e-05
892 861 1.0850694444444445e-05
893 861 1.0850694444444445e-05
3563 861 2.7126736111111112e-06
3564 861 2.7126736111111112e-06
3565 861 1.6276041666666666e-05
3567 861 1.6276041666666666e-05
3568 861 2.7126736111111112e-06
3658 861 1.6276041666666666e-05
3660 861 2.7126736111111112e-06
3661 861 1.6276041666666666e-05
3662 861 1.6276041666666666e-05
3663 861 1.6276041666666666e-05
3665 861 2.7126736111111112e-06
3756 861 2.7126736111111112e-06
862 862 0.00019531249999999998
863 862 1.0850694444444445e-05
893 862 1.0850694444444445e-05
894 862 1.0850694444444445e-05
3566 862 2.7126736111111112e-06
3567 862 2.7126736111111112e-06
3568 862 1.6276041666666666e-05
3570 862 1.6276041666666666e-05
3571 862 2.7126736111111112e-06
3661 862 1.6276041666666666e-05
3663 862 2.7126736111111112e-06
3664 862 1.6276041666666666e-05
3665 862 1.6276041666666666e-05
3666 862 1.6276041666666666e-05
3668 862 2.7126736111111112e-06
3759 862 2.7126736111111112e-06
863 863 0.00019531249999999998
864 863 1.0850694444444445e-05
894 863 1.0850694444444445e-05
895 863 1.0850694444444445e-05
3569 863 2.7126736111111112e-06
3570 863 2.7126736111111112e-06
3571 863 1.6276041666666666e-05
3573 863 1.6276041666666666e-05
3574 863 2.7126736111111112e-06
3664 863 1.6276041666666666e-05
3666 863 2.7126736111111112e-06
3667 863 1.6276041666666666e-05
3668 863 1.6276041666666666e-05
3669 863 1.6276041666666666e-05
3671 863 2.7126736111111112e-06
3762 863 2.7126736111111112e-06
864 864 0.00019531249999999998
865 864 1.0850694444444445e-05
895 864 1.0850694444444445e-05
896 864 1.0850694444444445e-05
3572 864 2.7126736111111112e-06
3573 864 2.7126736111111112e-06
3574 864 1.6276041666666666e-05
3576 864 1.6276041666666666e-05
3577 864 2.7126736111111112e-06
3667 864 1.6276041666666666e-05
3669 864 2.7126736111111112e-06
3670 864 1.6276041666666666e-05
3671 864 1.6276041666666666e-05
3672 864 1.6276041666666666e-05
3674 864 2.7126736111111112e-06
3765 864 2.7126736111111112e-06
865 865 0.00019531249999999998
866 865 1.0850694444444445e-05
896 865 1.0850694444444445e-05
897 865 1.0850694444444445e-05
3575 865 2.7126736111111112e-06
3576 865 2.7126736111111112e-06
3577 865 1.6276041666666666e-05
3579 865 1.6276041666666666e-05
3580 865 2.7126736111111112e-06
3670 865 1.6276041666666666e-05
3672 865 2.7126736111111112e-06
3673 865 1.6276041666666666e-05
3674 865 1.6276041666666666e-05
3675 865 1.6276041666666666e-05
3677 865 2.7126736111111112e-06
3768 865 2.7126736111111112e-06
866 866 0.00019531249999999998
867 866 1.0850694444444445e-05
897 866 1.0850694444444445e-05
898 866 1.0850694444444445e-05
3578 866 2.7126736111111112e-06
3579 866 2.7126736111111112e-06
3580 866 1.6276041666666666e-05
3582 866 1.6276041666666666e-05
3583 866 2.7126736111111112e-06
3673 866 1.6276041666666666e-05
3675 866 2.7126736111111112e-06
3676 866 1.6276041666666666e-05
3677 866 1.6276041666666666e-05
3678 866 1.6276041666666666e-05
3680 866 2.7126736111111112e-06
3771 866 2.7126736111111112e-06
867 867 0.00019531249999999998
868 867 1.0850694444444445e-05
898 867 1.0850694444444445e-05
899 867 1.0850694444444445e-05
3581 867 2.7126736111111112e-06
3582 867 2.7126736111111112e-06
3583 867 1.6276041666666666e-05
3585 867 1.6276041666666666e-05
3586 867 2.7126736111111112e-06
3676 867 1.6276041666666666e-05
3678 867 2.7126736111111112e-06
3679 867 1.6276041666666666e-05
3680 867 1.6276041666666666e-05
3681 867 1.6276041666666666e-05
3683 867 2.7126736111111112e-06
3774 867 2.7126736111111112e-06
868 868 0.00019531249999999998
899 868 1.0850694444444445e-05
3584 868 2.7126736111111112e-06
3585 868 2.7126736111111112e-06
3586 868 1.6276041666666666e-05
3588 868 1.6276041666666666e-05
3589 868 2.7126736111111112e-06
3679 868 1.6276041666666666e-05
3681 868 2.7126736111111112e-06
3682 868 1.6276041666666666e-05
3683 868 1.6276041666666666e-05
3684 868 1.6276041666666666e-05
3777 868 2.7126736111111112e-06
869 869 0.00019531249999999998
870 869 1.0850694444444445e-05
900 869 1.0850694444444445e-05
901 869 1.0850694444444445e-05
3590 869 2.7126736111111112e-06
3591 869 1.6276041666666666e-05
3593 869 1.6276041666666666e-05
3594 869 2.7126736111111112e-06
3685 869 1.6276041666666666e-05
3686 869 2.7126736111111112e-06
3687 869 1.6276041666666666e-05
3688 869 1.6276041666666666e-05
3689 869 1.6276041666666666e-05
3691 869 2.7126736111111112e-06
3782 869 2.7126736111111112e-06
870 870 0.00019531249999999998
871 870 1.0850694444444445e-05
901 870 1.0850694444444445e-05
902 870 1.0850694444444445e-05
3592 870 2.7126736111111112e-06
3593 870 2.7126736111111112e-06
3594 870 1.6276041666666666e-05
3596 870 1.6276041666666666e-05
3597 870 2.7126736111111112e-06
3687 870 1.6276041666666666e-05
3689 870 2.7126736111111112e-06
3690 870 1.6276041666666666e-05
3691 870 1.6276041666666666e-05
3692 870 1.6276041666666666e-05
3694 870 2.7126736111111112e-06
3785 870 2.7126736111111112e-06
871 871 0.00019531249999999998
872 871 1.0850694444444445e-05
902 871 1.0850694444444445e-05
903 871 1.0850694444444445e-05
3595 871 2.7126736111111112e-06
3596 871 2.7126736111111112e-06
3597 871 1.6276041666666666e-05
3599 871 1.6276041666666666e-05
3600 871 2.7126736111111112e-06
3690 871 1.6276041666666666e-05
3692 871 2.7126736111111112e-06
3693 871 1.6276041666666666e-05
3694 871 1.6276041666666666e-05
3695 871 1.6276041666666666e-05
3697 871 2.7126736111111112e-06
3788 871 2.7126736111111112e-06
872 872 0.00019531249999999998
873 872 1.0850694444444445e-05
903 872 1.0850694444444445e-05
904 872 1.0850694444444445e-05
3598 872 2.7126736111111112e-06
3599 872 2.7126736111111112e-06
3600 872 1.6276041666666666e-05
3602 872 1.6276041666666666e-05
3603 872 2.7126736111111112e-06
3693 872 1.6276041666666666e-05
3695 872 2.7126736111111112e-06
3696 872 1.6276041666666666e-05
3697 872 1.6276041666666666e-05
3698 872 1.6276041666666666e-05
3700 872 2.7126736111111112e-06
3791 872 2.7126736111111112e-06
873 873 0.00019531249999999998
874 873 1.0850694444444445e-05
904 873 1.0850694444444445e-05
905 873 1.0850694444444445e-05
3601 873 2.7126736111111112e-06
3602 873 2.7126736111111112e-06
3603 873 1.6276041666666666e-05
3605 873 1.6276041666666666e-05
3606 873 2.7126736111111112e-06
3696 873 1.6276041666666666e-05
3698 873 2.7126736111111112e-06
3699 873 1.6276041666666666e-05
3700 873 1.6276041666666666e-05
3701 873 1.6276041666666666e-05
3703 873 2.7126736111111112e-06
3794 873 2.7126736111111112e-06
874 874 0.00019531249999999998
875 874 1.0850694444444445e-05
905 874 1.0850694444444445e-05
906 874 1.0850694444444445e-05
3604 874 2.7126736111111112e-06
3605 874 2.7126736111111112e-06
3606 874 1.6276041666666666e-05
3608 874 1.6276041666666666e-05
3609 874 2.7126736111111112e-06
3699 874 1.6276041666666666e-05
3701 874 2.7126736111111112e-06
3702 874 1.6276041666666666e-05
3703 874 1.6276041666666666e-05
3704 874 1.6276041666666666e-05
3706 874 2.7126736111111112e-06
3797 874 2.7126736111111112e-06
875 875 0.00019531249999999998
876 875 1.0850694444444445e-05
906 875 1.0850694444444445e-05
907 875 1.0850694444444445e-05
3607 875 2.7126736111111112e-06
3608 875 2.7126736111111112e-06
3609 875 1.6276041666666666e-05
3611 875 1.6276041666666666e-05
3612 875 2.7126736111111112e-06
3702 875 1.6276041666666666e-05
3704 875 2.7126736111111112e-06
3705 875 1.6276041666666666e-05
3706 875 1.6276041666666666e-05
3707 875 1.6276041666666666e-05
3709 875 2.7126736111111112e-06
3800 875 2.7126736111111112e-06
876 876 0.00019531249999999998
877 876 1.0850694444444445e-05
907 876 1.0850694444444445e-05
908 876 1.0850694444444445e-05
3610 876 2.7126736111111112e-06
3611 876 2.7126736111111112e-06
3612 876 1.6276041666666666e-05
3614 876 1.6276041666666666e-05
3615 876 2.7126736111111112e-06
3705 876 1.6276041666666666e-05
3707 876 2.7126736111111112e-06
3708 876 1.6276041666666666e-05
3709 876 1.6276041666666666e-05
3710 876 1.6276041666666666e-05
3712 876 2.7126736111111112e-06
3803 876 2.7126736111111112e-06
877 877 0.00019531249999999998
878 877 1.0850694444444445e-05
908 877 1.0850694444444445e-05
909 877 1.0850694444444445e-05
3613 877 2.7126736111111112e-06
3614 877 2.7126736111111112e-06
3615 877 1.6276041666666666e-05
3617 877 1.6276041666666666e-05
3618 877 2.7126736111111112e-06
3708 877 1.6276041666666666e-05
3710 877 2.7126736111111112e-06
3711 877 1.6276041666666666e-05
3712 877 1.6276041666666666e-05
3713 877 1.6276041666666666e-05
3715 877 2.7126736111111112e-06
3806 877 2.7126736111111112e-06
878 878 0.00019531249999999998
879 878 1.0850694444444445e-05
909 878 1.0850694444444445e-05
910 878 1.0850694444444445e-05
3616 878 2.7126736111111112e-06
3617 878 2.7126736111111112e-06
3618 878 1.6276041666666666e-05
3620 878 1.6276041666666666e-05
3621 878 2.7126736111111112e-06
3711 878 1.6276041666666666e-05
3713 878 2.7126736111111112e-06
3714 878 1.6276041666666666e-05
3715 878 1.6276041666666666e-05
3716 878 1.6276041666666666e-05
3718 878 2.7126736111111112e-06
3809 878 2.7126736111111112e-06
879 879 0.00019531249999999998
880 879 1.0850694444444445e-05
910 879 1.0850694444444445e-05
911 879 1.0850694444444445e-05
3619 879 2.7126736111111112e-06
3620 879 2.7126736111111112e-06
3621 879 1.6276041666666666e-05
3623 879 1.6276041666666666e-05
3624 879 2.7126736111111112e-06
3714 879 1.6276041666666666e-05
3716 879 2.7126736111111112e-06
3717 879 1.6276041666666666e-05
3718 879 1.6276041666666666e-05
3719 879 1.6276041666666666e-05
3721 879 2.7126736111111112e-06
3812 879 2.7126736111111112e-06
880 880 0.00019531249999999998
881 880 1.0850694444444445e-05
911 880 1.0850694444444445e-05
912 880 1.0850694444444445e-05
3622 880 2.7126736111111112e-06
3623 880 2.7126736111111112e-06
3624 880 1.6276041666666666e-05
3626 880 1.6276041666666666e-05
3627 880 2.7126736111111112e-06
3717 880 1.6276041666666666e-05
3719 880 2.7126736111111112e-06
3720 880 1.6276041666666666e-05
3721 880 1.6276041666666666e-05
3722 880 1.6276041666666666e-05
3724 880 2.7126736111111112e-06
3815 880 2.7126736111111112e-06
881 881 0.00019531249999999998
882 881 1.0850694444444445e-05
912 881 1.0850694444444445e-05
913 881 1.0850694444444445e-05
3625 881 2.7126736111111112e-06
3626 881 2.7126736111111112e-06
3627 881 1.6276041666666666e-05
3629 881 1.6276041666666666e-05
3630 881 2.7126736111111112e-06
3720 881 1.6276041666666666e-05
3722 881 2.7126736111111112e-06
3723 881 1.6276041666666666e-05
3724 881 1.6276041666666666e-05
3725 881 1.6276041666666666e-05
3727 881 2.7126736111111112e-06
3818 881 2.7126736111111112e-06
882 882 0.00019531249999999998
883 882 1.0850694444444445e-05
913 882 1.0850694444444445e-05
914 882 1.0850694444444445e-05
3628 882 2.7126736111111112e-06
3629 882 2.7126736111111112e-06
3630 882 1.6276041666666666e-05
3632 882 1.6276041666666666e-05
3633 882 2.7126736111111112e-06
3723 882 1.6276041666666666e-05
3725 882 2.7126736111111112e-06
3726 882 1.6276041666666666e-05
3727 882 1.6276041666666666e-05
3728 882 1.6276041666666666e-05
3730 882 2.7126736111111112e-06
3821 882 2.7126736111111112e-06
883 883 0.00019531249999999998
884 883 1.0850694444444445e-05
914 883 1.0850694444444445e-05
915 883 1.0850694444444445e-05
3631 883 2.7126736111111112e-06
3632 883 2.7126736111111112e-06
3633 883 1.6276041666666666e-05
3635 883 1.6276041666666666e-05
3636 883 2.7126736111111112e-06
3726 883 1.6276041666666666e-05
3728 883 2.7126736111111112e-06
3729 883 1.6276041666666666e-05
3730 883 1.6276041666666666e-05
3731 883 1.6276041666666666e-05
3733 883 2.7126736111111112e-06
3824 883 2.7126736111111112e-06
884 884 0.00019531249999999998
885 884 1.0850694444444445e-05
915 884 1.0850694444444445e-05
916 884 1.0850694444444445e-05
3634 884 2.7126736111111112e-06
3635 884 2.7126736111111112e-06
3636 884 1.6276041666666666e-05
3638 884 1.6276041666666666e-05
3639 884 2.7126736111111112e-06
3729 884 1.6276041666666666e-05
3731 884 2.7126736111111112e-06
3732 884 1.6276041666666666e-05
3733 884 1.6276041666666666e-05
3734 884 1.6276041666666666e-05
3736 884 2.7126736111111112e-06
3827 884 2.7126736111111112e-06
885 885 0.00019531249999999998
886 885 1.0850694444444445e-05
916 885 1.0850694444444445e-05
917 885 1.0850694444444445e-05
3637 885 2.7126736111111112e-06
3638 885 2.7126736111111112e-06
3639 885 1.6276041666666666e-05
3641 885 1.6276041666666666e-05
3642 885 2.7126736111111112e-06
3732 885 1.6276041666666666e-05
3734 885 2.7126736111111112e-06
3735 885 1.6276041666666666e-05
3736 885 1.6276041666666666e-05
3737 885 1.6276041666666666e-05
3739 885 2.7126736111111112e-06
3830 885 2.7126736111111112e-06
886 886 0.00019531249999999998
887 886 1.0850694444444445e-05
917 886 1.0850694444444445e-05
918 886 1.0850694444444445e-05
3640 886 2.7126736111111112e-06
3641 886 2.7126736111111112e-06
3642 886 1.6276041666666666e-05
3644 886 1.6276041666666666e-05
3645 886 2.7126736111111112e-06
3735 886 1.6276041666666666e-05
3737 886 2.7126736111111112e-06
3738 886 1.6276041666666666e-05
3739 886 1.6276041666666666e-05
3740 886 1.6276041666666666e-05
3742 886 2.7126736111111112e-06
3833 886 2.7126736111111112e-06
887 887 0.00019531249999999998
888 887 1.0850694444444445e-05
918 887 1.0850694444444445e-05
919 887 1.0850694444444445e-05
3643 887 2.7126736111111112e-06
3644 887 2.7126736111111112e-06
3645 887 1.6276041666666666e-05
3647 887 1.6276041666666666e-05
3648 887 2.7126736111111112e-06
3738 887 1.6276041666666666e-05
3740 887 2.7126736111111112e-06
3741 887 1.6276041666666666e-05
3742 887 1.6276041666666666e-05
3743 887 1.6276041666666666e-05
3745 887 2.7126736111111112e-06
3836 887 2.7126736111111112e-06
888 888 0.00019531249999999998
889 888 1.0850694444444445e-05
919 888 1.0850694444444445e-05
920 888 1.0850694444444445e-05
3646 888 2.7126736111111112e-06
3647 888 2.7126736111111112e-06
3648 888 1.6276041666666666e-05
3650 888 1.6276041666666666e-05
3651 888 2.7126736111111112e-06
3741 888 1.6276041666666666e-05
3743 888 2.7126736111111112e-06
3744 888 1.6276041666666666e-05
3745 888 1.6276041666666666e-05
3746 888 1.6276041666666666e-05
3748 888 2.7126736111111112e-06
3839 888 2.7126736111111112e-06
889 889 0.00019531249999999998
890 889 1.0850694444444445e-05
920 889 1.0850694444444445e-05
921 889 1.0850694444444445e-05
3649 889 2.7126736111111112e-06
3650 889 2.7126736111111112e-06
3651 889 1.6276041666666666e-05
3653 889 1.6276041666666666e-05
3654 889 2.7126736111111112e-06
3744 889 1.6276041666666666e-05
3746 889 2.7126736111111112e-06
3747 889 1.6276041666666666e-05
3748 889 1.6276041666666666e-05
3749 889 1.6276041666666666e-05
3751 889 2.7126736111111112e-06
3842 889 2.7126736111111112e-06
890 890 0.00019531249999999998
891 890 1.0850694444444445e-05
921 890 1.0850694444444445e-05
922 890 1.0850694444444445e-05
3652 890 2.7126736111111112e-06
3653 890 2.7126736111111112e-06
3654 890 1.6276041666666666e-05
3656 890 1.6276041666666666e-05
3657 890 2.7126736111111112e-06
3747 890 1.6276041666666666e-05
3749 890 2.7126736111111112e-06
3750 890 1.6276041666666666e-05
3751 890 1.6276041666666666e-05
3752 890 1.6276041666666666e-05
3754 890 2.7126736111111112e-06
3845 890 2.7126736111111112e-06
891 891 0.00019531249999999998
892 891 1.0850694444444445e-05
922 891 1.0850694444444445e-05
923 891 1.0850694444444445e-05
3655 891 2.7126736111111112e-06
3656 891 2.7126736111111112e-06
3657 891 1.6276041666666666e-05
3659 891 1.6276041666666666e-05
3660 891 2.7126736111111112e-06
3750 891 1.6276041666666666e-05
3752 891 2.7126736111111112e-06
3753 891 1.6276041666666666e-05
3754 891 1.6276041666666666e-05
3755 891 1.6276041666666666e-05
3757 891 2.7126736111111112e-06
3848 891 2.7126736111111112e-06
892 892 0.00019531249999999998
893 892 1.0850694444444445e-05
923 892 1.0850694444444445e-05
924 892 1.0850694444444445e-05
3658 892 2.7126736111111112e-06
3659 892 2.7126736111111112e-06
3660 892 1.6276041666666666e-05
3662 892 1.6276041666666666e-05
3663 892 2.7126736111111112e-06
3753 892 1.6276041666666666e-05
3755 892 2.7126736111111112e-06
3756 892 1.6276041666666666e-05
3757 892 1.6276041666666666e-05
3758 892 1.6276041666666666e-05
3760 892 2.7126736111111112e-06
3851 892 2.7126736111111112e-06
893 893 0.00019531249999999998
894 893 1.0850694444444445e-05
924 893 1.0850694444444445e-05
925 893 1.0850694444444445e-05
3661 893 2.7126736111111112e-06
3662 893 2.7126736111111112e-06
3663 893 1.6276041666666666e-05
3665 893 1.6276041666666666e-05
3666 893 2.7126736111111112e-06
3756 893 1.6276041666666666e-05
3758 893 2.7126736111111112e-06
3759 893 1.6276041666666666e-05
3760 893 1.6276041666666666e-05
3761 893 1.6276041666666666e-05
3763 893 2.7126736111111112e-06
3854 893 2.7126736111111112e-06
894 894 0.00019531249999999998
895 894 1.0850694444444445e-05
925 894 1.0850694444444445e-05
926 894 1.0850694444444445e-05
3664 894 2.7126736111111112e-06
3665 894 2.7126736111111112e-06
3666 894 1.6276041666666666e-05
3668 894 1.6276041666666666e-05
3669 894 2.7126736111111112e-06
3759 894 1.6276041666666666e-05
3761 894 2.7126736111111112e-06
3762 894 1.6276041666666666e-05
3763 894 1.6276041666666666e-05
3764 894 1.6276041666666666e-05
3766 894 2.7126736111111112e-06
3857 894 2.7126736111111112e-06
895 895 0.00019531249999999998
896 895 1.0850694444444445e-05
926 895 1.0850694444444445e-05
927 895 1.0850694444444445e-05
3667 895 2.7126736111111112e-06
3668 895 2.7126736111111112e-06
3669 895 1.6276041666666666e-05
3671 895 1.6276041666666666e-05
3672 895 2.7126736111111112e-06
3762 895 1.6276041666666666e-05
3764 895 2.7126736111111112e-06
3765 895 1.6276041666666666e-05
3766 895 1.6276041666666666e-05
3767 895 1.6276041666666666e-05
3769 895 2.7126736111111112e-06
3860 895 2.7126736111111112e-06
896 896 0.00019531249999999998
897 896 1.0850694444444445e-05
927 896 1.0850694444444445e-05
928 896 1.0850694444444445e-05
3670 896 2.7126736111111112e-06
3671 896 2.7126736111111112e-06
3672 896 1.6276041666666666e-05
3674 896 1.6276041666666666e-05
3675 896 2.7126736111111112e-06
3765 896 1.6276041666666666e-05
3767 896 2.7126736111111112e-06
3768 896 1.6276041666666666e-05
3769 896 1.6276041666666666e-05
3770 896 1.6276041666666666e-05
3772 896 2.7126736111111112e-06
3863 896 2.7126736111111112e-06
897 897 0.00019531249999999998
898 897 1.0850694444444445e-05
928 897 1.0850694444444445e-05
929 897 1.0850694444444445e-05
3673 897 2.7126736111111112e-06
3674 897 2.7126736111111112e-06
3675 897 1.6276041666666666e-05
3677 897 1.6276041666666666e-05
3678 897 2.7126736111111112e-06
3768 897 1.6276041666666666e-05
3770 897 2.7126736111111112e-06
3771 897 1.6276041666666666e-05
3772 897 1.6276041666666666e-05
3773 897 1.6276041666666666e-05
3775 897 2.7126736111111112e-06
3866 897 2.7126736111111112e-06
898 898 0.00019531249999999998
899 898 1.0850694444444445e-05
929 898 1.0850694444444445e-05
930 898 1.0850694444444445e-05
3676 898 2.7126736111111112e-06
3677 898 2.7126736111111112e-06
3678 898 1.6276041666666666e-05
3680 898 1.6276041666666666e-05
3681 898 2.7126736111111112e-06
3771 898 1.6276041666666666e-05
3773 898 2.7126736111111112e-06
3774 898 1.6276041666666666e-05
3775 898 1.6276041666666666e-05
3776 898 1.6276041666666666e-05
3778 898 2.7126736111111112e-06
3869 898 2.7126736111111112e-06
899 899 0.00019531249999999998
930 899 1.0850694444444445e-05
3679 899 2.7126736111111112e-06
3680 899 2.7126736111111112e-06
3681 899 1.6276041666666666e-05
3683 899 1.6276041666666666e-05
3684 899 2.7126736111111112e-06
3774 899 1.6276041666666666e-05
3776 899 2.7126736111111112e-06
3777 899 1.6276041666666666e-05
3778 899 1.6276041666666666e-05
3779 899 1.6276041666666666e-05
3872 899 2.7126736111111112e-06
900 900 0.00019531249999999998
901 900 1.0850694444444445e-05
931 900 1.0850694444444445e-05
932 900 1.0850694444444445e-05
3685 900 2.7126736111111112e-06
3686 900 1.6276041666666666e-05
3688 900 1.6276041666666666e-05
3689 900 2.7126736111111112e-06
3780 900 1.6276041666666666e-05
3781 900 2.7126736111111112e-06
3782 900 1.6276041666666666e-05
3783 900 1.6276041666666666e-05
3784 900 1.6276041666666666e-05
3786 900 2.7126736111111112e-06
3877 900 2.7126736111111112e-06
901 901 0.00019531249999999998
902 901 1.0850694444444445e-05
932 901 1.0850694444444445e-05
933 901 1.0850694444444445e-05
3687 901 2.7126736111111112e-06
3688 901 2.7126736111111112e-06
3689 901 1.6276041666666666e-05
3691 901 1.6276041666666666e-05
3692 901 2.7126736111111112e-06
3782 901 1.6276041666666666e-05
3784 901 2.7126736111111112e-06
3785 901 1.6276041666666666e-05
3786 901 1.6276041666666666e-05
3787 901 1.6276041666666666e-05
3789 901 2.7126736111111112e-06
3880 901 2.7126736111111112e-06
902 902 0.00019531249999999998
903 902 1.0850694444444445e-05
933 902 1.0850694444444445e-05
934 902 1.0850694444444445e-05
3690 902 2.7126736111111112e-06
3691 902 2.7126736111111112e-06
3692 902 1.6276041666666666e-05
3694 902 1.6276041666666666e-05
3695 902 2.7126736111111112e-06
3785 902 1.6276041666666666e-05
3787 902 2.7126736111111112e-06
3788 902 1.6276041666666666e-05
3789 902 1.6276041666666666e-05
3790 902 1.6276041666666666e-05
3792 902 2.7126736111111112e-06
3883 902 2.7126736111111112e-06
903 903 0.00019531249999999998
904 903 1.0850694444444445e-05
934 903 1.0850694444444445e-05
935 903 1.0850694444444445e-05
3693 903 2.7126736111111112e-06
3694 903 2.7126736111111112e-06
3695 903 1.6276041666666666e-05
3697 903 1.6276041666666666e-05
3698 903 2.7126736111111112e-06
3788 903 1.6276041666666666e-05
3790 903 2.7126736111111112e-06
3791 903 1.6276041666666666e-05
3792 903 1.6276041666666666e-05
3793 903 1.6276041666666666e-05
3795 903 2.7126736111111112e-06
3886 903 2.7126736111111112e-06
904 904 0.00019531249999999998
905 904 1.0850694444444445e-05
935 904 1.0850694444444445e-05
936 904 1.0850694444444445e-05
3696 904 2.7126736111111112e-06
3697 904 2.7126736111111112e-06
3698 904 1.6276041666666666e-05
3700 904 1.6276041666666666e-05
3701 904 2.7126736111111112e-06
3791 904 1.6276041666666666e-05
3793 904 2.7126736111111112e-06
3794 904 1.6276041666666666e-05
3795 904 1.6276041666666666e-05
3796 904 1.6276041666666666e-05
3798 904 2.7126736111111112e-06
3889 904 2.7126736111111112e-06
905 905 0.00019531249999999998
906 905 1.0850694444444445e-05
936 905 1.0850694444444445e-05
937 905 1.0850694444444445e-05
3699 905 2.7126736111111112e-06
3700 905 2.7126736111111112e-06
3701 905 1.6276041666666666e-05
3703 905 1.6276041666666666e-05
3704 905 2.7126736111111112e-06
3794 905 1.6276041666666666e-05
3796 905 2.7126736111111112e-06
3797 905 1.6276041666666666e-05
3798 905 1.6276041666666666e-05
3799 905 1.6276041666666666e-05
3801 905 2.7126736111111112e-06
3892 905 2.7126736111111112e-06
906 906 0.00019531249999999998
907 906 1.0850694444444445e-05
937 906 1.0850694444444445e-05
938 906 1.0850694444444445e-05
3702 906 2.7126736111111112e-06
3703 906 2.7126736111111112e-06
3704 906 1.6276041666666666e-05
3706 906 1.6276041666666666e-05
3707 906 2.7126736111111112e-06
3797 906 1.6276041666666666e-05
3799 906 2.7126736111111112e-06
3800 906 1.6276041666666666e-05
3801 906 1.6276041666666666e-05
3802 906 1.6276041666666666e-05
3804 906 2.7126736111111112e-06
3895 906 2.7126736111111112e-06
907 907 0.00019531249999999998
908 907 1.0850694444444445e-05
938 907 1.0850694444444445e-05
939 907 1.0850694444444445e-05
3705 907 2.7126736111111112e-06
3706 907 2.7126736111111112e-06
3707 907 1.6276041666666666e-05
3709 907 1.6276041666666666e-05
3710 907 2.7126736111111112e-06
3800 907 1.6276041666666666e-05
3802 907 2.7126736111111112e-06
3803 907 1.6276041666666666e-05
3804 907 1.6276041666666666e-05
3805 907 1.6276041666666666e-05
3807 907 2.7126736111111112e-06
3898 907 2.7126736111111112e-06
908 908 0.00019531249999999998
909 908 1.0850694444444445e-05
939 908 1.0850694444444445e-05
940 908 1.0850694444444445e-05
3708 908 2.7126736111111112e-06
3709 908 2.7126736111111112e-06
3710 908 1.6276041666666666e-05
3712 908 1.6276041666666666e-05
3713 908 2.7126736111111112e-06
3803 908 1.6276041666666666e-05
3805 908 2.7126736111111112e-06
3806 908 1.6276041666666666e-05
3807 908 1.6276041666666666e-05
3808 908 1.6276041666666666e-05
3810 908 2.7126736111111112e-06
3901 908 2.7126736111111112e-06
909 909 0.00019531249999999998
910 909 1.0850694444444445e-05
940 909 1.0850694444444445e-05
941 909 1.0850694444444445e-05
3711 909 2.7126736111111112e-06
3712 909 2.7126736111111112e-06
3713 909 1.6276041666666666e-05
3715 909 1.6276041666666666e-05
3716 909 2.7126736111111112e-06
3806 909 1.6276041666666666e-05
3808 909 2.7126736111111112e-06
3809 909 1.6276041666666666e-05
3810 909 1.6276041666666666e-05
3811 909 1.6276041666666666e-05
3813 909 2.7126736111111112e-06
3904 909 2.7126736111111112e-06
910 910 0.00019531249999999998
911 910 1.0850694444444445e-05
941 910 1.0850694444444445e-05
942 910 1.0850694444444445e-05
3714 910 2.7126736111111112e-06
3715 910 2.7126736111111112e-06
3716 910 1.6276041666666666e-05
3718 910 1.6276041666666666e-05
3719 910 2.7126736111111112e-06
3809 910 1.6276041666666666e-05
3811 910 2.7126736111111112e-06
3812 910 1.6276041666666666e-05
3813 910 1.6276041666666666e-05
3814 910 1.6276041666666666e-05
3816 910 2.7126736111111112e-06
3907 910 2.7126736111111112e-06
911 911 0.00019531249999999998
912 911 1.0850694444444445e-05
942 911 1.0850694444444445e-05
943 911 1.0850694444444445e-05
3717 911 2.7126736111111112e-06
3718 911 2.7126736111111112e-06
3719 911 1.6276041666666666e-05
3721 911 1.6276041666666666e-05
3722 911 2.7126736111111112e-06
3812 911 1.6276041666666666e-05
3814 911 2.7126736111111112e-06
3815 911 1.6276041666666666e-05
3816 911 1.6276041666666666e-05
3817 911 1.6276041666666666e-05
3819 911 2.7126736111111112e-06
3910 911 2.7126736111111112e-06
912 912 0.00019531249999999998
913 912 1.0850694444444445e-05
943 912 1.0850694444444445e-05
944 912 1.0850694444444445e-05
3720 912 2.7126736111111112e-06
3721 912 2.7126736111111112e-06
3722 912 1.6276041666666666e-05
3724 912 1.6276041666666666e-05
3725 912 2.7126736111111112e-06
3815 912 1.6276041666666666e-05
3817 912 2.7126736111111112e-06
3818 912 1.6276041666666666e-05
3819 912 1.6276041666666666e-05
3820 912 1.6276041666666666e-05
3822 912 2.7126736111111112e-06
3913 912 2.7126736111111112e-06
913 913 0.00019531249999999998
914 913 1.0850694444444445e-05
944 913 1.0850694444444445e-05
945 913 1.0850694444444445e-05
3723 913 2.7126736111111112e-06
3724 913 2.7126736111111112e-06
3725 913 1.6276041666666666e-05
3727 913 1.6276041666666666e-05
3728 913 2.7126736111111112e-06
3818 913 1.6276041666666666e-05
3820 913 2.7126736111111112e-06
3821 913 1.6276041666666666e-05
3822 913 1.6276041666666666e-05
3823 913 1.6276041666666666e-05
3825 913 2.7126736111111112e-06
3916 913 2.7126736111111112e-06
914 914 0.00019531249999999998
915 914 1.0850694444444445e-05
945 914 1.0850694444444445e-05
946 914 1.0850694444444445e-05
3726 914 2.7126736111111112e-06
3727 914 2.7126736111111112e-06
3728 914 1.6276041666666666e-05
3730 914 1.6276041666666666e-05
3731 914 2.7126736111111112e-06
3821 914 1.6276041666666666e-05
3823 914 2.7126736111111112e-06
3824 914 1.6276041666666666e-05
3825 914 1.6276041666666666e-05
3826 914 1.6276041666666666e-05
3828 914 2.7126736111111112e-06
3919 914 2.7126736111111112e-06
915 915 0.00019531249999999998
916 915 1.0850694444444445e-05
946 915 1.0850694444444445e-05
947 915 1.0850694444444445e-05
3729 915 2.7126736111111112e-06
3730 915 2.7126736111111112e-06
3731 915 1.6276041666666666e-05
3733 915 1.6276041666666666e-05
3734 915 2.7126736111111112e-06
3824 915 1.6276041666666666e-05
3826 915 2.7126736111111112e-06
3827 915 1.6276041666666666e-05
3828 915 1.6276041666666666e-05
3829 915 1.6276041666666666e-05
3831 915 2.7126736111111112e-06
3922 915 2.7126736111111112e-06
916 916 0.00019531249999999998
917 916 1.0850694444444445e-05
947 916 1.0850694444444445e-05
948 916 1.0850694444444445e-05
3732 916 2.7126736111111112e-06
3733 916 2.7126736111111112e-06
3734 916 1.6276041666666666e-05
3736 916 1.6276041666666666e-05
3737 916 2.7126736111111112e-06
3827 916 1.6276041666666666e-05
3829 916 2.7126736111111112e-06
3830 916 1.6276041666666666e-05
3831 916 1.6276041666666666e-05
3832 916 1.6276041666666666e-05
3834 916 2.7126736111111112e-06
3925 916 2.7126736111111112e-06
917 917 0.00019531249999999998
918 917 1.0850694444444445e-05
948 917 1.0850694444444445e-05
949 917 1.0850694444444445e-05
3735 917 2.7126736111111112e-06
3736 917 2.7126736111111112e-06
3737 917 1.6276041666666666e-05
3739 917 1.6276041666666666e-05
3740 917 2.7126736111111112e-06
3830 917 1.6276041666666666e-05
3832 917 2.7126736111111112e-06
3833 917 1.6276041666666666e-05
3834 917 1.6276041666666666e-05
3835 917 1.6276041666666666e-05
3837 917 2.7126736111111112e-06
3928 917 2.7126736111111112e-06
918 918 0.00019531249999999998
919 918 1.0850694444444445e-05
949 918 1.0850694444444445e-05
950 918 1.0850694444444445e-05
3738 918 2.7126736111111112e-06
3739 918 2.7126736111111112e-06
3740 918 1.6276041666666666e-05
3742 918 1.6276041666666666e-05
3743 918 2.7126736111111112e-06
3833 918 1.6276041666666666e-05
3835 918 2.7126736111111112e-06
3836 918 1.6276041666666666e-05
3837 918 1.6276041666666666e-05
3838 918 1.6276041666666666e-05
3840 918 2.7126736111111112e-06
3931 918 2.7126736111111112e-06
919 919 0.00019531249999999998
920 919 1.0850694444444445e-05
950 919 1.0850694444444445e-05
951 919 1.0850694444444445e-05
3741 919 2.7126736111111112e-06
3742 919 2.7126736111111112e-06
3743 919 1.6276041666666666e-05
3745 919 1.6276041666666666e-05
3746 919 2.7126736111111112e-06
3836 919 1.6276041666666666e-05
3838 919 2.7126736111111112e-06
3839 919 1.6276041666666666e-05
3840 919 1.6276041666666666e-05
3841 919 1.6276041666666666e-05
3843 919 2.7126736111111112e-06
3934 919 2.7126736111111112e-06
920 920 0.00019531249999999998
921 920 1.0850694444444445e-05
951 920 1.0850694444444445e-05
952 920 1.0850694444444445e-05
3744 920 2.7126736111111112e-06
3745 920 2.7126736111111112e-06
3746 920 1.6276041666666666e-05
3748 920 1.6276041666666666e-05
3749 920 2.7126736111111112e-06
3839 920 1.6276041666666666e-05
3841 920 2.7126736111111112e-06
3842 920 1.6276041666666666e-05
3843 920 1.6276041666666666e-05
3844 920 1.6276041666666666e-05
3846 920 2.7126736111111112e-06
3937 920 2.7126736111111112e-06
921 921 0.00019531249999999998
922 921 1.0850694444444445e-05
952 921 1.0850694444444445e-05
953 921 1.0850694444444445e-05
3747 921 2.7126736111111112e-06
3748 921 2.7126736111111112e-06
3749 921 1.6276041666666666e-05
3751 921 1.6276041666666666e-05
3752 921 2.7126736111111112e-06
3842 921 1.6276041666666666e-05
3844 921 2.7126736111111112e-06
3845 921 1.6276041666666666e-05
3846 921 1.6276041666666666e-05
3847 921 1.6276041666666666e-05
3849 921 2.7126736111111112e-06
3940 921 2.7126736111111112e-06
922 922 0.00019531249999999998
923 922 1.0850694444444445e-05
953 922 1.0850694444444445e-05
954 922 1.0850694444444445e-05
3750 922 2.7126736111111112e-06
3751 922 2.7126736111111112e-06
3752 922 1.6276041666666666e-05
3754 922 1.6276041666666666e-05
3755 922 2.7126736111111112e-06
3845 922 1.6276041666666666e-05
3847 922 2.7126736111111112e-06
3848 922 1.6276041666666666e-05
3849 922 1.6276041666666666e-05
3850 922 1.6276041666666666e-05
3852 922 2.7126736111111112e-06
3943 922 2.7126736111111112e-06
923 923 0.00019531249999999998
924 923 1.0850694444444445e-05
954 923 1.0850694444444445e-05
955 923 1.0850694444444445e-05
3753 923 2.7126736111111112e-06
3754 923 2.7126736111111112e-06
3755 923 1.6276041666666666e-05
3757 923 1.6276041666666666e-05
3758 923 2.7126736111111112e-06
3848 923 1.6276041666666666e-05
3850 923 2.7126736111111112e-06
3851 923 1.6276041666666666e-05
3852 923 1.6276041666666666e-05
3853 923 1.6276041666666666e-05
3855 923 2.7126736111111112e-06
3946 923 2.7126736111111112e-06
924 924 0.00019531249999999998
925 924 1.0850694444444445e-05
955 924 1.0850694444444445e-05
956 924 1.0850694444444445e-05
3756 924 2.7126736111111112e-06
3757 924 2.7126736111111112e-06
3758 924 1.6276041666666666e-05
3760 924 1.6276041666666666e-05
3761 924 2.7126736111111112e-06
3851 924 1.6276041666666666e-05
3853 924 2.7126736111111112e-06
3854 924 1.6276041666666666e-05
3855 924 1.6276041666666666e-05
3856 924 1.6276041666666666e-05
3858 924 2.7126736111111112e-06
3949 924 2.7126736111111112e-06
925 925 0.00019531249999999998
926 925 1.0850694444444445e-05
956 925 1.0850694444444445e-05
957 925 1.0850694444444445e-05
3759 925 2.7126736111111112e-06
3760 925 2.7126736111111112e-06
3761 925 1.6276041666666666e-05
3763 925 1.6276041666666666e-05
3764 925 2.7126736111111112e-06
3854 925 1.6276041666666666e-05
3856 925 2.7126736111111112e-06
3857 925 1.6276041666666666e-05
3858 925 1.6276041666666666e-05
3859 925 1.6276041666666666e-05
3861 925 2.7126736111111112e-06
3952 925 2.7126736111111112e-06
926 926 0.00019531249999999998
927 926 1.0850694444444445e-05
957 926 1.0850694444444445e-05
958 926 1.0850694444444445e-05
3762 926 2.7126736111111112e-06
3763 926 2.7126736111111112e-06
3764 926 1.6276041666666666e-05
3766 926 1.6276041666666666e-05
3767 926 2.7126736111111112e-06
3857 926 1.6276041666666666e-05
3859 926 2.7126736111111112e-06
3860 926 1.6276041666666666e-05
3861 926 1.6276041666666666e-05
3862 926 1.6276041666666666e-05
3864 926 2.7126736111111112e-06
3955 926 2.7126736111111112e-06
927 927 0.00019531249999999998
928 927 1.0850694444444445e-05
958 927 1.0850694444444445e-05
959 927 1.0850694444444445e-05
3765 927 2.7126736111111112e-06
3766 927 2.7126736111111112e-06
3767 927 1.6276041666666666e-05
3769 927 1.6276041666666666e-05
3770 927 2.7126736111111112e-06
3860 927 1.6276041666666666e-05
3862 927 2.7126736111111112e-06
3863 927 1.6276041666666666e-05
3864 927 1.6276041666666666e-05
3865 927 1.6276041666666666e-05
3867 927 2.7126736111111112e-06
3958 927 2.7126736111111112e-06
928 928 0.00019531249999999998
929 928 1.0850694444444445e-05
959 928 1.0850694444444445e-05
960 928 1.0850694444444445e-05
3768 928 2.7126736111111112e-06
3769 928 2.7126736111111112e-06
3770 928 1.6276041666666666e-05
3772 928 1.6276041666666666e-05
3773 928 2.7126736111111112e-06
3863 928 1.6276041666666666e-05
3865 928 2.7126736111111112e-06
3866 928 1.6276041666666666e-05
3867 928 1.6276041666666666e-05
3868 928 1.6276041666666666e-05
3870 928 2.7126736111111112e-06
3961 928 2.7126736111111112e-06
929 929 0.00019531249999999998
930 929 1.0850694444444445e-05
960 929 1.0850694444444445e-05
961 929 1.0850694444444445e-05
3771 929 2.7126736111111112e-06
3772 929 2.7126736111111112e-06
3773 929 1.6276041666666666e-05
3775 929 1.6276041666666666e-05
3776 929 2.7126736111111112e-06
3866 929 1.6276041666666666e-05
3868 929 2.7126736111111112e-06
3869 929 1.6276041666666666e-05
3870 929 1.6276041666666666e-05
3871 929 1.6276041666666666e-05
3873 929 2.7126736111111112e-06
3964 929 2.7126736111111112e-06
930 930 0.00019531249999999998
961 930 1.0850694444444445e-05
3774 930 2.7126736111111112e-06
3775 930 2.7126736111111112e-06
3776 930 1.6276041666666666e-05
3778 930 1.6276041666666666e-05
3779 930 2.7126736111111112e-06
3869 930 1.6276041666666666e-05
3871 930 2.7126736111111112e-06
3872 930 1.6276041666666666e-05
3873 930 1.6276041666666666e-05
3874 930 1.6276041666666666e-05
3967 930 2.7126736111111112e-06
931 931 0.00019531249999999998
932 931 1.0850694444444445e-05
3780 931 2.7126736111111112e-06
3781 931 1.6276041666666666e-05
3783 931 1.6276041666666666e-05
3784 931 2.7126736111111112e-06
3875 931 1.6276041666666666e-05
3876 931 2.7126736111111112e-06
3877 931 1.6276041666666666e-05
3878 931 1.6276041666666666e-05
3879 931 1.6276041666666666e-05
3881 931 2.7126736111111112e-06
932 932 0.00019531249999999998
933 932 1.0850694444444445e-05
3782 932 2.7126736111111112e-06
3783 932 2.7126736111111112e-06
3784 932 1.6276041666666666e-05
3786 932 1.6276041666666666e-05
3787 932 2.7126736111111112e-06
3877 932 1.6276041666666666e-05
3879 932 2.7126736111111112e-06
3880 932 1.6276041666666666e-05
3881 932 1.6276041666666666e-05
3882 932 1.6276041666666666e-05
3884 932 2.7126736111111112e-06
933 933 0.00019531249999999998
934 933 1.0850694444444445e-05
3785 933 2.7126736111111112e-06
3786 933 2.7126736111111112e-06
3787 933 1.6276041666666666e-05
3789 933 1.6276041666666666e-05
3790 933 2.7126736111111112e-06
3880 933 1.6276041666666666e-05
3882 933 2.7126736111111112e-06
3883 933 1.6276041666666666e-05
3884 933 1.6276041666666666e-05
3885 933 1.6276041666666666e-05
3887 933 2.7126736111111112e-06
934 934 0.00019531249999999998
935 934 1.0850694444444445e-05
3788 934 2.7126736111111112e-06
3789 934 2.7126736111111112e-06
3790 934 1.6276041666666666e-05
3792 934 1.6276041666666666e-05
3793 934 2.7126736111111112e-06
3883 934 1.6276041666666666e-05
3885 934 2.7126736111111112e-06
3886 934 1.6276041666666666e-05
3887 934 1.6276041666666666e-05
3888 934 1.6276041666666666e-05
3890 934 2.7126736111111112e-06
935 935 0.00019531249999999998
936 935 1.0850694444444445e-05
3791 935 2.7126736111111112e-06
3792 935 2.7126736111111112e-06
3793 935 1.6276041666666666e-05
3795 935 1.6276041666666666e-05
3796 935 2.7126736111111112e-06
3886 935 1.6276041666666666e-05
3888 935 2.7126736111111112e-06
3889 935 1.6276041666666666e-05
3890 935 1.6276041666666666e-05
3891 935 1.6276041666666666e-05
3893 935 2.7126736111111112e-06
936 936 0.00019531249999999998
937 936 1.0850694444444445e-05
3794 936 2.7126736111111112e-06
3795 936 2.7126736111111112e-06
3796 936 1.6276041666666666e-05
3798 936 1.6276041666666666e-05
3799 936 2.7126736111111112e-06
3889 936 1.6276041666666666e-05
3891 936 2.7126736111111112e-06
3892 936 1.6276041666666666e-05
3893 936 1.6276041666666666e-05
3894 936 1.6276041666666666e-05
3896 936 2.7126736111111112e-06
937 937 0.00019531249999999998
938 937 1.0850694444444445e-05
3797 937 2.7126736111111112e-06
3798 937 2.7126736111111112e-06
3799 937 1.6276041666666666e-05
3801 937 1.6276041666666666e-05
3802 937 2.7126736111111112e-06
3892 937 1.6276041666666666e-05
3894 937 2.7126736111111112e-06
3895 937 1.6276041666666666e-05
3896 937 1.6276041666666666e-05
3897 937 1.6276041666666666e-05
3899 937 2.7126736111111112e-06
938 938 0.00019531249999999998
939 938 1.0850694444444445e-05
3800 938 2.7126736111111112e-06
3801 938 2.7126736111111112e-06
3802 938 1.6276041666666666e-05
3804 938 1.6276041666666666e-05
3805 938 2.7126736111111112e-06
3895 938 1.6276041666666666e-05
3897 938 2.7126736111111112e-06
3898 938 1.6276041666666666e-05
3899 938 1.6276041666666666e-05
3900 938 1.6276041666666666e-05
3902 938 2.7126736111111112e-06
939 939 0.00019531249999999998
940 939 1.0850694444444445e-05
3803 939 2.7126736111111112e-06
3804 939 2.7126736111111112e-06
3805 939 1.6276041666666666e-05
3807 939 1.6276041666666666e-05
3808 939 2.7126736111111112e-06
3898 939 1.6276041666666666e-05
3900 939 2.7126736111111112e-06
3901 939 1.6276041666666666e-05
3902 939 1.6276041666666666e-05
3903 939 1.6276041666666666e-05
3905 939 2.7126736111111112e-06
940 940 0.00019531249999999998
941 940 1.0850694444444445e-05
3806 940 2.7126736111111112e-06
3807 940 2.7126736111111112e-06
3808 940 1.6276041666666666e-05
3810 940 1.6276041666666666e-05
3811 940 2.7126736111111112e-06
3901 940 1.6276041666666666e-05
3903 940 2.7126736111111112e-06
3904 940 1.6276041666666666e-05
3905 940 1.6276041666666666e-05
3906 940 1.6276041666666666e-05
3908 940 2.7126736111111112e-06
941 941 0.00019531249999999998
942 941 1.0850694444444445e-05
3809 941 2.7126736111111112e-06
3810 941 2.7126736111111112e-06
3811 941 1.6276041666666666e-05
3813 941 1.6276041666666666e-05
3814 941 2.7126736111111112e-06
3904 941 1.6276041666666666e-05
3906 941 2.7126736111111112e-06
3907 941 1.6276041666666666e-05
3908 941 1.6276041666666666e-05
3909 941 1.6276041666666666e-05
3911 941 2.7126736111111112e-06
942 942 0.00019531249999999998
943 942 1.0850694444444445e-05
3812 942 2.7126736111111112e-06
3813 942 2.7126736111111112e-06
3814 942 1.6276041666666666e-05
3816 942 1.6276041666666666e-05
3817 942 2.7126736111111112e-06
3907 942 1.6276041666666666e-05
3909 942 2.7126736111111112e-06
3910 942 1.6276041666666666e-05
3911 942 1.6276041666666666e-05
3912 942 1.6276041666666666e-05
3914 942 2.7126736111111112e-06
943 943 0.00019531249999999998
944 943 1.0850694444444445e-05
3815 943 2.7126736111111112e-06
3816 943 2.7126736111111112e-06
3817 943 1.6276041666666666e-05
3819 943 1.6276041666666666e-05
3820 943 2.7126736111111112e-06
3910 943 1.6276041666666666e-05
3912 943 2.7126736111111112e-06
3913 943 1.6276041666666666e-05
3914 943 1.6276041666666666e-05
3915 943 1.6276041666666666e-05
3917 943 2.7126736111111112e-06
944 944 0.00019531249999999998
945 944 1.0850694444444445e-05
3818 944 2.7126736111111112e-06
3819 944 2.7126736111111112e-06
3820 944 1.6276041666666666e-05
3822 944 1.6276041666666666e-05
3823 944 2.7126736111111112e-06
3913 944 1.6276041666666666e-05
3915 944 2.7126736111111112e-06
3916 944 1.6276041666666666e-05
3917 944 1.6276041666666666e-05
3918 944 1.6276041666666666e-05
3920 944 2.7126736111111112e-06
945 945 0.00019531249999999998
946 945 1.0850694444444445e-05
3821 945 2.7126736111111112e-06
3822 945 2.7126736111111112e-06
3823 945 1.6276041666666666e-05
3825 945 1.6276041666666666e-05
3826 945 2.7126736111111112e-06
3916 945 1.6276041666666666e-05
3918 945 2.7126736111111112e-06
3919 945 1.6276041666666666e-05
3920 945 1.6276041666666666e-05
3921 945 1.6276041666666666e-05
3923 945 2.7126736111111112e-06
946 946 0.00019531249999999998
947 946 1.0850694444444445e-05
3824 946 2.7126736111111112e-06
3825 946 2.7126736111111112e-06
3826 946 1.6276041666666666e-05
3828 946 1.6276041666666666e-05
3829 946 2.7126736111111112e-06
3919 946 1.6276041666666666e-05
3921 946 2.7126736111111112e-06
3922 946 1.6276041666666666e-05
3923 946 1.6276041666666666e-05
3924 946 1.6276041666666666e-05
3926 946 2.7126736111111112e-06
947 947 0.00019531249999999998
948 947 1.0850694444444445e-05
3827 947 2.7126736111111112e-06
3828 947 2.7126736111111112e-06
3829 947 1.6276041666666666e-05
3831 947 1.6276041666666666e-05
3832 947 2.7126736111111112e-06
3922 947 1.6276041666666666e-05
3924 947 2.7126736111111112e-06
3925 947 1.6276041666666666e-05
3926 947 1.6276041666666666e-05
3927 947 1.6276041666666666e-05
3929 947 2.7126736111111112e-06
948 948 0.00019531249999999998
949 948 1.0850694444444445e-05
3830 948 2.7126736111111112e-06
3831 948 2.7126736111111112e-06
3832 948 1.6276041666666666e-05
3834 948 1.6276041666666666e-05
3835 948 2.7126736111111112e-06
3925 948 1.6276041666666666e-05
3927 948 2.7126736111111112e-06
3928 948 1.6276041666666666e-05
3929 948 1.6276041666666666e-05
3930 948 1.6276041666666666e-05
3932 948 2.7126736111111112e-06
949 949 0.00019531249999999998
950 949 1.0850694444444445e-05
3833 949 2.7126736111111112e-06
3834 949 2.7126736111111112e-06
3835 949 1.6276041666666666e-05
3837 949 1.6276041666666666e-05
3838 949 2.7126736111111112e-06
3928 949 1.6276041666666666e-05
3930 949 2.7126736111111112e-06
3931 949 1.6276041666666666e-05
3932 949 1.6276041666666666e-05
3933 949 1.6276041666666666e-05
3935 949 2.7126736111111112e-06
950 950 0.00019531249999999998
951 950 1.0850694444444445e-05
3836 950 2.7126736111111112e-06
3837 950 2.7126736111111112e-06
3838 950 1.6276041666666666e-05
3840 950 1.6276041666666666e-05
3841 950 2.7126736111111112e-06
3931 950 1.6276041666666666e-05
3933 950 2.7126736111111112e-06
3934 950 1.6276041666666666e-05
3935 950 1.6276041666666666e-05
3936 950 1.6276041666666666e-05
3938 950 2.7126736111111112e-06
951 951 0.00019531249999999998
952 951 1.0850694444444445e-05
3839 951 2.7126736111111112e-06
3840 951 2.7126736111111112e-06
3841 951 1.6276041666666666e-05
3843 951 1.6276041666666666e-05
3844 951 2.7126736111111112e-06
3934 951 1.6276041666666666e-05
3936 951 2.7126736111111112e-06
3937 951 1.6276041666666666e-05
3938 951 1.6276041666666666e-05
3939 951 1.6276041666666666e-05
3941 951 2.7126736111111112e-06
952 952 0.00019531249999999998
953 952 1.0850694444444445e-05
3842 952 2.7126736111111112e-06
3843 952 2.7126736111111112e-06
3844 952 1.6276041666666666e-05
3846 952 1.6276041666666666e-05
3847 952 2.7126736111111112e-06
3937 952 1.6276041666666666e-05
3939 952 2.7126736111111112e-06
3940 952 1.6276041666666666e-05
3941 952 1.6276041666666666e-05
3942 952 1.6276041666666666e-05
3944 952 2.7126736111111112e-06
953 953 0.00019531249999999998
954 953 1.0850694444444445e-05
3845 953 2.7126736111111112e-06
3846 953 2.7126736111111112e-06
3847 953 1.6276041666666666e-05
3849 953 1.6276041666666666e-05
3850 953 2.7126736111111112e-06
3940 953 1.6276041666666666e-05
3942 953 2.7126736111111112e-06
3943 953 1.6276041666666666e-05
3944 953 1.6276041666666666e-05
3945 953 1.6276041666666666e-05
3947 953 2.7126736111111112e-06
954 954 0.00019531249999999998
955 954 1.0850694444444445e-05
3848 954 2.7126736111111112e-06
3849 954 2.7126736111111112e-06
3850 954 1.6276041666666666e-05
3852 954 1.6276041666666666e-05
3853 954 2.7126736111111112e-06
3943 954 1.6276041666666666e-05
3945 954 2.7126736111111112e-06
3946 954 1.6276041666666666e-05
3947 954 1.6276041666666666e-05
3948 954 1.6276041666666666e-05
3950 954 2.7126736111111112e-06
955 955 0.00019531249999999998
956 955 1.0850694444444445e-05
3851 955 2.7126736111111112e-06
3852 955 2.7126736111111112e-06
3853 955 1.6276041666666666e-05
3855 955 1.6276041666666666e-05
3856 955 2.7126736111111112e-06
3946 955 1.6276041666666666e-05
3948 955 2.7126736111111112e-06
3949 955 1.6276041666666666e-05
3950 955 1.6276041666666666e-05
3951 955 1.6276041666666666e-05
3953 955 2.7126736111111112e-06
956 956 0.00019531249999999998
957 956 1.0850694444444445e-05
3854 956 2.7126736111111112e-06
3855 956 2.7126736111111112e-06
3856 956 1.6276041666666666e-05
3858 956 1.6276041666666666e-05
3859 956 2.7126736111111112e-06
3949 956 1.6276041666666666e-05
3951 956 2.7126736111111112e-06
3952 956 1.6276041666666666e-05
3953 956 1.6276041666666666e-05
3954 956 1.6276041666666666e-05
3956 956 2.7126736111111112e-06
957 957 0.00019531249999999998
958 957 1.0850694444444445e-05
3857 957 2.7126736111111112e-06
3858 957 2.7126736111111112e-06
3859 957 1.6276041666666666e-05
3861 957 1.6276041666666666e-05
3862 957 2.7126736111111112e-06
3952 957 1.6276041666666666e-05
3954 957 2.7126736111111112e-06
3955 957 1.6276041666666666e-05
3956 957 1.6276041666666666e-05
3957 957 1.6276041666666666e-05
3959 957 2.7126736111111112e-06
958 958 0.00019531249999999998
959 958 1.0850694444444445e-05
3860 958 2.7126736111111112e-06
3861 958 2.7126736111111112e-06
3862 958 1.6276041666666666e-05
3864 958 1.6276041666666666e-05
3865 958 2.7126736111111112e-06
3955 958 1.6276041666666666e-05
3957 958 2.7126736111111112e-06
3958 958 1.6276041666666666e-05
3959 958 1.6276041666666666e-05
3960 958 1.6276041666666666e-05
3962 958 2.7126736111111112e-06
959 959 0.00019531249999999998
960 959 1.0850694444444445e-05
3863 959 2.7126736111111112e-06
3864 959 2.7126736111111112e-06
3865 959 1.6276041666666666e-05
3867 959 1.6276041666666666e-05
3868 959 2.7126736111111112e-06
3958 959 1.6276041666666666e-05
3960 959 2.7126736111111112e-06
3961 959 1.6276041666666666e-05
3962 959 1.6276041666666666e-05
3963 959 1.6276041666666666e-05
3965 959 2.7126736111111112e-06
960 960 0.00019531249999999998
961 960 1.0850694444444445e-05
3866 960 2.7126736111111112e-06
3867 960 2.7126736111111112e-06
3868 960 1.6276041666666666e-05
3870 960 1.6276041666666666e-05
3871 960 2.7126736111111112e-06
3961 960 1.6276041666666666e-05
3963 960 2.7126736111111112e-06
3964 960 1.6276041666666666e-05
3965 960 1.6276041666666666e-05
3966 960 1.6276041666666666e-05
3968 960 2.7126736111111112e-06
961 961 0.00019531249999999998
3869 961 2.7126736111111112e-06
3870 961 2.7126736111111112e-06
3871 961 1.6276041666666666e-05
3873 961 1.6276041666666666e-05
3874 961 2.7126736111111112e-06
3964 961 1.6276041666666666e-05
3966 961 2.7126736111111112e-06
3967 961 1.6276041666666666e-05
3968 961 1.6276041666666666e-05
3969 961 1.6276041666666666e-05
962 962 1.0850694444444445e-05
963 962 2.7126736111111112e-06
1025 962 2.7126736111111112e-06
963 963 1.0850694444444445e-05
964 963 2.7126736111111112e-06
1027 963 2.7126736111111112e-06
964 964 1.0850694444444445e-05
965 964 2.7126736111111112e-06
1027 964 2.7126736111111112e-06
965 965 1.0850694444444445e-05
966 965 2.7126736111111112e-06
1030 965 2.7126736111111112e-06
966 966 1.0850694444444445e-05
967 966 2.7126736111111112e-06
1030 966 2.7126736111111112e-06
967 967 1.0850694444444445e-05
968 967 2.7126736111111112e-06
1033 967 2.7126736111111112e-06
968 968 1.0850694444444445e-05
969 968 2.7126736111111112e-06
1033 968 2.7126736111111112e-06
969 969 1.0850694444444445e-05
970 969 2.7126736111111112e-06
1036 969 2.7126736111111112e-06
970 970 1.0850694444444445e-05
971 970 2.7126736111111112e-06
1036 970 2.7126736111111112e-06
971 971 1.0850694444444445e-05
972 971 2.7126736111111112e-06
1039 971 2.7126736111111112e-06
972 972 1.0850694444444445e-05
973 972 2.7126736111111112e-06
1039 972 2.7126736111111112e-06
973 973 1.0850694444444445e-05
974 973 2.7126736111111112e-06
1042 973 2.7126736111111112e-06
974 974 1.0850694444444445e-05
975 974 2.7126736111111112e-06
1042 974 2.7126736111111112e-06
975 975 1.0850694444444445e-05
976 975 2.7126736111111112e-06
1045 975 2.7126736111111112e-06
976 976 1.0850694444444445e-05
977 976 2.7126736111111112e-06
1045 976 2.7126736111111112e-06
977 977 1.0850694444444445e-05
978 977 2.7126736111111112e-06
1048 977 2.7126736111111112e-06
978 978 1.0850694444444445e-05
979 978 2.7126736111111112e-06
1048 978 2.7126736111111112e-06
979 979 1.0850694444444445e-05
980 979 2.7126736111111112e-06
1051 979 2.7126736111111112e-06
980 980 1.0850694444444445e-05
981 980 2.7126736111111112e-06
1051 980 2.7126736111111112e-06
981 981 1.0850694444444445e-05
982 981 2.7126736111111112e-06
1054 981 2.7126736111111112e-06
982 982 1.0850694444444445e-05
983 982 2.7126736111111112e-06
1054 982 2.7126736111111112e-06
983 983 1.0850694444444445e-05
984 983 2.7126736111111112e-06
1057 983 2.7126736111111112e-06
984 984 1.0850694444444445e-05
985 984 2.7126736111111112e-06
1057 984 2.7126736111111112e-06
985 985 1.0850694444444445e-05
986 985 2.7126736111111112e-06
1060 985 2.7126736111111112e-06
986 986 1.0850694444444445e-05
987 986 2.7126736111111112e-06
1060 986 2.7126736111111112e-06
987 987 1.0850694444444445e-05
988 987 2.7126736111111112e-06
1063 987 2.7126736111111112e-06
988 988 1.0850694444444445e-05
989 988 2.7126736111111112e-06
1063 988 2.7126736111111112e-06
989 989 1.0850694444444445e-05
990 989 2.7126736111111112e-06
1066 989 2.7126736111111112e-06
990 990 1.0850694444444445e-05
991 990 2.7126736111111112e-06
1066 990 2.7126736111111112e-06
991 991 1.0850694444444445e-05
992 991 2.7126736111111112e-06
1069 991 2.7126736111111112e-06
992 992 1.0850694444444445e-05
993 992 2.7126736111111112e-06
1069 992 2.7126736111111112e-06
993 993 1.0850694444444445e-05
994 993 2.7126736111111112e-06
1072 993 2.7126736111111112e-06
994 994 1.0850694444444445e-05
995 994 2.7126736111111112e-06
1072 994 2.7126736111111112e-06
995 995 1.0850694444444445e-05
996 995 2.7126736111111112e-06
1075 995 2.7126736111111112e-06
996 996 1.0850694444444445e-05
997 996 2.7126736111111112e-06
1075 996 2.7126736111111112e-06
997 997 1.0850694444444445e-05
998 997 2.7126736111111112e-06
1078 997 2.7126736111111112e-06
998 998 1.0850694444444445e-05
999 998 2.7126736111111112e-06
1078 998 2.7126736111111112e-06
999 999 1.0850694444444445e-05
1000 999 2.7126736111111112e-06
1081 999 2.7126736111111112e-06
1000 1000 1.0850694444444445e-05
1001 1000 2.7126736111111112e-06
1081 1000 2.7126736111111112e-06
1001 1001 1.0850694444444445e-05
1002 1001 2.7126736111111112e-06
1084 1001 2.7126736111111112e-06
1002 1002 1.0850694444444445e-05
1003 1002 2.7126736111111112e-06
1084 1002 2.7126736111111112e-06
1003 1003 1.0850694444444445e-05
1004 1003 2.7126736111111112e-06
1087 1003 2.7126736111111112e-06
1004 1004 1.0850694444444445e-05
1005 1004 2.7126736111111112e-06
1087 1004 2.7126736111111112e-06
1005 1005 1.0850694444444445e-05
1006 1005 2.7126736111111112e-06
1090 1005 2.7126736111111112e-06
1006 1006 1.0850694444444445e-05
1007 1006 2.7126736111111112e-06
1090 1006 2.7126736111111112e-06
1007 1007 1.0850694444444445e-05
1008 1007 2.7126736111111112e-06
1093 1007 2.7126736111111112e-06
1008 1008 1.0850694444444445e-05
1009 1008 2.7126736111111112e-06
1093 1008 2.7126736111111112e-06
1009 1009 1.0850694444444445e-05
1010 1009 2.7126736111111112e-06
1096 1009 2.7126736111111112e-06
1010 1010 1.0850694444444445e-05
1011 1010 2.7126736111111112e-06
1096 1010 2.7126736111111112e-06
1011 1011 1.0850694444444445e-05
1012 1011 2.7126736111111112e-06
1099 1011 2.7126736111111112e-06
1012 1012 1.0850694444444445e-05
1013 1012 2.7126736111111112e-06
1099 1012 2.7126736111111112e-06
1013 1013 1.0850694444444445e-05
1014 1013 2.7126736111111112e-06
1102 1013 2.7126736111111112e-06
1014 1014 1.0850694444444445e-05
1015 1014 2.7126736111111112e-06
1102 1014 2.7126736111111112e-06
1015 1015 1.0850694444444445e-05
1016 1015 2.7126736111111112e-06
1105 1015 2.7126736111111112e-06
1016 1016 1.0850694444444445e-05
1017 1016 2.7126736111111112e-06
1105 1016 2.7126736111111112e-06
1017 1017 1.0850694444444445e-05
1018 1017 2.7126736111111112e-06
1108 1017 2.7126736111111112e-06
1018 1018 1.0850694444444445e-05
1019 1018 2.7126736111111112e-06
1108 1018 2.7126736111111112e-06
1019 1019 1.0850694444444445e-05
1020 1019 2.7126736111111112e-06
1111 1019 2.7126736111111112e-06
1020 1020 1.0850694444444445e-05
1021 1020 2.7126736111111112e-06
1111 1020 2.7126736111111112e-06
1021 1021 1.0850694444444445e-05
1022 1021 2.7126736111111112e-06
1114 1021 2.7126736111111112e-06
1022 1022 1.0850694444444445e-05
1023 1022 2.7126736111111112e-06
1114 1022 2.7126736111111112e-06
1023 1023 1.0850694444444445e-05
1024 1023 2.7126736111111112e-06
1117 1023 2.7126736111111112e-06
1024 1024 1.0850694444444445e-05
1117 1024 2.7126736111111112e-06
1025 1025 1.0850694444444445e-05
1026 1025 2.7126736111111112e-06
1028 1025 2.7126736111111112e-06
1026 1026 1.0850694444444445e-05
1028 1026 2.7126736111111112e-06
1120 1026 2.7126736111111112e-06
1027 1027 1.0850694444444445e-05
1029 1027 2.7126736111111112e-06
1031 1027 2.7126736111111112e-06
1028 1028 1.0850694444444445e-05
1029 1028 2.7126736111111112e-06
1122 1028 2.7126736111111112e-06
1029 1029 1.0850694444444445e-05
1031 1029 2.7126736111111112e-06
1122 1029 2.7126736111111112e-06
1030 1030 1.0850694444444445e-05
1032 1030 2.7126736111111112e-06
1034 1030 2.7126736111111112e-06
1031 1031 1.0850694444444445e-05
1032 1031 2.7126736111111112e-06
1125 1031 2.7126736111111112e-06
1032 1032 1.0850694444444445e-05
1034 1032 2.7126736111111112e-06
1125 1032 2.7126736111111112e-06
1033 1033 1.0850694444444445e-05
1035 1033 2.7126736111111112e-06
1037 1033 2.7126736111111112e-06
1034 1034 1.0850694444444445e-05
1035 1034 2.7126736111111112e-06
1128 1034 2.7126736111111112e-06
1035 1035 1.0850694444444445e-05
1037 1035 2.7126736111111112e-06
1128 1035 2.7126736111111112e-06
1036 1036 1.0850694444444445e-05
1038 1036 2.7126736111111112e-06
1040 1036 2.7126736111111112e-06
1037 1037 1.0850694444444445e-05
1038 1037 2.7126736111111112e-06
1131 1037 2.7126736111111112e-06
1038 1038 1.0850694444444445e-05
1040 1038 2.7126736111111112e-06
1131 1038 2.7126736111111112e-06
1039 1039 1.0850694444444445e-05
1041 1039 2.7126736111111112e-06
1043 1039 2.7126736111111112e-06
1040 1040 1.0850694444444445e-05
1041 1040 2.7126736111111112e-06
1134 1040 2.7126736111111112e-06
1041 1041 1.0850694444444445e-05
1043 1041 2.7126736111111112e-06
1134 1041 2.7126736111111112e-06
1042 1042 1.0850694444444445e-05
1044 1042 2.7126736111111112e-06
1046 1042 2.7126736111111112e-06
1043 1043 1.0850694444444445e-05
1044 1043 2.7126736111111112e-06
1137 1043 2.7126736111111112e-06
1044 1044 1.0850694444444445e-05
1046 1044 2.7126736111111112e-06
1137 1044 2.7126736111111112e-06
1045 1045 1.0850694444444445e-05
1047 1045 2.7126736111111112e-06
1049 1045 2.7126736111111112e-06
1046 1046 1.0850694444444445e-05
1047 1046 2.7126736111111112e-06
1140 1046 2.7126736111111112e-06
1047 1047 1.0850694444444445e-05
1049 1047 2.7126736111111112e-06
1140 1047 2.7126736111111112e-06
1048 1048 1.0850694444444445e-05
1050 1048 2.7126736111111112e-06
1052 1048 2.7126736111111112e-06
1049 1049 1.0850694444444445e-05
1050 1049 2.7126736111111112e-06
1143 1049 2.7126736111111112e-06
1050 1050 1.0850694444444445e-05
1052 1050 2.7126736111111112e-06
1143 1050 2.7126736111111112e-06
1051 1051 1.0850694444444445e-05
1053 1051 2.7126736111111112e-06
1055 1051 2.7126736111111112e-06
1052 1052 1.0850694444444445e-05
1053 1052 2.7126736111111112e-06
1146 1052 2.7126736111111112e-06
1053 1053 1.0850694444444445e-05
1055 1053 2.7126736111111112e-06
1146 1053 2.7126736111111112e-06
1054 1054 1.0850694444444445e-05
1056 1054 2.7126736111111112e-06
1058 1054 2.7126736111111112e-06
1055 1055 1.0850694444444445e-05
1056 1055 2.7126736111111112e-06
1149 1055 2.7126736111111112e-06
1056 1056 1.0850694444444445e-05
1058 1056 2.7126736111111112e-06
1149 1056 2.7126736111111112e-06
1057 1057 1.0850694444444445e-05
1059 1057 2.7126736111111112e-06
1061 1057 2.7126736111111112e-06
1058 1058 1.0850694444444445e-05
1059 1058 2.7126736111111112e-06
1152 1058 2.7126736111111112e-06
1059 1059 1.0850694444444445e-05
1061 1059 2.7126736111111112e-06
1152 1059 2.7126736111111112e-06
1060 1060 1.0850694444444445e-05
1062 1060 2.7126736111111112e-06
1064 1060 2.7126736111111112e-06
1061 1061 1.0850694444444445e-05
1062 1061 2.7126736111111112e-06
1155 1061 2.7126736111111112e-06
1062 1062 1.0850694444444445e-05
1064 1062 2.7126736111111112e-06
1155 1062 2.7126736111111112e-06
1063 1063 1.0850694444444445e-05
1065 1063 2.7126736111111112e-06
1067 1063 2.7126736111111112e-06
1064 1064 1.0850694444444445e-05
1065 1064 2.7126736111111112e-06
1158 1064 2.7126736111111112e-06
1065 1065 1.0850694444444445e-05
1067 1065 2.7126736111111112e-06
1158 1065 2.7126736111111112e-06
1066 1066 1.0850694444444445e-05
1068 1066 2.7126736111111112e-06
1070 1066 2.7126736111111112e-06
1067 1067 1.0850694444444445e-05
1068 1067 2.7126736111111112e-06
1161 1067 2.7126736111111112e-06
1068 1068 1.0850694444444445e-05
1070 1068 2.7126736111111112e-06
1161 1068 2.7126736111111112e-06
1069 1069 1.0850694444444445e-05
1071 1069 2.7126736111111112e-06
1073 1069 2.7126736111111112e-06
1070 1070 1.0850694444444445e-05
1071 1070 2.7126736111111112e-06
1164 1070 2.7126736111111112e-06
1071 1071 1.0850694444444445e-05
1073 1071 2.7126736111111112e-06
1164 1071 2.7126736111111112e-06
1072 1072 1.0850694444444445e-05
1074 1072 2.7126736111111112e-06
1076 1072 2.7126736111111112e-06
1073 1073 1.0850694444444445e-05
1074 1073 2.7126736111111112e-06
1167 1073 2.7126736111111112e-06
1074 1074 1.0850694444444445e-05
1076 1074 2.7126736111111112e-06
1167 1074 2.7126736111111112e-06
1075 1075 1.0850694444444445e-05
1077 1075 2.7126736111111112e-06
1079 1075 2.7126736111111112e-06
1076 1076 1.0850694444444445e-05
1077 1076 2.7126736111111112e-06
1170 1076 2.7126736111111112e-06
1077 1077 1.0850694444444445e-05
1079 1077 2.7126736111111112e-06
1170 1077 2.7126736111111112e-06
1078 1078 1.0850694444444445e-05
1080 1078 2.7126736111111112e-06
1082 1078 2.7126736111111112e-06
1079 1079 1.0850694444444445e-05
1080 1079 2.7126736111111112e-06
1173 1079 2.7126736111111112e-06
1080 1080 1.0850694444444445e-05
1082 1080 2.7126736111111112e-06
1173 1080 2.7126736111111112e-06
1081 1081 1.0850694444444445e-05
1083 1081 2.7126736111111112e-06
1085 1081 2.7126736111111112e-06
1082 1082 1.0850694444444445e-05
1083 1082 2.7126736111111112e-06
1176 1082 2.7126736111111112e-06
1083 1083 1.0850694444444445e-05
1085 1083 2.7126736111111112e-06
1176 1083 2.7126736111111112e-06
1084 1084 1.0850694444444445e-05
1086 1084 2.7126736111111112e-06
1088 1084 2.7126736111111112e-06
1085 1085 1.0850694444444445e-05
1086 1085 2.7126736111111112e-06
1179 1085 2.7126736111111112e-06
1086 1086 1.0850694444444445e-05
1088 1086 2.7126736111111112e-06
1179 1086 2.7126736111111112e-06
1087 1087 1.0850694444444445e-05
1089 1087 2.7126736111111112e-06
1091 1087 2.7126736111111112e-06
1088 1088 1.0850694444444445e-05
1089 1088 2.7126736111111112e-06
1182 1088 2.7126736111111112e-06
1089 1089 1.0850694444444445e-05
1091 1089 2.7126736111111112e-06
1182 1089 2.7126736111111112e-06
1090 1090 1.0850694444444445e-05
1092 1090 2.7126736111111112e-06
1094 1090 2.7126736111111112e-06
1091 1091 1.0850694444444445e-05
1092 1091 2.7126736111111112e-06
1185 1091 2.7126736111111112e-06
1092 1092 1.0850694444444445e-05
1094 1092 2.7126736111111112e-06
1185 1092 2.7126736111111112e-06
1093 1093 1.0850694444444445e-05
1095 1093 2.7126736111111112e-06
1097 1093 2.7126736111111112e-06
1094 1094 1.0850694444444445e-05
1095 1094 2.7126736111111112e-06
1188 1094 2.7126736111111112e-06
1095 1095 1.0850694444444445e-05
1097 1095 2.7126736111111112e-06
1188 1095 2.7126736111111112e-06
1096 1096 1.0850694444444445e-05
1098 1096 2.7126736111111112e-06
1100 1096 2.7126736111111112e-06
1097 1097 1.0850694444444445e-05
1098 1097 2.7126736111111112e-06
1191 1097 2.7126736111111112e-06
1098 1098 1.0850694444444445e-05
1100 1098 2.7126736111111112e-06
1191 1098 2.7126736111111112e-06
1099 1099 1.0850694444444445e-05
1101 1099 2.7126736111111112e-06
1103 1099 2.7126736111111112e-06
1100 1100 1.0850694444444445e-05
1101 1100 2.7126736111111112e-06
1194 1100 2.7126736111111112e-06
1101 1101 1.0850694444444445e-05
1103 1101 2.7126736111111112e-06
1194 1101 2.7126736111111112e-06
1102 1102 1.0850694444444445e-05
1104 1102 2.7126736111111112e-06
1106 1102 2.7126736111111112e-06
1103 1103 1.0850694444444445e-05
1104 1103 2.7126736111111112e-06
1197 1103 2.7126736111111112e-06
1104 1104 1.0850694444444445e-05
1106 1104 2.7126736111111112e-06
1197 1104 2.7126736111111112e-06
1105 1105 1.0850694444444445e-05
1107 1105 2.7126736111111112e-06
1109 1105 2.7126736111111112e-06
1106 1106 1.0850694444444445e-05
1107 1106 2.7126736111111112e-06
1200 1106 2.7126736111111112e-06
1107 1107 1.0850694444444445e-05
1109 1107 2.7126736111111112e-06
1200 1107 2.7126736111111112e-06
1108 1108 1.0850694444444445e-05
1110 1108 2.7126736111111112e-06
1112 1108 2.7126736111111112e-06
1109 1109 1.0850694444444445e-05
1110 1109 2.7126736111111112e-06
1203 1109 2.7126736111111112e-06
1110 1110 1.0850694444444445e-05
1112 1110 2.7126736111111112e-06
1203 1110 2.7126736111111112e-06
1111 1111 1.0850694444444445e-05
1113 1111 2.7126736111111112e-06
1115 1111 2.7126736111111112e-06
1112 1112 1.0850694444444445e-05
1113 1112 2.7126736111111112e-06
1206 1112 2.7126736111111112e-06
1113 1113 1.0850694444444445e-05
1115 1113 2.7126736111111112e-06
1206 1113 2.7126736111111112e-06
1114 1114 1.0850694444444445e-05
1116 1114 2.7126736111111112e-06
1118 1114 2.7126736111111112e-06
1115 1115 1.0850694444444445e-05
1116 1115 2.7126736111111112e-06
1209 1115 2.7126736111111112e-06
1116 1116 1.0850694444444445e-05
1118 1116 2.7126736111111112e-06
1209 1116 2.7126736111111112e-06
1117 1117 1.0850694444444445e-05
1119 1117 2.7126736111111112e-06
1118 1118 1.0850694444444445e-05
1119 1118 2.7126736111111112e-06
1212 1118 2.7126736111111112e-06
1119 1119 1.0850694444444445e-05
1212 1119 2.7126736111111112e-06
1120 1120 1.0850694444444445e-05
1121 1120 2.7126736111111112e-06
1123 1120 2.7126736111111112e-06
1121 1121 1.0850694444444445e-05
1123 1121 2.7126736111111112e-06
1215 1121 2.7126736111111112e-06
1122 1122 1.0850694444444445e-05
1124 1122 2.7126736111111112e-06
1126 1122 2.7126736111111112e-06
1123 1123 1.0850694444444445e-05
1124 1123 2.7126736111111112e-06
1217 1123 2.7126736111111112e-06
1124 1124 1.0850694444444445e-05
1126 1124 2.7126736111111112e-06
1217 1124 2.7126736111111112e-06
1125 1125 1.0850694444444445e-05
1127 1125 2.7126736111111112e-06
1129 1125 2.7126736111111112e-06
1126 1126 1.0850694444444445e-05
1127 1126 2.7126736111111112e-06
1220 1126 2.7126736111111112e-06
1127 1127 1.0850694444444445e-05
1129 1127 2.7126736111111112e-06
1220 1127 2.7126736111111112e-06
1128 1128 1.0850694444444445e-05
1130 1128 2.7126736111111112e-06
1132 1128 2.7126736111111112e-06
1129 1129 1.0850694444444445e-05
1130 1129 2.7126736111111112e-06
1223 1129 2.7126736111111112e-06
1130 1130 1.0850694444444445e-05
1132 1130 2.7126736111111112e-06
1223 1130 2.7126736111111112e-06
1131 1131 1.0850694444444445e-05
1133 1131 2.7126736111111112e-06
1135 1131 2.7126736111111112e-06
1132 1132 1.0850694444444445e-05
1133 1132 2.7126736111111112e-06
1226 1132 2.7126736111111112e-06
1133 1133 1.0850694444444445e-05
1135 1133 2.7126736111111112e-06
1226 1133 2.7126736111111112e-06
1134 1134 1.0850694444444445e-05
1136 1134 2.7126736111111112e-06
1138 1134 2.7126736111111112e-06
1135 1135 1.0850694444444445e-05
1136 1135 2.7126736111111112e-06
1229 1135 2.7126736111111112e-06
1136 1136 1.0850694444444445e-05
1138 1136 2.7126736111111112e-06
1229 1136 2.7126736111111112e-06
1137 1137 1.0850694444444445e-05
1139 1137 2.7126736111111112e-06
1141 1137 2.7126736111111112e-06
1138 1138 1.0850694444444445e-05
1139 1138 2.7126736111111112e-06
1232 1138 2.7126736111111112e-06
1139 1139 1.0850694444444445e-05
1141 1139 2.7126736111111112e-06
1232 1139 2.7126736111111112e-06
1140 1140 1.0850694444444445e-05
1142 1140 2.7126736111111112e-06
1144 1140 2.7126736111111112e-06
1141 1141 1.0850694444444445e-05
1142 1141 2.7126736111111112e-06
1235 1141 2.7126736111111112e-06
1142 1142 1.0850694444444445e-05
1144 1142 2.7126736111111112e-06
1235 1142 2.7126736111111112e-06
1143 1143 1.0850694444444445e-05
1145 1143 2.7126736111111112e-06
1147 1143 2.7126736111111112e-06
1144 1144 1.0850694444444445e-05
1145 1144 2.7126736111111112e-06
1238 1144 2.7126736111111112e-06
1145 1145 1.0850694444444445e-05
1147 1145 2.7126736111111112e-06
1238 1145 2.7126736111111112e-06
1146 1146 1.0850694444444445e-05
1148 1146 2.7126736111111112e-06
1150 1146 2.7126736111111112e-06
1147 1147 1.0850694444444445e-05
1148 1147 2.7126736111111112e-06
1241 1147 2.7126736111111112e-06
1148 1148 1.0850694444444445e-05
1150 1148 2.7126736111111112e-06
1241 1148 2.7126736111111112e-06
1149 1149 1.0850694444444445e-05
1151 1149 2.7126736111111112e-06
1153 1149 2.7126736111111112e-06
1150 1150 1.0850694444444445e-05
1151 1150 2.7126736111111112e-06
1244 1150 2.7126736111111112e-06
1151 1151 1.0850694444444445e-05
1153 1151 2.7126736111111112e-06
1244 1151 2.7126736111111112e-06
1152 1152 1.0850694444444445e-05
1154 1152 2.7126736111111112e-06
1156 1152 2.7126736111111112e-06
1153 1153 1.0850694444444445e-05
1154 1153 2.7126736111111112e-06
1247 1153 2.7126736111111112e-06
1154 1154 1.0850694444444445e-05
1156 1154 2.7126736111111112e-06
1247 1154 2.7126736111111112e-06
1155 1155 1.0850694444444445e-05
1157 1155 2.7126736111111112e-06
1159 1155 2.7126736111111112e-06
1156 1156 1.0850694444444445e-05
1157 1156 2.7126736111111112e-06
1250 1156 2.7126736111111112e-06
1157 1157 1.0850694444444445e-05
1159 1157 2.7126736111111112e-06
1250 1157 2.7126736111111112e-06
1158 1158 1.0850694444444445e-05
1160 1158 2.7126736111111112e-06
1162 1158 2.7126736111111112e-06
1159 1159 1.0850694444444445e-05
1160 1159 2.7126736111111112e-06
1253 1159 2.7126736111111112e-06
1160 1160 1.0850694444444445e-05
1162 1160 2.7126736111111112e-06
1253 1160 2.7126736111111112e-06
1161 1161 1.0850694444444445e-05
1163 1161 2.7126736111111112e-06
1165 1161 2.7126736111111112e-06
1162 1162 1.0850694444444445e-05
1163 1162 2.7126736111111112e-06
1256 1162 2.7126736111111112e-06
1163 1163 1.0850694444444445e-05
1165 1163 2.7126736111111112e-06
1256 1163 2.7126736111111112e-06
1164 1164 1.0850694444444445e-05
1166 1164 2.7126736111111112e-06
1168 1164 2.7126736111111112e-06
1165 1165 1.0850694444444445e-05
1166 1165 2.7126736111111112e-06
1259 1165 2.7126736111111112e-06
1166 1166 1.0850694444444445e-05
1168 1166 2.7126736111111112e-06
1259 1166 2.7126736111111112e-06
1167 1167 1.0850694444444445e-05
1169 1167 2.7126736111111112e-06
1171 1167 2.7126736111111112e-06
1168 1168 1.0850694444444445e-05
1169 1168 2.7126736111111112e-06
1262 1168 2.7126736111111112e-06
1169 1169 1.0850694444444445e-05
1171 1169 2.7126736111111112e-06
1262 1169 2.7126736111111112e-06
1170 1170 1.0850694444444445e-05
1172 1170 2.7126736111111112e-06
1174 1170 2.7126736111111112e-06
1171 1171 1.0850694444444445e-05
1172 1171 2.7126736111111112e-06
1265 1171 2.7126736111111112e-06
1172 1172 1.0850694444444445e-05
1174 1172 2.7126736111111112e-06
1265 1172 2.7126736111111112e-06
1173 1173 1.0850694444444445e-05
1175 1173 2.7126736111111112e-06
1177 1173 2.7126736111111112e-06
1174 1174 1.0850694444444445e-05
1175 1174 2.7126736111111112e-06
1268 1174 2.7126736111111112e-06
1175 1175 1.0850694444444445e-05
1177 1175 2.7126736111111112e-06
1268 1175 2.7126736111111112e-06
1176 1176 1.0850694444444445e-05
1178 1176 2.7126736111111112e-06
1180 1176 2.7126736111111112e-06
1177 1177 1.0850694444444445e-05
1178 1177 2.7126736111111112e-06
1271 1177 2.7126736111111112e-06
1178 1178 1.0850694444444445e-05
1180 1178 2.7126736111111112e-06
1271 1178 2.7126736111111112e-06
1179 1179 1.0850694444444445e-05
1181 1179 2.7126736111111112e-06
1183 1179 2.7126736111111112e-06
1180 1180 1.0850694444444445e-05
1181 1180 2.7126736111111112e-06
1274 1180 2.7126736111111112e-06
1181 1181 1.0850694444444445e-05
1183 1181 2.7126736111111112e-06
1274 1181 2.7126736111111112e-06
1182 1182 1.0850694444444445e-05
1184 1182 2.7126736111111112e-06
1186 1182 2.7126736111111112e-06
1183 1183 1.0850694444444445e-05
1184 1183 2.7126736111111112e-06
1277 1183 2.7126736111111112e-06
1184 1184 1.0850694444444445e-05
1186 1184 2.7126736111111112e-06
1277 1184 2.7126736111111112e-06
1185 1185 1.0850694444444445e-05
1187 1185 2.7126736111111112e-06
1189 1185 2.7126736111111112e-06
1186 1186 1.0850694444444445e-05
1187 1186 2.7126736111111112e-06
1280 1186 2.7126736111111112e-06
1187 1187 1.0850694444444445e-05
1189 1187 2.7126736111111112e-06
1280 1187 2.7126736111111112e-06
1188 1188 1.0850694444444445e-05
1190 1188 2.7126736111111112e-06
1192 1188 2.7126736111111112e-06
1189 1189 1.0850694444444445e-05
1190 1189 2.7126736111111112e-06
1283 1189 2.7126736111111112e-06
1190 1190 1.0850694444444445e-05
1192 1190 2.7126736111111112e-06
1283 1190 2.7126736111111112e-06
1191 1191 1.0850694444444445e-05
1193 1191 2.7126736111111112e-06
1195 1191 2.7126736111111112e-06
1192 1192 1.0850694444444445e-05
1193 1192 2.7126736111111112e-06
1286 1192 2.7126736111111112e-06
1193 1193 1.0850694444444445e-05
1195 1193 2.7126736111111112e-06
1286 1193 2.7126736111111112e-06
1194 1194 1.0850694444444445e-05
1196 1194 2.7126736111111112e-06
1198 1194 2.7126736111111112e-06
1195 1195 1.0850694444444445e-05
1196 1195 2.7126736111111112e-06
1289 1195 2.7126736111111112e-06
1196 1196 1.0850694444444445e-05
1198 1196 2.7126736111111112e-06
1289 1196 2.7126736111111112e-06
1197 1197 1.0850694444444445e-05
1199 1197 2.7126736111111112e-06
1201 1197 2.7126736111111112e-06
1198 1198 1.0850694444444445e-05
1199 1198 2.7126736111111112e-06
1292 1198 2.7126736111111112e-06
1199 1199 1.0850694444444445e-05
1201 1199 2.7126736111111112e-06
1292 1199 2.7126736111111112e-06
1200 1200 1.0850694444444445e-05
1202 1200 2.7126736111111112e-06
1204 1200 2.7126736111111112e-06
1201 1201 1.0850694444444445e-05
1202 1201 2.7126736111111112e-06
1295 1201 2.7126736111111112e-06
1202 1202 1.0850694444444445e-05
1204 1202 2.7126736111111112e-06
1295 1202 2.7126736111111112e-06
1203 1203 1.0850694444444445e-05
1205 1203 2.7126736111111112e-06
1207 1203 2.7126736111111112e-06
1204 1204 1.0850694444444445e-05
1205 1204 2.7126736111111112e-06
1298 1204 2.7126736111111112e-06
1205 1205 1.0850694444444445e-05
1207 1205 2.7126736111111112e-06
1298 1205 2.7126736111111112e-06
1206 1206 1.0850694444444445e-05
1208 1206 2.7126736111111112e-06
1210 1206 2.7126736111111112e-06
1207 1207 1.0850694444444445e-05
1208 1207 2.7126736111111112e-06
1301 1207 2.7126736111111112e-06
1208 1208 1.0850694444444445e-05
1210 1208 2.7126736111111112e-06
1301 1208 2.7126736111111112e-06
1209 1209 1.0850694444444445e-05
1211 1209 2.7126736111111112e-06
1213 1209 2.7126736111111112e-06
1210 1210 1.0850694444444445e-05
1211 1210 2.7126736111111112e-06
1304 1210 2.7126736111111112e-06
1211 1211 1.0850694444444445e-05
1213 1211 2.7126736111111112e-06
1304 1211 2.7126736111111112e-06
1212 1212 1.0850694444444445e-05
1214 1212 2.7126736111111112e-06
1213 1213 1.0850694444444445e-05
1214 1213 2.7126736111111112e-06
1307 1213 2.7126736111111112e-06
1214 1214 1.0850694444444445e-05
1307 1214 2.7126736111111112e-06
1215 1215 1.0850694444444445e-05
1216 1215 2.7126736111111112e-06
1218 1215 2.7126736111111112e-06
1216 1216 1.0850694444444445e-05
1218 1216 2.7126736111111112e-06
1310 1216 2.7126736111111112e-06
1217 1217 1.0850694444444445e-05
1219 1217 2.7126736111111112e-06
1221 1217 2.7126736111111112e-06
1218 1218 1.0850694444444445e-05
1219 1218 2.7126736111111112e-06
1312 1218 2.7126736111111112e-06
1219 1219 1.0850694444444445e-05
1221 1219 2.7126736111111112e-06
1312 1219 2.7126736111111112e-06
1220 1220 1.0850694444444445e-05
1222 1220 2.7126736111111112e-06
1224 1220 2.7126736111111112e-06
1221 1221 1.0850694444444445e-05
1222 1221 2.7126736111111112e-06
1315 1221 2.7126736111111112e-06
1222 1222 1.0850694444444445e-05
1224 1222 2.7126736111111112e-06
1315 1222 2.7126736111111112e-06
1223 1223 1.0850694444444445e-05
1225 1223 2.7126736111111112e-06
1227 1223 2.7126736111111112e-06
1224 1224 1.0850694444444445e-05
1225 1224 2.7126736111111112e-06
1318 1224 2.7126736111111112e-06
1225 1225 1.0850694444444445e-05
1227 1225 2.7126736111111112e-06
1318 1225 2.7126736111111112e-06
1226 1226 1.0850694444444445e-05
1228 1226 2.7126736111111112e-06
1230 1226 2.7126736111111112e-06
1227 1227 1.0850694444444445e-05
1228 1227 2.7126736111111112e-06
1321 1227 2.7126736111111112e-06
1228 1228 1.0850694444444445e-05
1230 1228 2.7126736111111112e-06
1321 1228 2.7126736111111112e-06
1229 1229 1.0850694444444445e-05
1231 1229 2.7126736111111112e-06
1233 1229 2.7126736111111112e-06
1230 1230 1.0850694444444445e-05
1231 1230 2.7126736111111112e-06
1324 1230 2.7126736111111112e-06
1231 1231 1.0850694444444445e-05
1233 1231 2.7126736111111112e-06
1324 1231 2.7126736111111112e-06
1232 1232 1.0850694444444445e-05
1234 1232 2.7126736111111112e-06
1236 1232 2.7126736111111112e-06
1233 1233 1.0850694444444445e-05
1234 1233 2.7126736111111112e-06
1327 1233 2.7126736111111112e-06
1234 1234 1.0850694444444445e-05
1236 1234 2.7126736111111112e-06
1327 1234 2.7126736111111112e-06
1235 1235 1.0850694444444445e-05
1237 1235 2.7126736111111112e-06
1239 1235 2.7126736111111112e-06
1236 1236 1.0850694444444445e-05
1237 1236 2.7126736111111112e-06
1330 1236 2.7126736111111112e-06
1237 1237 1.0850694444444445e-05
1239 1237 2.7126736111111112e-06
1330 1237 2.7126736111111112e-06
1238 1238 1.0850694444444445e-05
1240 1238 2.7126736111111112e-06
1242 1238 2.7126736111111112e-06
1239 1239 1.0850694444444445e-05
1240 1239 2.7126736111111112e-06
1333 1239 2.7126736111111112e-06
1240 1240 1.0850694444444445e-05
1242 1240 2.7126736111111112e-06
1333 1240 2.7126736111111112e-06
1241 1241 1.0850694444444445e-05
1243 1241 2.7126736111111112e-06
1245 1241 2.7126736111111112e-06
1242 1242 1.0850694444444445e-05
1243 1242 2.7126736111111112e-06
1336 1242 2.7126736111111112e-06
1243 1243 1.0850694444444445e-05
1245 1243 2.7126736111111112e-06
1336 1243 2.7126736111111112e-06
1244 1244 1.0850694444444445e-05
1246 1244 2.7126736111111112e-06
1248 1244 2.7126736111111112e-06
1245 1245 1.0850694444444445e-05
1246 1245 2.7126736111111112e-06
1339 1245 2.7126736111111112e-06
1246 1246 1.0850694444444445e-05
1248 1246 2.7126736111111112e-06
1339 1246 2.7126736111111112e-06
1247 1247 1.0850694444444445e-05
1249 1247 2.7126736111111112e-06
1251 1247 2.7126736111111112e-06
1248 1248 1.0850694444444445e-05
1249 1248 2.7126736111111112e-06
1342 1248 2.7126736111111112e-06
1249 1249 1.0850694444444445e-05
1251 1249 2.7126736111111112e-06
1342 1249 2.7126736111111112e-06
1250 1250 1.0850694444444445e-05
1252 1250 2.7126736111111112e-06
1254 1250 2.7126736111111112e-06
1251 1251 1.0850694444444445e-05
1252 1251 2.7126736111111112e-06
1345 1251 2.7126736111111112e-06
1252 1252 1.0850694444444445e-05
1254 1252 2.7126736111111112e-06
1345 1252 2.7126736111111112e-06
1253 1253 1.0850694444444445e-05
1255 1253 2.7126736111111112e-06
1257 1253 2.7126736111111112e-06
1254 1254 1.0850694444444445e-05
1255 1254 2.7126736111111112e-06
1348 1254 2.7126736111111112e-06
1255 1255 1.0850694444444445e-05
1257 1255 2.7126736111111112e-06
1348 1255 2.7126736111111112e-06
1256 1256 1.0850694444444445e-05
1258 1256 2.7126736111111112e-06
1260 1256 2.7126736111111112e-06
1257 1257 1.0850694444444445e-05
1258 1257 2.7126736111111112e-06
1351 1257 2.7126736111111112e-06
1258 1258 1.0850694444444445e-05
1260 1258 2.7126736111111112e-06
1351 1258 2.7126736111111112e-06
1259 1259 1.0850694444444445e-05
1261 1259 2.7126736111111112e-06
1263 1259 2.7126736111111112e-06
1260 1260 1.0850694444444445e-05
1261 1260 2.7126736111111112e-06
1354 1260 2.7126736111111112e-06
1261 1261 1.0850694444444445e-05
1263 1261 2.7126736111111112e-06
1354 1261 2.7126736111111112e-06
1262 1262 1.0850694444444445e-05
1264 1262 2.7126736111111112e-06
1266 1262 2.7126736111111112e-06
1263 1263 1.0850694444444445e-05
1264 1263 2.7126736111111112e-06
1357 1263 2.7126736111111112e-06
1264 1264 1.0850694444444445e-05
1266 1264 2.7126736111111112e-06
1357 1264 2.7126736111111112e-06
1265 1265 1.0850694444444445e-05
1267 1265 2.7126736111111112e-06
1269 1265 2.7126736111111112e-06
1266 1266 1.0850694444444445e-05
1267 1266 2.7126736111111112e-06
1360 1266 2.7126736111111112e-06
1267 1267 1.0850694444444445e-05
1269 1267 2.7126736111111112e-06
1360 1267 2.7126736111111112e-06
1268 1268 1.0850694444444445e-05
1270 1268 2.7126736111111112e-06
1272 1268 2.7126736111111112e-06
1269 1269 1.0850694444444445e-05
1270 1269 2.7126736111111112e-06
1363 1269 2.7126736111111112e-06
1270 1270 1.0850694444444445e-05
1272 1270 2.7126736111111112e-06
1363 1270 2.7126736111111112e-06
1271 1271 1.0850694444444445e-05
1273 1271 2.7126736111111112e-06
1275 1271 2.7126736111111112e-06
1272 1272 1.0850694444444445e-05
1273 1272 2.7126736111111112e-06
1366 1272 2.7126736111111112e-06
1273 1273 1.0850694444444445e-05
1275 1273 2.7126736111111112e-06
1366 1273 2.7126736111111112e-06
1274 1274 1.0850694444444445e-05
1276 1274 2.7126736111111112e-06
1278 1274 2.7126736111111112e-06
1275 1275 1.0850694444444445e-05
1276 1275 2.7126736111111112e-06
1369 1275 2.7126736111111112e-06
1276 1276 1.0850694444444445e-05
1278 1276 2.7126736111111112e-06
1369 1276 2.7126736111111112e-06
1277 1277 1.0850694444444445e-05
1279 1277 2.7126736111111112e-06
1281 1277 2.7126736111111112e-06
1278 1278 1.0850694444444445e-05
1279 1278 2.7126736111111112e-06
1372 1278 2.7126736111111112e-06
1279 1279 1.0850694444444445e-05
1281 1279 2.7126736111111112e-06
1372 1279 2.7126736111111112e-06
1280 1280 1.0850694444444445e-05
1282 1280 2.7126736111111112e-06
1284 1280 2.7126736111111112e-06
1281 1281 1.0850694444444445e-05
1282 1281 2.7126736111111112e-06
1375 1281 2.7126736111111112e-06
1282 1282 1.0850694444444445e-05
1284 1282 2.7126736111111112e-06
1375 1282 2.7126736111111112e-06
1283 1283 1.0850694444444445e-05
1285 1283 2.7126736111111112e-06
1287 1283 2.7126736111111112e-06
1284 1284 1.0850694444444445e-05
1285 1284 2.7126736111111112e-06
1378 1284 2.7126736111111112e-06
1285 1285 1.0850694444444445e-05
1287 1285 2.7126736111111112e-06
1378 1285 2.7126736111111112e-06
1286 1286 1.0850694444444445e-05
1288 1286 2.7126736111111112e-06
1290 1286 2.7126736111111112e-06
1287 1287 1.0850694444444445e-05
1288 1287 2.7126736111111112e-06
1381 1287 2.7126736111111112e-06
1288 1288 1.0850694444444445e-05
1290 1288 2.7126736111111112e-06
1381 1288 2.7126736111111112e-06
1289 1289 1.0850694444444445e-05
1291 1289 2.7126736111111112e-06
1293 1289 2.7126736111111112e-06
1290 1290 1.0850694444444445e-05
1291 1290 2.7126736111111112e-06
1384 1290 2.7126736111111112e-06
1291 1291 1.0850694444444445e-05
1293 1291 2.7126736111111112e-06
1384 1291 2.7126736111111112e-06
1292 1292 1.0850694444444445e-05
1294 1292 2.7126736111111112e-06
1296 1292 2.7126736111111112e-06
1293 1293 1.0850694444444445e-05
1294 1293 2.7126736111111112e-06
1387 1293 2.7126736111111112e-06
1294 1294 1.0850694444444445e-05
1296 1294 2.7126736111111112e-06
1387 1294 2.7126736111111112e-06
1295 1295 1.0850694444444445e-05
1297 1295 2.7126736111111112e-06
1299 1295 2.7126736111111112e-06
1296 1296 1.0850694444444445e-05
1297 1296 2.7126736111111112e-06
1390 1296 2.7126736111111112e-06
1297 1297 1.0850694444444445e-05
1299 1297 2.7126736111111112e-06
1390 1297 2.7126736111111112e-06
1298 1298 1.0850694444444445e-05
1300 1298 2.7126736111111112e-06
1302 1298 2.7126736111111112e-06
1299 1299 1.0850694444444445e-05
1300 1299 2.7126736111111112e-06
1393 1299 2.7126736111111112e-06
1300 1300 1.0850694444444445e-05
1302 1300 2.7126736111111112e-06
1393 1300 2.7126736111111112e-06
1301 1301 1.0850694444444445e-05
1303 1301 2.7126736111111112e-06
1305 1301 2.7126736111111112e-06
1302 1302 1.0850694444444445e-05
1303 1302 2.7126736111111112e-06
1396 1302 2.7126736111111112e-06
1303 1303 1.0850694444444445e-05
1305 1303 2.7126736111111112e-06
1396 1303 2.7126736111111112e-06
1304 1304 1.0850694444444445e-05
1306 1304 2.7126736111111112e-06
1308 1304 2.7126736111111112e-06
1305 1305 1.0850694444444445e-05
1306 1305 2.7126736111111112e-06
1399 1305 2.7126736111111112e-06
1306 1306 1.0850694444444445e-05
1308 1306 2.7126736111111112e-06
1399 1306 2.7126736111111112e-06
1307 1307 1.0850694444444445e-05
1309 1307 2.7126736111111112e-06
1308 1308 1.0850694444444445e-05
1309 1308 2.7126736111111112e-06
1402 1308 2.7126736111111112e-06
1309 1309 1.0850694444444445e-05
1402 1309 2.7126736111111112e-06
1310 1310 1.0850694444444445e-05
1311 1310 2.7126736111111112e-06
1313 1310 2.7126736111111112e-06
1311 1311 1.0850694444444445e-05
1313 1311 2.7126736111111112e-06
1405 1311 2.7126736111111112e-06
1312 1312 1.0850694444444445e-05
1314 1312 2.7126736111111112e-06
1316 1312 2.7126736111111112e-06
1313 1313 1.0850694444444445e-05
1314 1313 2.7126736111111112e-06
1407 1313 2.7126736111111112e-06
1314 1314 1.0850694444444445e-05
1316 1314 2.7126736111111112e-06
1407 1314 2.7126736111111112e-06
1315 1315 1.0850694444444445e-05
1317 1315 2.7126736111111112e-06
1319 1315 2.7126736111111112e-06
1316 1316 1.0850694444444445e-05
1317 1316 2.7126736111111112e-06
1410 1316 2.7126736111111112e-06
1317 1317 1.0850694444444445e-05
1319 1317 2.7126736111111112e-06
1410 1317 2.7126736111111112e-06
1318 1318 1.0850694444444445e-05
1320 1318 2.7126736111111112e-06
1322 1318 2.7126736111111112e-06
1319 1319 1.0850694444444445e-05
1320 1319 2.7126736111111112e-06
1413 1319 2.7126736111111112e-06
1320 1320 1.0850694444444445e-05
1322 1320 2.7126736111111112e-06
1413 1320 2.7126736111111112e-06
1321 1321 1.0850694444444445e-05
1323 1321 2.7126736111111112e-06
1325 1321 2.7126736111111112e-06
1322 1322 1.0850694444444445e-05
1323 1322 2.7126736111111112e-06
1416 1322 2.7126736111111112e-06
1323 1323 1.0850694444444445e-05
1325 1323 2.7126736111111112e-06
1416 1323 2.7126736111111112e-06
1324 1324 1.0850694444444445e-05
1326 1324 2.7126736111111112e-06
1328 1324 2.7126736111111112e-06
1325 1325 1.0850694444444445e-05
1326 1325 2.7126736111111112e-06
1419 1325 2.7126736111111112e-06
1326 1326 1.0850694444444445e-05
1328 1326 2.7126736111111112e-06
1419 1326 2.7126736111111112e-06
1327 1327 1.0850694444444445e-05
1329 1327 2.7126736111111112e-06
1331 1327 2.7126736111111112e-06
1328 1328 1.0850694444444445e-05
1329 1328 2.7126736111111112e-06
1422 1328 2.7126736111111112e-06
1329 1329 1.0850694444444445e-05
1331 1329 2.7126736111111112e-06
1422 1329 2.7126736111111112e-06
1330 1330 1.0850694444444445e-05
1332 1330 2.7126736111111112e-06
1334 1330 2.7126736111111112e-06
1331 1331 1.0850694444444445e-05
1332 1331 2.7126736111111112e-06
1425 1331 2.7126736111111112e-06
1332 1332 1.0850694444444445e-05
1334 1332 2.7126736111111112e-06
1425 1332 2.7126736111111112e-06
1333 1333 1.0850694444444445e-05
1335 1333 2.7126736111111112e-06
1337 1333 2.7126736111111112e-06
1334 1334 1.0850694444444445e-05
1335 1334 2.7126736111111112e-06
1428 1334 2.7126736111111112e-06
1335 1335 1.0850694444444445e-05
1337 1335 2.7126736111111112e-06
1428 1335 2.7126736111111112e-06
1336 1336 1.0850694444444445e-05
1338 1336 2.7126736111111112e-06
1340 1336 2.7126736111111112e-06
1337 1337 1.0850694444444445e-05
1338 1337 2.7126736111111112e-06
1431 1337 2.7126736111111112e-06
1338 1338 1.0850694444444445e-05
1340 1338 2.7126736111111112e-06
1431 1338 2.7126736111111112e-06
1339 1339 1.0850694444444445e-05
1341 1339 2.7126736111111112e-06
1343 1339 2.7126736111111112e-06
1340 1340 1.0850694444444445e-05
1341 1340 2.7126736111111112e-06
1434 1340 2.7126736111111112e-06
1341 1341 1.0850694444444445e-05
1343 1341 2.7126736111111112e-06
1434 1341 2.7126736111111112e-06
1342 1342 1.0850694444444445e-05
1344 1342 2.7126736111111112e-06
1346 1342 2.7126736111111112e-06
1343 1343 1.0850694444444445e-05
1344 1343 2.7126736111111112e-06
1437 1343 2.7126736111111112e-06
1344 1344 1.0850694444444445e-05
1346 1344 2.7126736111111112e-06
1437 1344 2.7126736111111112e-06
1345 1345 1.0850694444444445e-05
1347 1345 2.7126736111111112e-06
1349 1345 2.7126736111111112e-06
1346 1346 1.0850694444444445e-05
1347 1346 2.7126736111111112e-06
1440 1346 2.7126736111111112e-06
1347 1347 1.0850694444444445e-05
1349 1347 2.7126736111111112e-06
1440 1347 2.7126736111111112e-06
1348 1348 1.0850694444444445e-05
1350 1348 2.7126736111111112e-06
1352 1348 2.7126736111111112e-06
1349 1349 1.0850694444444445e-05
1350 1349 2.7126736111111112e-06
1443 1349 2.7126736111111112e-06
1350 1350 1.0850694444444445e-05
1352 1350 2.7126736111111112e-06
1443 1350 2.7126736111111112e-06
1351 1351 1.0850694444444445e-05
1353 1351 2.7126736111111112e-06
1355 1351 2.7126736111111112e-06
1352 1352 1.0850694444444445e-05
1353 1352 2.7126736111111112e-06
1446 1352 2.7126736111111112e-06
1353 1353 1.0850694444444445e-05
1355 1353 2.7126736111111112e-06
1446 1353 2.7126736111111112e-06
1354 1354 1.0850694444444445e-05
1356 1354 2.7126736111111112e-06
1358 1354 2.7126736111111112e-06
1355 1355 1.0850694444444445e-05
1356 1355 2.7126736111111112e-06
1449 1355 2.7126736111111112e-06
1356 1356 1.0850694444444445e-05
1358 1356 2.7126736111111112e-06
1449 1356 2.7126736111111112e-06
1357 1357 1.0850694444444445e-05
1359 1357 2.7126736111111112e-06
1361 1357 2.7126736111111112e-06
1358 1358 1.0850694444444445e-05
1359 1358 2.7126736111111112e-06
1452 1358 2.7126736111111112e-06
1359 1359 1.0850694444444445e-05
1361 1359 2.7126736111111112e-06
1452 1359 2.7126736111111112e-06
1360 1360 1.0850694444444445e-05
1362 1360 2.7126736111111112e-06
1364 1360 2.7126736111111112e-06
1361 1361 1.0850694444444445e-05
1362 1361 2.7126736111111112e-06
1455 1361 2.7126736111111112e-06
1362 1362 1.0850694444444445e-05
1364 1362 2.7126736111111112e-06
1455 1362 2.7126736111111112e-06
1363 1363 1.0850694444444445e-05
1365 1363 2.7126736111111112e-06
1367 1363 2.7126736111111112e-06
1364 1364 1.0850694444444445e-05
1365 1364 2.7126736111111112e-06
1458 1364 2.7126736111111112e-06
1365 1365 1.0850694444444445e-05
1367 1365 2.7126736111111112e-06
1458 1365 2.7126736111111112e-06
1366 1366 1.0850694444444445e-05
1368 1366 2.7126736111111112e-06
1370 1366 2.7126736111111112e-06
1367 1367 1.0850694444444445e-05
1368 1367 2.7126736111111112e-06
1461 1367 2.7126736111111112e-06
1368 1368 1.0850694444444445e-05
1370 1368 2.7126736111111112e-06
1461 1368 2.7126736111111112e-06
1369 1369 1.0850694444444445e-05
1371 1369 2.7126736111111112e-06
1373 1369 2.7126736111111112e-06
1370 1370 1.0850694444444445e-05
1371 1370 2.7126736111111112e-06
1464 1370 2.7126736111111112e-06
1371 1371 1.0850694444444445e-05
1373 1371 2.7126736111111112e-06
1464 1371 2.7126736111111112e-06
1372 1372 1.0850694444444445e-05
1374 1372 2.7126736111111112e-06
1376 1372 2.7126736111111112e-06
1373 1373 1.0850694444444445e-05
1374 1373 2.7126736111111112e-06
1467 1373 2.7126736111111112e-06
1374 1374 1.0850694444444445e-05
1376 1374 2.7126736111111112e-06
1467 1374 2.7126736111111112e-06
1375 1375 1.0850694444444445e-05
1377 1375 2.7126736111111112e-06
1379 1375 2.7126736111111112e-06
1376 1376 1.0850694444444445e-05
1377 1376 2.7126736111111112e-06
1470 1376 2.7126736111111112e-06
1377 1377 1.0850694444444445e-05
1379 1377 2.7126736111111112e-06
1470 1377 2.7126736111111112e-06
1378 1378 1.0850694444444445e-05
1380 1378 2.7126736111111112e-06
1382 1378 2.7126736111111112e-06
1379 1379 1.0850694444444445e-05
1380 1379 2.7126736111111112e-06
1473 1379 2.7126736111111112e-06
1380 1380 1.0850694444444445e-05
1382 1380 2.7126736111111112e-06
1473 1380 2.7126736111111112e-06
1381 1381 1.0850694444444445e-05
1383 1381 2.7126736111111112e-06
1385 1381 2.7126736111111112e-06
1382 1382 1.0850694444444445e-05
1383 1382 2.7126736111111112e-06
1476 1382 2.7126736111111112e-06
1383 1383 1.0850694444444445e-05
1385 1383 2.7126736111111112e-06
1476 1383 2.7126736111111112e-06
1384 1384 1.0850694444444445e-05
1386 1384 2.7126736111111112e-06
1388 1384 2.7126736111111112e-06
1385 1385 1.0850694444444445e-05
1386 1385 2.7126736111111112e-06
1479 1385 2.7126736111111112e-06
1386 1386 1.0850694444444445e-05
1388 1386 2.7126736111111112e-06
1479 1386 2.7126736111111112e-06
1387 1387 1.0850694444444445e-05
1389 1387 2.7126736111111112e-06
1391 1387 2.7126736111111112e-06
1388 1388 1.0850694444444445e-05
1389 1388 2.7126736111111112e-06
1482 1388 2.7126736111111112e-06
1389 1389 1.0850694444444445e-05
1391 1389 2.7126736111111112e-06
1482 1389 2.7126736111111112e-06
1390 1390 1.0850694444444445e-05
1392 1390 2.7126736111111112e-06
1394 1390 2.7126736111111112e-06
1391 1391 1.0850694444444445e-05
1392 1391 2.7126736111111112e-06
1485 1391 2.7126736111111112e-06
1392 1392 1.0850694444444445e-05
1394 1392 2.7126736111111112e-06
1485 1392 2.7126736111111112e-06
1393 1393 1.0850694444444445e-05
1395 1393 2.7126736111111112e-06
1397 1393 2.7126736111111112e-06
1394 1394 1.0850694444444445e-05
1395 1394 2.7126736111111112e-06
1488 1394 2.7126736111111112e-06
1395 1395 1.0850694444444445e-05
1397 1395 2.7126736111111112e-06
1488 1395 2.7126736111111112e-06
1396 1396 1.0850694444444445e-05
1398 1396 2.7126736111111112e-06
1400 1396 2.7126736111111112e-06
1397 1397 1.0850694444444445e-05
1398 1397 2.7126736111111112e-06
1491 1397 2.7126736111111112e-06
1398 1398 1.0850694444444445e-05
1400 1398 2.7126736111111112e-06
1491 1398 2.7126736111111112e-06
1399 1399 1.0850694444444445e-05
1401 1399 2.7126736111111112e-06
1403 1399 2.7126736111111112e-06
1400 1400 1.0850694444444445e-05
1401 1400 2.7126736111111112e-06
1494 1400 2.7126736111111112e-06
1401 1401 1.0850694444444445e-05
1403 1401 2.7126736111111112e-06
1494 1401 2.7126736111111112e-06
1402 1402 1.0850694444444445e-05
1404 1402 2.7126736111111112e-06
1403 1403 1.0850694444444445e-05
1404 1403 2.7126736111111112e-06
1497 1403 2.7126736111111112e-06
1404 1404 1.0850694444444445e-05
1497 1404 2.7126736111111112e-06
1405 1405 1.0850694444444445e-05
1406 1405 2.7126736111111112e-06
1408 1405 2.7126736111111112e-06
1406 1406 1.0850694444444445e-05
1408 1406 2.7126736111111112e-06
1500 1406 2.7126736111111112e-06
1407 1407 1.0850694444444445e-05
1409 1407 2.7126736111111112e-06
1411 1407 2.7126736111111112e-06
1408 1408 1.0850694444444445e-05
1409 1408 2.7126736111111112e-06
1502 1408 2.7126736111111112e-06
1409 1409 1.0850694444444445e-05
1411 1409 2.7126736111111112e-06
1502 1409 2.7126736111111112e-06
1410 1410 1.0850694444444445e-05
1412 1410 2.7126736111111112e-06
1414 1410 2.7126736111111112e-06
1411 1411 1.0850694444444445e-05
1412 1411 2.7126736111111112e-06
1505 1411 2.7126736111111112e-06
1412 1412 1.0850694444444445e-05
1414 1412 2.7126736111111112e-06
1505 1412 2.7126736111111112e-06
1413 1413 1.0850694444444445e-05
1415 1413 2.7126736111111112e-06
1417 1413 2.7126736111111112e-06
1414 1414 1.0850694444444445e-05
1415 1414 2.7126736111111112e-06
1508 1414 2.7126736111111112e-06
1415 1415 1.0850694444444445e-05
1417 1415 2.7126736111111112e-06
1508 1415 2.7126736111111112e-06
1416 1416 1.0850694444444445e-05
1418 1416 2.7126736111111112e-06
1420 1416 2.7126736111111112e-06
1417 1417 1.0850694444444445e-05
1418 1417 2.7126736111111112e-06
1511 1417 2.7126736111111112e-06
1418 1418 1.0850694444444445e-05
1420 1418 2.7126736111111112e-06
1511 1418 2.7126736111111112e-06
1419 1419 1.0850694444444445e-05
1421 1419 2.7126736111111112e-06
1423 1419 2.7126736111111112e-06
1420 1420 1.0850694444444445e-05
1421 1420 2.7126736111111112e-06
1514 1420 2.7126736111111112e-06
1421 1421 1.0850694444444445e-05
1423 1421 2.7126736111111112e-06
1514 1421 2.7126736111111112e-06
1422 1422 1.0850694444444445e-05
1424 1422 2.7126736111111112e-06
1426 1422 2.7126736111111112e-06
1423 1423 1.0850694444444445e-05
1424 1423 2.7126736111111112e-06
1517 1423 2.7126736111111112e-06
1424 1424 1.0850694444444445e-05
1426 1424 2.7126736111111112e-06
1517 1424 2.7126736111111112e-06
1425 1425 1.0850694444444445e-05
1427 1425 2.7126736111111112e-06
1429 1425 2.7126736111111112e-06
1426 1426 1.0850694444444445e-05
1427 1426 2.7126736111111112e-06
1520 1426 2.7126736111111112e-06
1427 1427 1.0850694444444445e-05
1429 1427 2.7126736111111112e-06
1520 1427 2.7126736111111112e-06
1428 1428 1.0850694444444445e-05
1430 1428 2.7126736111111112e-06
1432 1428 2.7126736111111112e-06
1429 1429 1.0850694444444445e-05
1430 1429 2.7126736111111112e-06
1523 1429 2.7126736111111112e-06
1430 1430 1.0850694444444445e-05
1432 1430 2.7126736111111112e-06
1523 1430 2.7126736111111112e-06
1431 1431 1.0850694444444445e-05
1433 1431 2.7126736111111112e-06
1435 1431 2.7126736111111112e-06
1432 1432 1.0850694444444445e-05
1433 1432 2.7126736111111112e-06
1526 1432 2.7126736111111112e-06
1433 1433 1.0850694444444445e-05
1435 1433 2.7126736111111112e-06
1526 1433 2.7126736111111112e-06
1434 1434 1.0850694444444445e-05
1436 1434 2.7126736111111112e-06
1438 1434 2.7126736111111112e-06
1435 1435 1.0850694444444445e-05
1436 1435 2.7126736111111112e-06
1529 1435 2.7126736111111112e-06
1436 1436 1.0850694444444445e-05
1438 1436 2.7126736111111112e-06
1529 1436 2.7126736111111112e-06
1437 1437 1.0850694444444445e-05
1439 1437 2.7126736111111112e-06
1441 1437 2.7126736111111112e-06
1438 1438 1.0850694444444445e-05
1439 1438 2.7126736111111112e-06
1532 1438 2.7126736111111112e-06
1439 1439 1.0850694444444445e-05
1441 1439 2.7126736111111112e-06
1532 1439 2.7126736111111112e-06
1440 1440 1.0850694444444445e-05
1442 1440 2.7126736111111112e-06
1444 1440 2.7126736111111112e-06
1441 1441 1.0850694444444445e-05
1442 1441 2.7126736111111112e-06
1535 1441 2.7126736111111112e-06
1442 1442 1.0850694444444445e-05
1444 1442 2.7126736111111112e-06
1535 1442 2.7126736111111112e-06
1443 1443 1.0850694444444445e-05
1445 1443 2.7126736111111112e-06
1447 1443 2.7126736111111112e-06
1444 1444 1.0850694444444445e-05
1445 1444 2.7126736111111112e-06
1538 1444 2.7126736111111112e-06
1445 1445 1.0850694444444445e-05
1447 1445 2.7126736111111112e-06
1538 1445 2.7126736111111112e-06
1446 1446 1.0850694444444445e-05
1448 1446 2.7126736111111112e-06
1450 1446 2.7126736111111112e-06
1447 1447 1.0850694444444445e-05
1448 1447 2.7126736111111112e-06
1541 1447 2.7126736111111112e-06
1448 1448 1.0850694444444445e-05
1450 1448 2.7126736111111112e-06
1541 1448 2.7126736111111112e-06
1449 1449 1.0850694444444445e-05
1451 1449 2.7126736111111112e-06
1453 1449 2.7126736111111112e-06
1450 1450 1.0850694444444445e-05
1451 1450 2.7126736111111112e-06
1544 1450 2.7126736111111112e-06
1451 1451 1.0850694444444445e-05
1453 1451 2.7126736111111112e-06
1544 1451 2.7126736111111112e-06
1452 1452 1.0850694444444445e-05
1454 1452 2.7126736111111112e-06
1456 1452 2.7126736111111112e-06
1453 1453 1.0850694444444445e-05
1454 1453 2.7126736111111112e-06
1547 1453 2.7126736111111112e-06
1454 1454 1.0850694444444445e-05
1456 1454 2.7126736111111112e-06
1547 1454 2.7126736111111112e-06
1455 1455 1.0850694444444445e-05
1457 1455 2.7126736111111112e-06
1459 1455 2.7126736111111112e-06
1456 1456 1.0850694444444445e-05
1457 1456 2.7126736111111112e-06
1550 1456 2.7126736111111112e-06
1457 1457 1.0850694444444445e-05
1459 1457 2.7126736111111112e-06
1550 1457 2.7126736111111112e-06
1458 1458 1.0850694444444445e-05
1460 1458 2.7126736111111112e-06
1462 1458 2.7126736111111112e-06
1459 1459 1.0850694444444445e-05
1460 1459 2.7126736111111112e-06
1553 1459 2.7126736111111112e-06
1460 1460 1.0850694444444445e-05
1462 1460 2.7126736111111112e-06
1553 1460 2.7126736111111112e-06
1461 1461 1.0850694444444445e-05
1463 1461 2.7126736111111112e-06
1465 1461 2.7126736111111112e-06
1462 1462 1.0850694444444445e-05
1463 1462 2.7126736111111112e-06
1556 1462 2.7126736111111112e-06
1463 1463 1.0850694444444445e-05
1465 1463 2.7126736111111112e-06
1556 1463 2.7126736111111112e-06
1464 1464 1.0850694444444445e-05
1466 1464 2.7126736111111112e-06
1468 1464 2.7126736111111112e-06
1465 1465 1.0850694444444445e-05
1466 1465 2.7126736111111112e-06
1559 1465 2.7126736111111112e-06
1466 1466 1.0850694444444445e-05
1468 1466 2.7126736111111112e-06
1559 1466 2.7126736111111112e-06
1467 1467 1.0850694444444445e-05
1469 1467 2.7126736111111112e-06
1471 1467 2.7126736111111112e-06
1468 1468 1.0850694444444445e-05
1469 1468 2.7126736111111112e-06
1562 1468 2.7126736111111112e-06
1469 1469 1.0850694444444445e-05
1471 1469 2.7126736111111112e-06
1562 1469 2.7126736111111112e-06
1470 1470 1.0850694444444445e-05
1472 1470 2.7126736111111112e-06
1474 1470 2.7126736111111112e-06
1471 1471 1.0850694444444445e-05
1472 1471 2.7126736111111112e-06
1565 1471 2.7126736111111112e-06
1472 1472 1.0850694444444445e-05
1474 1472 2.7126736111111112e-06
1565 1472 2.7126736111111112e-06
1473 1473 1.0850694444444445e-05
1475 1473 2.7126736111111112e-06
1477 1473 2.7126736111111112e-06
1474 1474 1.0850694444444445e-05
1475 1474 2.7126736111111112e-06
1568 1474 2.7126736111111112e-06
1475 1475 1.0850694444444445e-05
1477 1475 2.7126736111111112e-06
1568 1475 2.7126736111111112e-06
1476 1476 1.0850694444444445e-05
1478 1476 2.7126736111111112e-06
1480 1476 2.7126736111111112e-06
1477 1477 1.0850694444444445e-05
1478 1477 2.7126736111111112e-06
1571 1477 2.7126736111111112e-06
1478 1478 1.0850694444444445e-05
1480 1478 2.7126736111111112e-06
1571 1478 2.7126736111111112e-06
1479 1479 1.0850694444444445e-05
1481 1479 2.7126736111111112e-06
1483 1479 2.7126736111111112e-06
1480 1480 1.0850694444444445e-05
1481 1480 2.7126736111111112e-06
1574 1480 2.7126736111111112e-06
1481 1481 1.0850694444444445e-05
1483 1481 2.7126736111111112e-06
1574 1481 2.7126736111111112e-06
1482 1482 1.0850694444444445e-05
1484 1482 2.7126736111111112e-06
1486 1482 2.7126736111111112e-06
1483 1483 1.0850694444444445e-05
1484 1483 2.7126736111111112e-06
1577 1483 2.7126736111111112e-06
1484 1484 1.0850694444444445e-05
1486 1484 2.7126736111111112e-06
1577 1484 2.7126736111111112e-06
1485 1485 1.0850694444444445e-05
1487 1485 2.7126736111111112e-06
1489 1485 2.7126736111111112e-06
1486 1486 1.0850694444444445e-05
1487 1486 2.7126736111111112e-06
1580 1486 2.7126736111111112e-06
1487 1487 1.0850694444444445e-05
1489 1487 2.7126736111111112e-06
1580 1487 2.7126736111111112e-06
1488 1488 1.0850694444444445e-05
1490 1488 2.7126736111111112e-06
1492 1488 2.7126736111111112e-06
1489 1489 1.0850694444444445e-05
1490 1489 2.7126736111111112e-06
1583 1489 2.7126736111111112e-06
1490 1490 1.0850694444444445e-05
1492 1490 2.7126736111111112e-06
1583 1490 2.7126736111111112e-06
1491 1491 1.0850694444444445e-05
1493 1491 2.7126736111111112e-06
1495 1491 2.7126736111111112e-06
1492 1492 1.0850694444444445e-05
1493 1492 2.7126736111111112e-06
1586 1492 2.7126736111111112e-06
1493 1493 1.0850694444444445e-05
1495 1493 2.7126736111111112e-06
1586 1493 2.7126736111111112e-06
1494 1494 1.0850694444444445e-05
1496 1494 2.7126736111111112e-06
1498 1494 2.7126736111111112e-06
1495 1495 1.0850694444444445e-05
1496 1495 2.7126736111111112e-06
1589 1495 2.7126736111111112e-06
1496 1496 1.0850694444444445e-05
1498 1496 2.7126736111111112e-06
1589 1496 2.7126736111111112e-06
1497 1497 1.0850694444444445e-05
1499 1497 2.7126736111111112e-06
1498 1498 1.0850694444444445e-05
1499 1498 2.7126736111111112e-06
1592 1498 2.7126736111111112e-06
1499 1499 1.0850694444444445e-05
1592 1499 2.7126736111111112e-06
1500 1500 1.0850694444444445e-05
1501 1500 2.7126736111111112e-06
1503 1500 2.7126736111111112e-06
1501 1501 1.0850694444444445e-05
1503 1501 2.7126736111111112e-06
1595 1501 2.7126736111111112e-06
1502 1502 1.0850694444444445e-05
1504 1502 2.7126736111111112e-06
1506 1502 2.7126736111111112e-06
1503 1503 1.0850694444444445e-05
1504 1503 2.7126736111111112e-06
1597 1503 2.7126736111111112e-06
1504 1504 1.0850694444444445e-05
1506 1504 2.7126736111111112e-06
1597 1504 2.7126736111111112e-06
1505 1505 1.0850694444444445e-05
1507 1505 2.7126736111111112e-06
1509 1505 2.7126736111111112e-06
1506 1506 1.0850694444444445e-05
1507 1506 2.7126736111111112e-06
1600 1506 2.7126736111111112e-06
1507 1507 1.0850694444444445e-05
1509 1507 2.7126736111111112e-06
1600 1507 2.7126736111111112e-06
1508 1508 1.0850694444444445e-05
1510 1508 2.7126736111111112e-06
1512 1508 2.7126736111111112e-06
1509 1509 1.0850694444444445e-05
1510 1509 2.7126736111111112e-06
1603 1509 2.7126736111111112e-06
1510 1510 1.0850694444444445e-05
1512 1510 2.7126736111111112e-06
1603 1510 2.7126736111111112e-06
1511 1511 1.0850694444444445e-05
1513 1511 2.7126736111111112e-06
1515 1511 2.7126736111111112e-06
1512 1512 1.0850694444444445e-05
1513 1512 2.7126736111111112e-06
1606 1512 2.7126736111111112e-06
1513 1513 1.0850694444444445e-05
1515 1513 2.7126736111111112e-06
1606 1513 2.7126736111111112e-06
1514 1514 1.0850694444444445e-05
1516 1514 2.7126736111111112e-06
1518 1514 2.7126736111111112e-06
1515 1515 1.0850694444444445e-05
1516 1515 2.7126736111111112e-06
1609 1515 2.7126736111111112e-06
1516 1516 1.0850694444444445e-05
1518 1516 2.7126736111111112e-06
1609 1516 2.7126736111111112e-06
1517 1517 1.0850694444444445e-05
1519 1517 2.7126736111111112e-06
1521 1517 2.7126736111111112e-06
1518 1518 1.0850694444444445e-05
1519 1518 2.7126736111111112e-06
1612 1518 2.7126736111111112e-06
1519 1519 1.0850694444444445e-05
1521 1519 2.7126736111111112e-06
1612 1519 2.7126736111111112e-06
1520 1520 1.0850694444444445e-05
1522 1520 2.7126736111111112e-06
1524 1520 2.7126736111111112e-06
1521 1521 1.0850694444444445e-05
1522 1521 2.7126736111111112e-06
1615 1521 2.7126736111111112e-06
1522 1522 1.0850694444444445e-05
1524 1522 2.7126736111111112e-06
1615 1522 2.7126736111111112e-06
1523 1523 1.0850694444444445e-05
1525 1523 2.7126736111111112e-06
1527 1523 2.7126736111111112e-06
1524 1524 1.0850694444444445e-05
1525 1524 2.7126736111111112e-06
1618 1524 2.7126736111111112e-06
1525 1525 1.0850694444444445e-05
1527 1525 2.7126736111111112e-06
1618 1525 2.7126736111111112e-06
1526 1526 1.0850694444444445e-05
1528 1526 2.7126736111111112e-06
1530 1526 2.7126736111111112e-06
1527 1527 1.0850694444444445e-05
1528 1527 2.7126736111111112e-06
1621 1527 2.7126736111111112e-06
1528 1528 1.0850694444444445e-05
1530 1528 2.7126736111111112e-06
1621 1528 2.7126736111111112e-06
1529 1529 1.0850694444444445e-05
1531 1529 2.7126736111111112e-06
1533 1529 2.7126736111111112e-06
1530 1530 1.0850694444444445e-05
1531 1530 2.7126736111111112e-06
1624 1530 2.7126736111111112e-06
1531 1531 1.0850694444444445e-05
1533 1531 2.7126736111111112e-06
1624 1531 2.7126736111111112e-06
1532 1532 1.0850694444444445e-05
1534 1532 2.7126736111111112e-06
1536 1532 2.7126736111111112e-06
1533 1533 1.0850694444444445e-05
1534 1533 2.7126736111111112e-06
1627 1533 2.7126736111111112e-06
1534 1534 1.0850694444444445e-05
1536 1534 2.7126736111111112e-06
1627 1534 2.7126736111111112e-06
1535 1535 1.0850694444444445e-05
1537 1535 2.7126736111111112e-06
1539 1535 2.7126736111111112e-06
1536 1536 1.0850694444444445e-05
1537 1536 2.7126736111111112e-06
1630 1536 2.7126736111111112e-06
1537 1537 1.0850694444444445e-05
1539 1537 2.7126736111111112e-06
1630 1537 2.7126736111111112e-06
1538 1538 1.0850694444444445e-05
1540 1538 2.7126736111111112e-06
1542 1538 2.7126736111111112e-06
1539 1539 1.0850694444444445e-05
1540 1539 2.7126736111111112e-06
1633 1539 2.7126736111111112e-06
1540 1540 1.0850694444444445e-05
1542 1540 2.7126736111111112e-06
1633 1540 2.7126736111111112e-06
1541 1541 1.0850694444444445e-05
1543 1541 2.7126736111111112e-06
1545 1541 2.7126736111111112e-06
1542 1542 1.0850694444444445e-05
1543 1542 2.7126736111111112e-06
1636 1542 2.7126736111111112e-06
1543 1543 1.0850694444444445e-05
1545 1543 2.7126736111111112e-06
1636 1543 2.7126736111111112e-06
1544 1544 1.0850694444444445e-05
1546 1544 2.7126736111111112e-06
1548 1544 2.7126736111111112e-06
1545 1545 1.0850694444444445e-05
1546 1545 2.7126736111111112e-06
1639 1545 2.7126736111111112e-06
1546 1546 1.0850694444444445e-05
1548 1546 2.7126736111111112e-06
1639 1546 2.7126736111111112e-06
1547 1547 1.0850694444444445e-05
1549 1547 2.7126736111111112e-06
1551 1547 2.7126736111111112e-06
1548 1548 1.0850694444444445e-05
1549 1548 2.7126736111111112e-06
1642 1548 2.7126736111111112e-06
1549 1549 1.0850694444444445e-05
1551 1549 2.7126736111111112e-06
1642 1549 2.7126736111111112e-06
1550 1550 1.0850694444444445e-05
1552 1550 2.7126736111111112e-06
1554 1550 2.7126736111111112e-06
1551 1551 1.0850694444444445e-05
1552 1551 2.7126736111111112e-06
1645 1551 2.7126736111111112e-06
1552 1552 1.0850694444444445e-05
1554 1552 2.7126736111111112e-06
1645 1552 2.7126736111111112e-06
1553 1553 1.0850694444444445e-05
1555 1553 2.7126736111111112e-06
1557 1553 2.7126736111111112e-06
1554 1554 1.0850694444444445e-05
1555 1554 2.7126736111111112e-06
1648 1554 2.7126736111111112e-06
1555 1555 1.0850694444444445e-05
1557 1555 2.7126736111111112e-06
1648 1555 2.7126736111111112e-06
1556 1556 1.0850694444444445e-05
1558 1556 2.7126736111111112e-06
1560 1556 2.7126736111111112e-06
1557 1557 1.0850694444444445e-05
1558 1557 2.7126736111111112e-06
1651 1557 2.7126736111111112e-06
1558 1558 1.0850694444444445e-05
1560 1558 2.7126736111111112e-06
1651 1558 2.7126736111111112e-06
1559 1559 1.0850694444444445e-05
1561 1559 2.7126736111111112e-06
1563 1559 2.7126736111111112e-06
1560 1560 1.0850694444444445e-05
1561 1560 2.7126736111111112e-06
1654 1560 2.7126736111111112e-06
1561 1561 1.0850694444444445e-05
1563 1561 2.7126736111111112e-06
1654 1561 2.7126736111111112e-06
1562 1562 1.0850694444444445e-05
1564 1562 2.7126736111111112e-06
1566 1562 2.7126736111111112e-06
1563 1563 1.0850694444444445e-05
1564 1563 2.7126736111111112e-06
1657 1563 2.7126736111111112e-06
1564 1564 1.0850694444444445e-05
1566 1564 2.7126736111111112e-06
1657 1564 2.7126736111111112e-06
1565 1565 1.0850694444444445e-05
1567 1565 2.7126736111111112e-06
1569 1565 2.7126736111111112e-06
1566 1566 1.0850694444444445e-05
1567 1566 2.7126736111111112e-06
1660 1566 2.7126736111111112e-06
1567 1567 1.0850694444444445e-05
1569 1567 2.7126736111111112e-06
1660 1567 2.7126736111111112e-06
1568 1568 1.0850694444444445e-05
1570 1568 2.7126736111111112e-06
1572 1568 2.7126736111111112e-06
1569 1569 1.0850694444444445e-05
1570 1569 2.7126736111111112e-06
1663 1569 2.7126736111111112e-06
1570 1570 1.0850694444444445e-05
1572 1570 2.7126736111111112e-06
1663 1570 2.7126736111111112e-06
1571 1571 1.0850694444444445e-05
1573 1571 2.7126736111111112e-06
1575 1571 2.7126736111111112e-06
1572 1572 1.0850694444444445e-05
1573 1572 2.7126736111111112e-06
1666 1572 2.7126736111111112e-06
1573 1573 1.0850694444444445e-05
1575 1573 2.7126736111111112e-06
1666 1573 2.7126736111111112e-06
1574 1574 1.0850694444444445e-05
1576 1574 2.7126736111111112e-06
1578 1574 2.7126736111111112e-06
1575 1575 1.0850694444444445e-05
1576 1575 2.7126736111111112e-06
1669 1575 2.7126736111111112e-06
1576 1576 1.0850694444444445e-05
1578 1576 2.7126736111111112e-06
1669 1576 2.7126736111111112e-06
1577 1577 1.0850694444444445e-05
1579 1577 2.7126736111111112e-06
1581 1577 2.7126736111111112e-06
1578 1578 1.0850694444444445e-05
1579 1578 2.7126736111111112e-06
1672 1578 2.7126736111111112e-06
1579 1579 1.0850694444444445e-05
1581 1579 2.7126736111111112e-06
1672 1579 2.7126736111111112e-06
1580 1580 1.0850694444444445e-05
1582 1580 2.7126736111111112e-06
1584 1580 2.7126736111111112e-06
1581 1581 1.0850694444444445e-05
1582 1581 2.7126736111111112e-06
1675 1581 2.7126736111111112e-06
1582 1582 1.0850694444444445e-05
1584 1582 2.7126736111111112e-06
1675 1582 2.7126736111111112e-06
1583 1583 1.0850694444444445e-05
1585 1583 2.7126736111111112e-06
1587 1583 2.7126736111111112e-06
1584 1584 1.0850694444444445e-05
1585 1584 2.7126736111111112e-06
1678 1584 2.7126736111111112e-06
1585 1585 1.0850694444444445e-05
1587 1585 2.7126736111111112e-06
1678 1585 2.7126736111111112e-06
1586 1586 1.0850694444444445e-05
1588 1586 2.7126736111111112e-06
1590 1586 2.7126736111111112e-06
1587 1587 1.0850694444444445e-05
1588 1587 2.7126736111111112e-06
1681 1587 2.7126736111111112e-06
1588 1588 1.0850694444444445e-05
1590 1588 2.7126736111111112e-06
1681 1588 2.7126736111111112e-06
1589 1589 1.0850694444444445e-05
1591 1589 2.7126736111111112e-06
1593 1589 2.7126736111111112e-06
1590 1590 1.0850694444444445e-05
1591 1590 2.7126736111111112e-06
1684 1590 2.7126736111111112e-06
1591 1591 1.0850694444444445e-05
1593 1591 2.7126736111111112e-06
1684 1591 2.7126736111111112e-06
1592 1592 1.0850694444444445e-05
1594 1592 2.7126736111111112e-06
1593 1593 1.0850694444444445e-05
1594 1593 2.7126736111111112e-06
1687 1593 2.7126736111111112e-06
1594 1594 1.0850694444444445e-05
1687 1594 2.7126736111111112e-06
1595 1595 1.0850694444444445e-05
1596 1595 2.7126736111111112e-06
1598 1595 2.7126736111111112e-06
1596 1596 1.0850694444444445e-05
1598 1596 2.7126736111111112e-06
1690 1596 2.7126736111111112e-06
1597 1597 1.0850694444444445e-05
1599 1597 2.7126736111111112e-06
1601 1597 2.7126736111111112e-06
1598 1598 1.0850694444444445e-05
1599 1598 2.7126736111111112e-06
1692 1598 2.7126736111111112e-06
1599 1599 1.0850694444444445e-05
1601 1599 2.7126736111111112e-06
1692 1599 2.7126736111111112e-06
1600 1600 1.0850694444444445e-05
1602 1600 2.7126736111111112e-06
1604 1600 2.7126736111111112e-06
1601 1601 1.0850694444444445e-05
1602 1601 2.7126736111111112e-06
1695 1601 2.7126736111111112e-06
1602 1602 1.0850694444444445e-05
1604 1602 2.7126736111111112e-06
1695 1602 2.7126736111111112e-06
1603 1603 1.0850694444444445e-05
1605 1603 2.7126736111111112e-06
1607 1603 2.7126736111111112e-06
1604 1604 1.0850694444444445e-05
1605 1604 2.7126736111111112e-06
1698 1604 2.7126736111111112e-06
1605 1605 1.0850694444444445e-05
1607 1605 2.7126736111111112e-06
1698 1605 2.7126736111111112e-06
1606 1606 1.0850694444444445e-05
1608 1606 2.7126736111111112e-06
1610 1606 2.7126736111111112e-06
1607 1607 1.0850694444444445e-05
1608 1607 2.7126736111111112e-06
1701 1607 2.7126736111111112e-06
1608 1608 1.0850694444444445e-05
1610 1608 2.7126736111111112e-06
1701 1608 2.7126736111111112e-06
1609 1609 1.0850694444444445e-05
1611 1609 2.7126736111111112e-06
1613 1609 2.7126736111111112e-06
1610 1610 1.0850694444444445e-05
1611 1610 2.7126736111111112e-06
1704 1610 2.7126736111111112e-06
1611 1611 1.0850694444444445e-05
1613 1611 2.7126736111111112e-06
1704 1611 2.7126736111111112e-06
1612 1612 1.0850694444444445e-05
1614 1612 2.7126736111111112e-06
1616 1612 2.7126736111111112e-06
1613 1613 1.0850694444444445e-05
1614 1613 2.7126736111111112e-06
1707 1613 2.7126736111111112e-06
1614 1614 1.0850694444444445e-05
1616 1614 2.7126736111111112e-06
1707 1614 2.7126736111111112e-06
1615 1615 1.0850694444444445e-05
1617 1615 2.7126736111111112e-06
1619 1615 2.7126736111111112e-06
1616 1616 1.0850694444444445e-05
1617 1616 2.7126736111111112e-06
1710 1616 2.7126736111111112e-06
1617 1617 1.0850694444444445e-05
1619 1617 2.7126736111111112e-06
1710 1617 2.7126736111111112e-06
1618 1618 1.0850694444444445e-05
1620 1618 2.7126736111111112e-06
1622 1618 2.7126736111111112e-06
1619 1619 1.0850694444444445e-05
1620 1619 2.7126736111111112e-06
1713 1619 2.7126736111111112e-06
1620 1620 1.0850694444444445e-05
1622 1620 2.7126736111111112e-06
1713 1620 2.7126736111111112e-06
1621 1621 1.0850694444444445e-05
1623 1621 2.7126736111111112e-06
1625 1621 2.7126736111111112e-06
1622 1622 1.0850694444444445e-05
1623 1622 2.7126736111111112e-06
1716 1622 2.7126736111111112e-06
1623 1623 1.0850694444444445e-05
1625 1623 2.7126736111111112e-06
1716 1623 2.7126736111111112e-06
1624 1624 1.0850694444444445e-05
1626 1624 2.7126736111111112e-06
1628 1624 2.7126736111111112e-06
1625 1625 1.0850694444444445e-05
1626 1625 2.7126736111111112e-06
1719 1625 2.7126736111111112e-06
1626 1626 1.0850694444444445e-05
1628 1626 2.7126736111111112e-06
1719 1626 2.7126736111111112e-06
1627 1627 1.0850694444444445e-05
1629 1627 2.7126736111111112e-06
1631 1627 2.7126736111111112e-06
1628 1628 1.0850694444444445e-05
1629 1628 2.7126736111111112e-06
1722 1628 2.7126736111111112e-06
1629 1629 1.0850694444444445e-05
1631 1629 2.7126736111111112e-06
1722 1629 2.7126736111111112e-06
1630 1630 1.0850694444444445e-05
1632 1630 2.7126736111111112e-06
1634 1630 2.7126736111111112e-06
1631 1631 1.0850694444444445e-05
1632 1631 2.7126736111111112e-06
1725 1631 2.7126736111111112e-06
1632 1632 1.0850694444444445e-05
1634 1632 2.7126736111111112e-06
1725 1632 2.7126736111111112e-06
1633 1633 1.0850694444444445e-05
1635 1633 2.7126736111111112e-06
1637 1633 2.7126736111111112e-06
1634 1634 1.0850694444444445e-05
1635 1634 2.7126736111111112e-06
1728 1634 2.7126736111111112e-06
1635 1635 1.0850694444444445e-05
1637 1635 2.7126736111111112e-06
1728 1635 2.7126736111111112e-06
1636 1636 1.0850694444444445e-05
1638 1636 2.7126736111111112e-06
1640 1636 2.7126736111111112e-06
1637 1637 1.0850694444444445e-05
1638 1637 2.7126736111111112e-06
1731 1637 2.7126736111111112e-06
1638 1638 1.0850694444444445e-05
1640 1638 2.7126736111111112e-06
1731 1638 2.7126736111111112e-06
1639 1639 1.0850694444444445e-05
1641 1639 2.7126736111111112e-06
1643 1639 2.7126736111111112e-06
1640 1640 1.0850694444444445e-05
1641 1640 2.7126736111111112e-06
1734 1640 2.7126736111111112e-06
1641 1641 1.0850694444444445e-05
1643 1641 2.7126736111111112e-06
1734 1641 2.7126736111111112e-06
1642 1642 1.0850694444444445e-05
1644 1642 2.7126736111111112e-06
1646 1642 2.7126736111111112e-06
1643 1643 1.0850694444444445e-05
1644 1643 2.7126736111111112e-06
1737 1643 2.7126736111111112e-06
1644 1644 1.0850694444444445e-05
1646 1644 2.7126736111111112e-06
1737 1644 2.7126736111111112e-06
1645 1645 1.0850694444444445e-05
1647 1645 2.7126736111111112e-06
1649 1645 2.7126736111111112e-06
1646 1646 1.0850694444444445e-05
1647 1646 2.7126736111111112e-06
1740 1646 2.7126736111111112e-06
1647 1647 1.0850694444444445e-05
1649 1647 2.7126736111111112e-06
1740 1647 2.7126736111111112e-06
1648 1648 1.0850694444444445e-05
1650 1648 2.7126736111111112e-06
1652 1648 2.7126736111111112e-06
1649 1649 1.0850694444444445e-05
1650 1649 2.7126736111111112e-06
1743 1649 2.7126736111111112e-06
1650 1650 1.0850694444444445e-05
1652 1650 2.7126736111111112e-06
1743 1650 2.7126736111111112e-06
1651 1651 1.0850694444444445e-05
1653 1651 2.7126736111111112e-06
1655 1651 2.7126736111111112e-06
1652 1652 1.0850694444444445e-05
1653 1652 2.7126736111111112e-06
1746 1652 2.7126736111111112e-06
1653 1653 1.0850694444444445e-05
1655 1653 2.7126736111111112e-06
1746 1653 2.7126736111111112e-06
1654 1654 1.0850694444444445e-05
1656 1654 2.7126736111111112e-06
1658 1654 2.7126736111111112e-06
1655 1655 1.0850694444444445e-05
1656 1655 2.7126736111111112e-06
1749 1655 2.7126736111111112e-06
1656 1656 1.0850694444444445e-05
1658 1656 2.7126736111111112e-06
1749 1656 2.7126736111111112e-06
1657 1657 1.0850694444444445e-05
1659 1657 2.7126736111111112e-06
1661 1657 2.7126736111111112e-06
1658 1658 1.0850694444444445e-05
1659 1658 2.7126736111111112e-06
1752 1658 2.7126736111111112e-06
1659 1659 1.0850694444444445e-05
1661 1659 2.7126736111111112e-06
1752 1659 2.7126736111111112e-06
1660 1660 1.0850694444444445e-05
1662 1660 2.7126736111111112e-06
1664 1660 2.7126736111111112e-06
1661 1661 1.0850694444444445e-05
1662 1661 2.7126736111111112e-06
1755 1661 2.7126736111111112e-06
1662 1662 1.0850694444444445e-05
1664 1662 2.7126736111111112e-06
1755 1662 2.7126736111111112e-06
1663 1663 1.0850694444444445e-05
1665 1663 2.7126736111111112e-06
1667 1663 2.7126736111111112e-06
1664 1664 1.0850694444444445e-05
1665 1664 2.7126736111111112e-06
1758 1664 2.7126736111111112e-06
1665 1665 1.0850694444444445e-05
1667 1665 2.7126736111111112e-06
1758 1665 2.7126736111111112e-06
1666 1666 1.0850694444444445e-05
1668 1666 2.7126736111111112e-06
1670 1666 2.7126736111111112e-06
1667 1667 1.0850694444444445e-05
1668 1667 2.7126736111111112e-06
1761 1667 2.7126736111111112e-06
1668 1668 1.0850694444444445e-05
1670 1668 2.7126736111111112e-06
1761 1668 2.7126736111111112e-06
1669 1669 1.0850694444444445e-05
1671 1669 2.7126736111111112e-06
1673 1669 2.7126736111111112e-06
1670 1670 1.0850694444444445e-05
1671 1670 2.7126736111111112e-06
1764 1670 2.7126736111111112e-06
1671 1671 1.0850694444444445e-05
1673 1671 2.7126736111111112e-06
1764 1671 2.7126736111111112e-06
1672 1672 1.0850694444444445e-05
1674 1672 2.7126736111111112e-06
1676 1672 2.7126736111111112e-06
1673 1673 1.0850694444444445e-05
1674 1673 2.7126736111111112e-06
1767 1673 2.7126736111111112e-06
1674 1674 1.0850694444444445e-05
1676 1674 2.7126736111111112e-06
1767 1674 2.7126736111111112e-06
1675 1675 1.0850694444444445e-05
1677 1675 2.7126736111111112e-06
1679 1675 2.7126736111111112e-06
1676 1676 1.0850694444444445e-05
1677 1676 2.7126736111111112e-06
1770 1676 2.7126736111111112e-06
1677 1677 1.0850694444444445e-05
1679 1677 2.7126736111111112e-06
1770 1677 2.7126736111111112e-06
1678 1678 1.0850694444444445e-05
1680 1678 2.7126736111111112e-06
1682 1678 2.7126736111111112e-06
1679 1679 1.0850694444444445e-05
1680 1679 2.7126736111111112e-06
1773 1679 2.7126736111111112e-06
1680 1680 1.0850694444444445e-05
1682 1680 2.7126736111111112e-06
1773 1680 2.7126736111111112e-06
1681 1681 1.0850694444444445e-05
1683 1681 2.7126736111111112e-06
1685 1681 2.7126736111111112e-06
1682 1682 1.0850694444444445e-05
1683 1682 2.7126736111111112e-06
1776 1682 2.7126736111111112e-06
1683 1683 1.0850694444444445e-05
1685 1683 2.7126736111111112e-06
1776 1683 2.7126736111111112e-06
1684 1684 1.0850694444444445e-05
1686 1684 2.7126736111111112e-06
1688 1684 2.7126736111111112e-06
1685 1685 1.0850694444444445e-05
1686 1685 2.7126736111111112e-06
1779 1685 2.7126736111111112e-06
1686 1686 1.0850694444444445e-05
1688 1686 2.7126736111111112e-06
1779 1686 2.7126736111111112e-06
1687 1687 1.0850694444444445e-05
1689 1687 2.7126736111111112e-06
1688 1688 1.0850694444444445e-05
1689 1688 2.7126736111111112e-06
1782 1688 2.7126736111111112e-06
1689 1689 1.0850694444444445e-05
1782 1689 2.7126736111111112e-06
1690 1690 1.0850694444444445e-05
1691 1690 2.7126736111111112e-06
1693 1690 2.7126736111111112e-06
1691 1691 1.0850694444444445e-05
1693 1691 2.7126736111111112e-06
1785 1691 2.7126736111111112e-06
1692 1692 1.0850694444444445e-05
1694 1692 2.7126736111111112e-06
1696 1692 2.7126736111111112e-06
1693 1693 1.0850694444444445e-05
1694 1693 2.7126736111111112e-06
1787 1693 2.7126736111111112e-06
1694 1694 1.0850694444444445e-05
1696 1694 2.7126736111111112e-06
1787 1694 2.7126736111111112e-06
1695 1695 1.0850694444444445e-05
1697 1695 2.7126736111111112e-06
1699 1695 2.7126736111111112e-06
1696 1696 1.0850694444444445e-05
1697 1696 2.7126736111111112e-06
1790 1696 2.7126736111111112e-06
1697 1697 1.0850694444444445e-05
1699 1697 2.7126736111111112e-06
1790 1697 2.7126736111111112e-06
1698 1698 1.0850694444444445e-05
1700 1698 2.7126736111111112e-06
1702 1698 2.7126736111111112e-06
1699 1699 1.0850694444444445e-05
1700 1699 2.7126736111111112e-06
1793 1699 2.7126736111111112e-06
1700 1700 1.0850694444444445e-05
1702 1700 2.7126736111111112e-06
1793 1700 2.7126736111111112e-06
1701 1701 1.0850694444444445e-05
1703 1701 2.7126736111111112e-06
1705 1701 2.7126736111111112e-06
1702 1702 1.0850694444444445e-05
1703 1702 2.7126736111111112e-06
1796 1702 2.7126736111111112e-06
1703 1703 1.0850694444444445e-05
1705 1703 2.7126736111111112e-06
1796 1703 2.7126736111111112e-06
1704 1704 1.0850694444444445e-05
1706 1704 2.7126736111111112e-06
1708 1704 2.7126736111111112e-06
1705 1705 1.0850694444444445e-05
1706 1705 2.7126736111111112e-06
1799 1705 2.7126736111111112e-06
1706 1706 1.0850694444444445e-05
1708 1706 2.7126736111111112e-06
1799 1706 2.7126736111111112e-06
1707 1707 1.0850694444444445e-05
1709 1707 2.7126736111111112e-06
1711 1707 2.7126736111111112e-06
1708 1708 1.0850694444444445e-05
1709 1708 2.7126736111111112e-06
1802 1708 2.7126736111111112e-06
1709 1709 1.0850694444444445e-05
1711 1709 2.7126736111111112e-06
1802 1709 2.7126736111111112e-06
1710 1710 1.0850694444444445e-05
1712 1710 2.7126736111111112e-06
1714 1710 2.7126736111111112e-06
1711 1711 1.0850694444444445e-05
1712 1711 2.7126736111111112e-06
1805 1711 2.7126736111111112e-06
1712 1712 1.0850694444444445e-05
1714 1712 2.7126736111111112e-06
1805 1712 2.7126736111111112e-06
1713 1713 1.0850694444444445e-05
1715 1713 2.7126736111111112e-06
1717 1713 2.7126736111111112e-06
1714 1714 1.0850694444444445e-05
1715 1714 2.7126736111111112e-06
1808 1714 2.7126736111111112e-06
1715 1715 1.0850694444444445e-05
1717 1715 2.7126736111111112e-06
1808 1715 2.7126736111111112e-06
1716 1716 1.0850694444444445e-05
1718 1716 2.7126736111111112e-06
1720 1716 2.7126736111111112e-06
1717 1717 1.0850694444444445e-05
1718 1717 2.7126736111111112e-06
1811 1717 2.7126736111111112e-06
1718 1718 1.0850694444444445e-05
1720 1718 2.7126736111111112e-06
1811 1718 2.7126736111111112e-06
1719 1719 1.0850694444444445e-05
1721 1719 2.7126736111111112e-06
1723 1719 2.7126736111111112e-06
1720 1720 1.0850694444444445e-05
1721 1720 2.7126736111111112e-06
1814 1720 2.7126736111111112e-06
1721 1721 1.0850694444444445e-05
1723 1721 2.7126736111111112e-06
1814 1721 2.7126736111111112e-06
1722 1722 1.0850694444444445e-05
1724 1722 2.7126736111111112e-06
1726 1722 2.7126736111111112e-06
1723 1723 1.0850694444444445e-05
1724 1723 2.7126736111111112e-06
1817 1723 2.7126736111111112e-06
1724 1724 1.0850694444444445e-05
1726 1724 2.7126736111111112e-06
1817 1724 2.7126736111111112e-06
1725 1725 1.0850694444444445e-05
1727 1725 2.7126736111111112e-06
1729 1725 2.7126736111111112e-06
1726 1726 1.0850694444444445e-05
1727 1726 2.7126736111111112e-06
1820 1726 2.7126736111111112e-06
1727 1727 1.0850694444444445e-05
1729 1727 2.7126736111111112e-06
1820 1727 2.7126736111111112e-06
1728 1728 1.0850694444444445e-05
1730 1728 2.7126736111111112e-06
1732 1728 2.7126736111111112e-06
1729 1729 1.0850694444444445e-05
1730 1729 2.7126736111111112e-06
1823 1729 2.7126736111111112e-06
1730 1730 1.0850694444444445e-05
1732 1730 2.7126736111111112e-06
1823 1730 2.7126736111111112e-06
1731 1731 1.0850694444444445e-05
1733 1731 2.7126736111111112e-06
1735 1731 2.7126736111111112e-06
1732 1732 1.0850694444444445e-05
1733 1732 2.7126736111111112e-06
1826 1732 2.7126736111111112e-06
1733 1733 1.0850694444444445e-05
1735 1733 2.7126736111111112e-06
1826 1733 2.7126736111111112e-06
1734 1734 1.0850694444444445e-05
1736 1734 2.7126736111111112e-06
1738 1734 2.7126736111111112e-06
1735 1735 1.0850694444444445e-05
1736 1735 2.7126736111111112e-06
1829 1735 2.7126736111111112e-06
1736 1736 1.0850694444444445e-05
1738 1736 2.7126736111111112e-06
1829 1736 2.7126736111111112e-06
1737 1737 1.0850694444444445e-05
1739 1737 2.7126736111111112e-06
1741 1737 2.7126736111111112e-06
1738 1738 1.0850694444444445e-05
1739 1738 2.7126736111111112e-06
1832 1738 2.7126736111111112e-06
1739 1739 1.0850694444444445e-05
1741 1739 2.7126736111111112e-06
1832 1739 2.7126736111111112e-06
1740 1740 1.0850694444444445e-05
1742 1740 2.7126736111111112e-06
1744 1740 2.7126736111111112e-06
1741 1741 1.0850694444444445e-05
1742 1741 2.7126736111111112e-06
1835 1741 2.7126736111111112e-06
1742 1742 1.0850694444444445e-05
1744 1742 2.7126736111111112e-06
1835 1742 2.7126736111111112e-06
1743 1743 1.0850694444444445e-05
1745 1743 2.7126736111111112e-06
1747 1743 2.7126736111111112e-06
1744 1744 1.0850694444444445e-05
1745 1744 2.7126736111111112e-06
1838 1744 2.7126736111111112e-06
1745 1745 1.0850694444444445e-05
1747 1745 2.7126736111111112e-06
1838 1745 2.7126736111111112e-06
1746 1746 1.0850694444444445e-05
1748 1746 2.7126736111111112e-06
1750 1746 2.7126736111111112e-06
1747 1747 1.0850694444444445e-05
1748 1747 2.7126736111111112e-06
1841 1747 2.7126736111111112e-06
1748 1748 1.0850694444444445e-05
1750 1748 2.7126736111111112e-06
1841 1748 2.7126736111111112e-06
1749 1749 1.0850694444444445e-05
1751 1749 2.7126736111111112e-06
1753 1749 2.7126736111111112e-06
1750 1750 1.0850694444444445e-05
1751 1750 2.7126736111111112e-06
1844 1750 2.7126736111111112e-06
1751 1751 1.0850694444444445e-05
1753 1751 2.7126736111111112e-06
1844 1751 2.7126736111111112e-06
1752 1752 1.0850694444444445e-05
1754 1752 2.7126736111111112e-06
1756 1752 2.7126736111111112e-06
1753 1753 1.0850694444444445e-05
1754 1753 2.7126736111111112e-06
1847 1753 2.7126736111111112e-06
1754 1754 1.0850694444444445e-05
1756 1754 2.7126736111111112e-06
1847 1754 2.7126736111111112e-06
1755 1755 1.0850694444444445e-05
1757 1755 2.7126736111111112e-06
1759 1755 2.7126736111111112e-06
1756 1756 1.0850694444444445e-05
1757 1756 2.7126736111111112e-06
1850 1756 2.7126736111111112e-06
1757 1757 1.0850694444444445e-05
1759 1757 2.7126736111111112e-06
1850 1757 2.7126736111111112e-06
1758 1758 1.0850694444444445e-05
1760 1758 2.7126736111111112e-06
1762 1758 2.7126736111111112e-06
1759 1759 1.0850694444444445e-05
1760 1759 2.7126736111111112e-06
1853 1759 2.7126736111111112e-06
1760 1760 1.0850694444444445e-05
1762 1760 2.7126736111111112e-06
1853 1760 2.7126736111111112e-06
1761 1761 1.0850694444444445e-05
1763 1761 2.7126736111111112e-06
1765 1761 2.7126736111111112e-06
1762 1762 1.0850694444444445e-05
1763 1762 2.7126736111111112e-06
1856 1762 2.7126736111111112e-06
1763 1763 1.0850694444444445e-05
1765 1763 2.7126736111111112e-06
1856 1763 2.7126736111111112e-06
1764 1764 1.0850694444444445e-05
1766 1764 2.7126736111111112e-06
1768 1764 2.7126736111111112e-06
1765 1765 1.0850694444444445e-05
1766 1765 2.7126736111111112e-06
1859 1765 2.7126736111111112e-06
1766 1766 1.0850694444444445e-05
1768 1766 2.7126736111111112e-06
1859 1766 2.7126736111111112e-06
1767 1767 1.0850694444444445e-05
1769 1767 2.7126736111111112e-06
1771 1767 2.7126736111111112e-06
1768 1768 1.0850694444444445e-05
1769 1768 2.7126736111111112e-06
1862 1768 2.7126736111111112e-06
1769 1769 1.0850694444444445e-05
1771 1769 2.7126736111111112e-06
1862 1769 2.7126736111111112e-06
1770 1770 1.0850694444444445e-05
1772 1770 2.7126736111111112e-06
1774 1770 2.7126736111111112e-06
1771 1771 1.0850694444444445e-05
1772 1771 2.7126736111111112e-06
1865 1771 2.7126736111111112e-06
1772 1772 1.0850694444444445e-05
1774 1772 2.7126736111111112e-06
1865 1772 2.7126736111111112e-06
1773 1773 1.0850694444444445e-05
1775 1773 2.7126736111111112e-06
1777 1773 2.7126736111111112e-06
1774 1774 1.0850694444444445e-05
1775 1774 2.7126736111111112e-06
1868 1774 2.7126736111111112e-06
1775 1775 1.0850694444444445e-05
1777 1775 2.7126736111111112e-06
1868 1775 2.7126736111111112e-06
1776 1776 1.0850694444444445e-05
1778 1776 2.7126736111111112e-06
1780 1776 2.7126736111111112e-06
1777 1777 1.0850694444444445e-05
1778 1777 2.7126736111111112e-06
1871 1777 2.7126736111111112e-06
1778 1778 1.0850694444444445e-05
1780 1778 2.7126736111111112e-06
1871 1778 2.7126736111111112e-06
1779 1779 1.0850694444444445e-05
1781 1779 2.7126736111111112e-06
1783 1779 2.7126736111111112e-06
1780 1780 1.0850694444444445e-05
1781 1780 2.7126736111111112e-06
1874 1780 2.7126736111111112e-06
1781 1781 1.0850694444444445e-05
1783 1781 2.7126736111111112e-06
1874 1781 2.7126736111111112e-06
1782 1782 1.0850694444444445e-05
1784 1782 2.7126736111111112e-06
1783 1783 1.0850694444444445e-05
1784 1783 2.7126736111111112e-06
1877 1783 2.7126736111111112e-06
1784 1784 1.0850694444444445e-05
1877 1784 2.7126736111111112e-06
1785 1785 1.0850694444444445e-05
1786 1785 2.7126736111111112e-06
1788 1785 2.7126736111111112e-06
1786 1786 1.0850694444444445e-05
1788 1786 2.7126736111111112e-06
1880 1786 2.7126736111111112e-06
1787 1787 1.0850694444444445e-05
1789 1787 2.7126736111111112e-06
1791 1787 2.7126736111111112e-06
1788 1788 1.0850694444444445e-05
1789 1788 2.7126736111111112e-06
1882 1788 2.7126736111111112e-06
1789 1789 1.0850694444444445e-05
1791 1789 2.7126736111111112e-06
1882 1789 2.7126736111111112e-06
1790 1790 1.0850694444444445e-05
1792 1790 2.7126736111111112e-06
1794 1790 2.7126736111111112e-06
1791 1791 1.0850694444444445e-05
1792 1791 2.7126736111111112e-06
1885 1791 2.7126736111111112e-06
1792 1792 1.0850694444444445e-05
1794 1792 2.7126736111111112e-06
1885 1792 2.7126736111111112e-06
1793 1793 1.0850694444444445e-05
1795 1793 2.7126736111111112e-06
1797 1793 2.7126736111111112e-06
1794 1794 1.0850694444444445e-05
1795 1794 2.7126736111111112e-06
1888 1794 2.7126736111111112e-06
1795 1795 1.0850694444444445e-05
1797 1795 2.7126736111111112e-06
1888 1795 2.7126736111111112e-06
1796 1796 1.0850694444444445e-05
1798 1796 2.7126736111111112e-06
1800 1796 2.7126736111111112e-06
1797 1797 1.0850694444444445e-05
1798 1797 2.7126736111111112e-06
1891 1797 2.7126736111111112e-06
1798 1798 1.0850694444444445e-05
1800 1798 2.7126736111111112e-06
1891 1798 2.7126736111111112e-06
1799 1799 1.0850694444444445e-05
1801 1799 2.7126736111111112e-06
1803 1799 2.7126736111111112e-06
1800 1800 1.0850694444444445e-05
1801 1800 2.7126736111111112e-06
1894 1800 2.7126736111111112e-06
1801 1801 1.0850694444444445e-05
1803 1801 2.7126736111111112e-06
1894 1801 2.7126736111111112e-06
1802 1802 1.0850694444444445e-05
1804 1802 2.7126736111111112e-06
1806 1802 2.7126736111111112e-06
1803 1803 1.0850694444444445e-05
1804 1803 2.7126736111111112e-06
1897 1803 2.7126736111111112e-06
1804 1804 1.0850694444444445e-05
1806 1804 2.7126736111111112e-06
1897 1804 2.7126736111111112e-06
1805 1805 1.0850694444444445e-05
1807 1805 2.7126736111111112e-06
1809 1805 2.7126736111111112e-06
1806 1806 1.0850694444444445e-05
1807 1806 2.7126736111111112e-06
1900 1806 2.7126736111111112e-06
1807 1807 1.0850694444444445e-05
1809 1807 2.7126736111111112e-06
1900 1807 2.7126736111111112e-06
1808 1808 1.0850694444444445e-05
1810 1808 2.7126736111111112e-06
1812 1808 2.7126736111111112e-06
1809 1809 1.0850694444444445e-05
1810 1809 2.7126736111111112e-06
1903 1809 2.7126736111111112e-06
1810 1810 1.0850694444444445e-05
1812 1810 2.7126736111111112e-06
1903 1810 2.7126736111111112e-06
1811 1811 1.0850694444444445e-05
1813 1811 2.7126736111111112e-06
1815 1811 2.7126736111111112e-06
1812 1812 1.0850694444444445e-05
1813 1812 2.7126736111111112e-06
1906 1812 2.7126736111111112e-06
1813 1813 1.0850694444444445e-05
1815 1813 2.7126736111111112e-06
1906 1813 2.7126736111111112e-06
1814 1814 1.0850694444444445e-05
1816 1814 2.7126736111111112e-06
1818 1814 2.7126736111111112e-06
1815 1815 1.0850694444444445e-05
1816 1815 2.7126736111111112e-06
1909 1815 2.7126736111111112e-06
1816 1816 1.0850694444444445e-05
1818 1816 2.7126736111111112e-06
1909 1816 2.7126736111111112e-06
1817 1817 1.0850694444444445e-05
1819 1817 2.7126736111111112e-06
1821 1817 2.7126736111111112e-06
1818 1818 1.0850694444444445e-05
1819 1818 2.7126736111111112e-06
1912 1818 2.7126736111111112e-06
1819 1819 1.0850694444444445e-05
1821 1819 2.7126736111111112e-06
1912 1819 2.7126736111111112e-06
1820 1820 1.0850694444444445e-05
1822 1820 2.7126736111111112e-06
1824 1820 2.7126736111111112e-06
1821 1821 1.0850694444444445e-05
1822 1821 2.7126736111111112e-06
1915 1821 2.7126736111111112e-06
1822 1822 1.0850694444444445e-05
1824 1822 2.7126736111111112e-06
1915 1822 2.7126736111111112e-06
1823 1823 1.0850694444444445e-05
1825 1823 2.7126736111111112e-06
1827 1823 2.7126736111111112e-06
1824 1824 1.0850694444444445e-05
1825 1824 2.7126736111111112e-06
1918 1824 2.7126736111111112e-06
1825 1825 1.0850694444444445e-05
1827 1825 2.7126736111111112e-06
1918 1825 2.7126736111111112e-06
1826 1826 1.0850694444444445e-05
1828 1826 2.7126736111111112e-06
1830 1826 2.7126736111111112e-06
1827 1827 1.0850694444444445e-05
1828 1827 2.7126736111111112e-06
1921 1827 2.7126736111111112e-06
1828 1828 1.0850694444444445e-05
1830 1828 2.7126736111111112e-06
1921 1828 2.7126736111111112e-06
1829 1829 1.0850694444444445e-05
1831 1829 2.7126736111111112e-06
1833 1829 2.7126736111111112e-06
1830 1830 1.0850694444444445e-05
1831 1830 2.7126736111111112e-06
1924 1830 2.7126736111111112e-06
1831 1831 1.0850694444444445e-05
1833 1831 2.7126736111111112e-06
1924 1831 2.7126736111111112e-06
1832 1832 1.0850694444444445e-05
1834 1832 2.7126736111111112e-06
1836 1832 2.7126736111111112e-06
1833 1833 1.0850694444444445e-05
1834 1833 2.7126736111111112e-06
1927 1833 2.7126736111111112e-06
1834 1834 1.0850694444444445e-05
1836 1834 2.7126736111111112e-06
1927 1834 2.7126736111111112e-06
1835 1835 1.0850694444444445e-05
1837 1835 2.7126736111111112e-06
1839 1835 2.7126736111111112e-06
1836 1836 1.0850694444444445e-05
1837 1836 2.7126736111111112e-06
1930 1836 2.7126736111111112e-06
1837 1837 1.0850694444444445e-05
1839 1837 2.7126736111111112e-06
1930 1837 2.7126736111111112e-06
1838 1838 1.0850694444444445e-05
1840 1838 2.7126736111111112e-06
1842 1838 2.7126736111111112e-06
1839 1839 1.0850694444444445e-05
1840 1839 2.7126736111111112e-06
1933 1839 2.7126736111111112e-06
1840 1840 1.0850694444444445e-05
1842 1840 2.7126736111111112e-06
1933 1840 2.7126736111111112e-06
1841 1841 1.0850694444444445e-05
1843 1841 2.7126736111111112e-06
1845 1841 2.7126736111111112e-06
1842 1842 1.0850694444444445e-05
1843 1842 2.7126736111111112e-06
1936 1842 2.7126736111111112e-06
1843 1843 1.0850694444444445e-05
1845 1843 2.7126736111111112e-06
1936 1843 2.7126736111111112e-06
1844 1844 1.0850694444444445e-05
1846 1844 2.7126736111111112e-06
1848 1844 2.7126736111111112e-06
1845 1845 1.0850694444444445e-05
1846 1845 2.7126736111111112e-06
1939 1845 2.7126736111111112e-06
1846 1846 1.0850694444444445e-05
1848 1846 2.7126736111111112e-06
1939 1846 2.7126736111111112e-06
1847 1847 1.0850694444444445e-05
1849 1847 2.7126736111111112e-06
1851 1847 2.7126736111111112e-06
1848 1848 1.0850694444444445e-05
1849 1848 2.7126736111111112e-06
1942 1848 2.7126736111111112e-06
1849 1849 1.0850694444444445e-05
1851 1849 2.7126736111111112e-06
1942 1849 2.7126736111111112e-06
1850 1850 1.0850694444444445e-05
1852 1850 2.7126736111111112e-06
1854 1850 2.7126736111111112e-06
1851 1851 1.0850694444444445e-05
1852 1851 2.7126736111111112e-06
1945 1851 2.7126736111111112e-06
1852 1852 1.0850694444444445e-05
1854 1852 2.7126736111111112e-06
1945 1852 2.7126736111111112e-06
1853 1853 1.0850694444444445e-05
1855 1853 2.7126736111111112e-06
1857 1853 2.7126736111111112e-06
1854 1854 1.0850694444444445e-05
1855 1854 2.7126736111111112e-06
1948 1854 2.7126736111111112e-06
1855 1855 1.0850694444444445e-05
1857 1855 2.7126736111111112e-06
1948 1855 2.7126736111111112e-06
1856 1856 1.0850694444444445e-05
1858 1856 2.7126736111111112e-06
1860 1856 2.7126736111111112e-06
1857 1857 1.0850694444444445e-05
1858 1857 2.7126736111111112e-06
1951 1857 2.7126736111111112e-06
1858 1858 1.0850694444444445e-05
1860 1858 2.7126736111111112e-06
1951 1858 2.7126736111111112e-06
1859 1859 1.0850694444444445e-05
1861 1859 2.7126736111111112e-06
1863 1859 2.7126736111111112e-06
1860 1860 1.0850694444444445e-05
1861 1860 2.7126736111111112e-06
1954 1860 2.7126736111111112e-06
1861 1861 1.0850694444444445e-05
1863 1861 2.7126736111111112e-06
1954 1861 2.7126736111111112e-06
1862 1862 1.0850694444444445e-05
1864 1862 2.7126736111111112e-06
1866 1862 2.7126736111111112e-06
1863 1863 1.0850694444444445e-05
1864 1863 2.7126736111111112e-06
1957 1863 2.7126736111111112e-06
1864 1864 1.0850694444444445e-05
1866 1864 2.7126736111111112e-06
1957 1864 2.7126736111111112e-06
1865 1865 1.0850694444444445e-05
1867 1865 2.7126736111111112e-06
1869 1865 2.7126736111111112e-06
1866 1866 1.0850694444444445e-05
1867 1866 2.7126736111111112e-06
1960 1866 2.7126736111111112e-06
1867 1867 1.0850694444444445e-05
1869 1867 2.7126736111111112e-06
1960 1867 2.7126736111111112e-06
1868 1868 1.0850694444444445e-05
1870 1868 2.7126736111111112e-06
1872 1868 2.7126736111111112e-06
1869 1869 1.0850694444444445e-05
1870 1869 2.7126736111111112e-06
1963 1869 2.7126736111111112e-06
1870 1870 1.0850694444444445e-05
1872 1870 2.7126736111111112e-06
1963 1870 2.7126736111111112e-06
1871 1871 1.0850694444444445e-05
1873 1871 2.7126736111111112e-06
1875 1871 2.7126736111111112e-06
1872 1872 1.0850694444444445e-05
1873 1872 2.7126736111111112e-06
1966 1872 2.7126736111111112e-06
1873 1873 1.0850694444444445e-05
1875 1873 2.7126736111111112e-06
1966 1873 2.7126736111111112e-06
1874 1874 1.0850694444444445e-05
1876 1874 2.7126736111111112e-06
1878 1874 2.7126736111111112e-06
1875 1875 1.0850694444444445e-05
1876 1875 2.7126736111111112e-06
1969 1875 2.7126736111111112e-06
1876 1876 1.0850694444444445e-05
1878 1876 2.7126736111111112e-06
1969 1876 2.7126736111111112e-06
1877 1877 1.0850694444444445e-05
1879 1877 2.7126736111111112e-06
1878 1878 1.0850694444444445e-05
1879 1878 2.7126736111111112e-06
1972 1878 2.7126736111111112e-06
1879 1879 1.0850694444444445e-05
1972 1879 2.7126736111111112e-06
1880 1880 1.0850694444444445e-05
1881 1880 2.7126736111111112e-06
1883 1880 2.7126736111111112e-06
1881 1881 1.0850694444444445e-05
1883 1881 2.7126736111111112e-06
1975 1881 2.7126736111111112e-06
1882 1882 1.0850694444444445e-05
1884 1882 2.7126736111111112e-06
1886 1882 2.7126736111111112e-06
1883 1883 1.0850694444444445e-05
1884 1883 2.7126736111111112e-06
1977 1883 2.7126736111111112e-06
1884 1884 1.0850694444444445e-05
1886 1884 2.7126736111111112e-06
1977 1884 2.7126736111111112e-06
1885 1885 1.0850694444444445e-05
1887 1885 2.7126736111111112e-06
1889 1885 2.7126736111111112e-06
1886 1886 1.0850694444444445e-05
1887 1886 2.7126736111111112e-06
1980 1886 2.7126736111111112e-06
1887 1887 1.0850694444444445e-05
1889 1887 2.7126736111111112e-06
1980 1887 2.7126736111111112e-06
1888 1888 1.0850694444444445e-05
1890 1888 2.7126736111111112e-06
1892 1888 2.7126736111111112e-06
1889 1889 1.0850694444444445e-05
1890 1889 2.7126736111111112e-06
1983 1889 2.7126736111111112e-06
1890 1890 1.0850694444444445e-05
1892 1890 2.7126736111111112e-06
1983 1890 2.7126736111111112e-06
1891 1891 1.0850694444444445e-05
1893 1891 2.7126736111111112e-06
1895 1891 2.7126736111111112e-06
1892 1892 1.0850694444444445e-05
1893 1892 2.7126736111111112e-06
1986 1892 2.7126736111111112e-06
1893 1893 1.0850694444444445e-05
1895 1893 2.7126736111111112e-06
1986 1893 2.7126736111111112e-06
1894 1894 1.0850694444444445e-05
1896 1894 2.7126736111111112e-06
1898 1894 2.7126736111111112e-06
1895 1895 1.0850694444444445e-05
1896 1895 2.7126736111111112e-06
1989 1895 2.7126736111111112e-06
1896 1896 1.0850694444444445e-05
1898 1896 2.7126736111111112e-06
1989 1896 2.7126736111111112e-06
1897 1897 1.0850694444444445e-05
1899 1897 2.7126736111111112e-06
1901 1897 2.7126736111111112e-06
1898 1898 1.0850694444444445e-05
1899 1898 2.7126736111111112e-06
1992 1898 2.7126736111111112e-06
1899 1899 1.0850694444444445e-05
1901 1899 2.7126736111111112e-06
1992 1899 2.7126736111111112e-06
1900 1900 1.0850694444444445e-05
1902 1900 2.7126736111111112e-06
1904 1900 2.7126736111111112e-06
1901 1901 1.0850694444444445e-05
1902 1901 2.7126736111111112e-06
1995 1901 2.7126736111111112e-06
1902 1902 1.0850694444444445e-05
1904 1902 2.7126736111111112e-06
1995 1902 2.7126736111111112e-06
1903 1903 1.0850694444444445e-05
1905 1903 2.7126736111111112e-06
1907 1903 2.7126736111111112e-06
1904 1904 1.0850694444444445e-05
1905 1904 2.7126736111111112e-06
1998 1904 2.7126736111111112e-06
1905 1905 1.0850694444444445e-05
1907 1905 2.7126736111111112e-06
1998 1905 2.7126736111111112e-06
1906 1906 1.0850694444444445e-05
1908 1906 2.7126736111111112e-06
1910 1906 2.7126736111111112e-06
1907 1907 1.0850694444444445e-05
1908 1907 2.7126736111111112e-06
2001 1907 2.7126736111111112e-06
1908 1908 1.0850694444444445e-05
1910 1908 2.7126736111111112e-06
2001 1908 2.7126736111111112e-06
1909 1909 1.0850694444444445e-05
1911 1909 2.7126736111111112e-06
1913 1909 2.7126736111111112e-06
1910 1910 1.0850694444444445e-05
1911 1910 2.7126736111111112e-06
2004 1910 2.7126736111111112e-06
1911 1911 1.0850694444444445e-05
1913 1911 2.7126736111111112e-06
2004 1911 2.7126736111111112e-06
1912 1912 1.0850694444444445e-05
1914 1912 2.7126736111111112e-06
1916 1912 2.7126736111111112e-06
1913 1913 1.0850694444444445e-05
1914 1913 2.7126736111111112e-06
2007 1913 2.7126736111111112e-06
1914 1914 1.0850694444444445e-05
1916 1914 2.7126736111111112e-06
2007 1914 2.7126736111111112e-06
1915 1915 1.0850694444444445e-05
1917 1915 2.7126736111111112e-06
1919 1915 2.7126736111111112e-06
1916 1916 1.0850694444444445e-05
1917 1916 2.7126736111111112e-06
2010 1916 2.7126736111111112e-06
1917 1917 1.0850694444444445e-05
1919 1917 2.7126736111111112e-06
2010 1917 2.7126736111111112e-06
1918 1918 1.0850694444444445e-05
1920 1918 2.7126736111111112e-06
1922 1918 2.7126736111111112e-06
1919 1919 1.0850694444444445e-05
1920 1919 2.7126736111111112e-06
2013 1919 2.7126736111111112e-06
1920 1920 1.0850694444444445e-05
1922 1920 2.7126736111111112e-06
2013 1920 2.7126736111111112e-06
1921 1921 1.0850694444444445e-05
1923 1921 2.7126736111111112e-06
1925 1921 2.7126736111111112e-06
1922 1922 1.0850694444444445e-05
1923 1922 2.7126736111111112e-06
2016 1922 2.7126736111111112e-06
1923 1923 1.0850694444444445e-05
1925 1923 2.7126736111111112e-06
2016 1923 2.7126736111111112e-06
1924 1924 1.0850694444444445e-05
1926 1924 2.7126736111111112e-06
1928 1924 2.7126736111111112e-06
1925 1925 1.0850694444444445e-05
1926 1925 2.7126736111111112e-06
2019 1925 2.7126736111111112e-06
1926 1926 1.0850694444444445e-05
1928 1926 2.7126736111111112e-06
2019 1926 2.7126736111111112e-06
1927 1927 1.0850694444444445e-05
1929 1927 2.7126736111111112e-06
1931 1927 2.7126736111111112e-06
1928 1928 1.0850694444444445e-05
1929 1928 2.7126736111111112e-06
2022 1928 2.7126736111111112e-06
1929 1929 1.0850694444444445e-05
1931 1929 2.7126736111111112e-06
2022 1929 2.7126736111111112e-06
1930 1930 1.0850694444444445e-05
1932 1930 2.7126736111111112e-06
1934 1930 2.7126736111111112e-06
1931 1931 1.0850694444444445e-05
1932 1931 2.7126736111111112e-06
2025 1931 2.7126736111111112e-06
1932 1932 1.0850694444444445e-05
1934 1932 2.7126736111111112e-06
2025 1932 2.7126736111111112e-06
1933 1933 1.0850694444444445e-05
1935 1933 2.7126736111111112e-06
1937 1933 2.7126736111111112e-06
1934 1934 1.0850694444444445e-05
1935 1934 2.7126736111111112e-06
2028 1934 2.7126736111111112e-06
1935 1935 1.0850694444444445e-05
1937 1935 2.7126736111111112e-06
2028 1935 2.7126736111111112e-06
1936 1936 1.0850694444444445e-05
1938 1936 2.7126736111111112e-06
1940 1936 2.7126736111111112e-06
1937 1937 1.0850694444444445e-05
1938 1937 2.7126736111111112e-06
2031 1937 2.7126736111111112e-06
1938 1938 1.0850694444444445e-05
1940 1938 2.7126736111111112e-06
2031 1938 2.7126736111111112e-06
1939 1939 1.0850694444444445e-05
1941 1939 2.7126736111111112e-06
1943 1939 2.7126736111111112e-06
1940 1940 1.0850694444444445e-05
1941 1940 2.7126736111111112e-06
2034 1940 2.7126736111111112e-06
1941 1941 1.0850694444444445e-05
1943 1941 2.7126736111111112e-06
2034 1941 2.7126736111111112e-06
1942 1942 1.0850694444444445e-05
1944 1942 2.7126736111111112e-06
1946 1942 2.7126736111111112e-06
1943 1943 1.0850694444444445e-05
1944 1943 2.7126736111111112e-06
2037 1943 2.7126736111111112e-06
1944 1944 1.0850694444444445e-05
1946 1944 2.7126736111111112e-06
2037 1944 2.7126736111111112e-06
1945 1945 1.0850694444444445e-05
1947 1945 2.7126736111111112e-06
1949 1945 2.7126736111111112e-06
1946 1946 1.0850694444444445e-05
1947 1946 2.7126736111111112e-06
2040 1946 2.7126736111111112e-06
1947 1947 1.0850694444444445e-05
1949 1947 2.7126736111111112e-06
2040 1947 2.7126736111111112e-06
1948 1948 1.0850694444444445e-05
1950 1948 2.7126736111111112e-06
1952 1948 2.7126736111111112e-06
1949 1949 1.0850694444444445e-05
1950 1949 2.7126736111111112e-06
2043 1949 2.7126736111111112e-06
1950 1950 1.0850694444444445e-05
1952 1950 2.7126736111111112e-06
2043 1950 2.7126736111111112e-06
1951 1951 1.0850694444444445e-05
1953 1951 2.7126736111111112e-06
1955 1951 2.7126736111111112e-06
1952 1952 1.0850694444444445e-05
1953 1952 2.7126736111111112e-06
2046 1952 2.7126736111111112e-06
1953 1953 1.0850694444444445e-05
1955 1953 2.7126736111111112e-06
2046 1953 2.7126736111111112e-06
1954 1954 1.0850694444444445e-05
1956 1954 2.7126736111111112e-06
1958 1954 2.7126736111111112e-06
1955 1955 1.0850694444444445e-05
1956 1955 2.7126736111111112e-06
2049 1955 2.7126736111111112e-06
1956 1956 1.0850694444444445e-05
1958 1956 2.7126736111111112e-06
2049 1956 2.7126736111111112e-06
1957 1957 1.0850694444444445e-05
1959 1957 2.7126736111111112e-06
1961 1957 2.7126736111111112e-06
1958 1958 1.0850694444444445e-05
1959 1958 2.7126736111111112e-06
2052 1958 2.7126736111111112e-06
1959 1959 1.0850694444444445e-05
1961 1959 2.7126736111111112e-06
2052 1959 2.7126736111111112e-06
1960 1960 1.0850694444444445e-05
1962 1960 2.7126736111111112e-06
1964 1960 2.7126736111111112e-06
1961 1961 1.0850694444444445e-05
1962 1961 2.7126736111111112e-06
2055 1961 2.7126736111111112e-06
1962 1962 1.0850694444444445e-05
1964 1962 2.7126736111111112e-06
2055 1962 2.7126736111111112e-06
1963 1963 1.0850694444444445e-05
1965 1963 2.7126736111111112e-06
1967 1963 2.7126736111111112e-06
1964 1964 1.0850694444444445e-05
1965 1964 2.7126736111111112e-06
2058 1964 2.7126736111111112e-06
1965 1965 1.0850694444444445e-05
1967 1965 2.7126736111111112e-06
2058 1965 2.7126736111111112e-06
1966 1966 1.0850694444444445e-05
1968 1966 2.7126736111111112e-06
1970 1966 2.7126736111111112e-06
1967 1967 1.0850694444444445e-05
1968 1967 2.7126736111111112e-06
2061 1967 2.7126736111111112e-06
1968 1968 1.0850694444444445e-05
1970 1968 2.7126736111111112e-06
2061 1968 2.7126736111111112e-06
1969 1969 1.0850694444444445e-05
1971 1969 2.7126736111111112e-06
1973 1969 2.7126736111111112e-06
1970 1970 1.0850694444444445e-05
1971 1970 2.7126736111111112e-06
2064 1970 2.7126736111111112e-06
1971 1971 1.0850694444444445e-05
1973 1971 2.7126736111111112e-06
2064 1971 2.7126736111111112e-06
1972 1972 1.0850694444444445e-05
1974 1972 2.7126736111111112e-06
1973 1973 1.0850694444444445e-05
1974 1973 2.7126736111111112e-06
2067 1973 2.7126736111111112e-06
1974 1974 1.0850694444444445e-05
2067 1974 2.7126736111111112e-06
1975 1975 1.0850694444444445e-05
1976 1975 2.7126736111111112e-06
1978 1975 2.7126736111111112e-06
1976 1976 1.0850694444444445e-05
1978 1976 2.7126736111111112e-06
2070 1976 2.7126736111111112e-06
1977 1977 1.0850694444444445e-05
1979 1977 2.7126736111111112e-06
1981 1977 2.7126736111111112e-06
1978 1978 1.0850694444444445e-05
1979 1978 2.7126736111111112e-06
2072 1978 2.7126736111111112e-06
1979 1979 1.0850694444444445e-05
1981 1979 2.7126736111111112e-06
2072 1979 2.7126736111111112e-06
1980 1980 1.0850694444444445e-05
1982 1980 2.7126736111111112e-06
1984 1980 2.7126736111111112e-06
1981 1981 1.0850694444444445e-05
1982 1981 2.7126736111111112e-06
2075 1981 2.7126736111111112e-06
1982 1982 1.0850694444444445e-05
1984 1982 2.7126736111111112e-06
2075 1982 2.7126736111111112e-06
1983 1983 1.0850694444444445e-05
1985 1983 2.7126736111111112e-06
1987 1983 2.7126736111111112e-06
1984 1984 1.0850694444444445e-05
1985 1984 2.7126736111111112e-06
2078 1984 2.7126736111111112e-06
1985 1985 1.0850694444444445e-05
1987 1985 2.7126736111111112e-06
2078 1985 2.7126736111111112e-06
1986 1986 1.0850694444444445e-05
1988 1986 2.7126736111111112e-06
1990 1986 2.7126736111111112e-06
1987 1987 1.0850694444444445e-05
1988 1987 2.7126736111111112e-06
2081 1987 2.7126736111111112e-06
1988 1988 1.0850694444444445e-05
1990 1988 2.7126736111111112e-06
2081 1988 2.7126736111111112e-06
1989 1989 1.0850694444444445e-05
1991 1989 2.7126736111111112e-06
1993 1989 2.7126736111111112e-06
1990 1990 1.0850694444444445e-05
1991 1990 2.7126736111111112e-06
2084 1990 2.7126736111111112e-06
1991 1991 1.0850694444444445e-05
1993 1991 2.7126736111111112e-06
2084 1991 2.7126736111111112e-06
1992 1992 1.0850694444444445e-05
1994 1992 2.7126736111111112e-06
1996 1992 2.7126736111111112e-06
1993 1993 1.0850694444444445e-05
1994 1993 2.7126736111111112e-06
2087 1993 2.7126736111111112e-06
1994 1994 1.0850694444444445e-05
1996 1994 2.7126736111111112e-06
2087 1994 2.7126736111111112e-06
1995 1995 1.0850694444444445e-05
1997 1995 2.7126736111111112e-06
1999 1995 2.7126736111111112e-06
1996 1996 1.0850694444444445e-05
1997 1996 2.7126736111111112e-06
2090 1996 2.7126736111111112e-06
1997 1997 1.0850694444444445e-05
1999 1997 2.7126736111111112e-06
2090 1997 2.7126736111111112e-06
1998 1998 1.0850694444444445e-05
2000 1998 2.7126736111111112e-06
2002 1998 2.7126736111111112e-06
1999 1999 1.0850694444444445e-05
2000 1999 2.7126736111111112e-06
2093 1999 2.7126736111111112e-06
2000 2000 1.0850694444444445e-05
2002 2000 2.7126736111111112e-06
2093 2000 2.7126736111111112e-06
2001 2001 1.0850694444444445e-05
2003 2001 2.7126736111111112e-06
2005 2001 2.7126736111111112e-06
2002 2002 1.0850694444444445e-05
2003 2002 2.7126736111111112e-06
2096 2002 2.7126736111111112e-06
2003 2003 1.0850694444444445e-05
2005 2003 2.7126736111111112e-06
2096 2003 2.7126736111111112e-06
2004 2004 1.0850694444444445e-05
2006 2004 2.7126736111111112e-06
2008 2004 2.7126736111111112e-06
2005 2005 1.0850694444444445e-05
2006 2005 2.7126736111111112e-06
2099 2005 2.7126736111111112e-06
2006 2006 1.0850694444444445e-05
2008 2006 2.7126736111111112e-06
2099 2006 2.7126736111111112e-06
2007 2007 1.0850694444444445e-05
2009 2007 2.7126736111111112e-06
2011 2007 2.7126736111111112e-06
2008 2008 1.0850694444444445e-05
2009 2008 2.7126736111111112e-06
2102 2008 2.7126736111111112e-06
2009 2009 1.0850694444444445e-05
2011 2009 2.7126736111111112e-06
2102 2009 2.7126736111111112e-06
2010 2010 1.0850694444444445e-05
2012 2010 2.7126736111111112e-06
2014 2010 2.7126736111111112e-06
2011 2011 1.0850694444444445e-05
2012 2011 2.7126736111111112e-06
2105 2011 2.7126736111111112e-06
2012 2012 1.0850694444444445e-05
2014 2012 2.7126736111111112e-06
2105 2012 2.7126736111111112e-06
2013 2013 1.0850694444444445e-05
2015 2013 2.7126736111111112e-06
2017 2013 2.7126736111111112e-06
2014 2014 1.0850694444444445e-05
2015 2014 2.7126736111111112e-06
2108 2014 2.7126736111111112e-06
2015 2015 1.0850694444444445e-05
2017 2015 2.7126736111111112e-06
2108 2015 2.7126736111111112e-06
2016 2016 1.0850694444444445e-05
2018 2016 2.7126736111111112e-06
2020 2016 2.7126736111111112e-06
2017 2017 1.0850694444444445e-05
2018 2017 2.7126736111111112e-06
2111 2017 2.7126736111111112e-06
2018 2018 1.0850694444444445e-05
2020 2018 2.7126736111111112e-06
2111 2018 2.7126736111111112e-06
2019 2019 1.0850694444444445e-05
2021 2019 2.7126736111111112e-06
2023 2019 2.7126736111111112e-06
2020 2020 1.0850694444444445e-05
2021 2020 2.7126736111111112e-06
2114 2020 2.7126736111111112e-06
2021 2021 1.0850694444444445e-05
2023 2021 2.7126736111111112e-06
2114 2021 2.7126736111111112e-06
2022 2022 1.0850694444444445e-05
2024 2022 2.7126736111111112e-06
2026 2022 2.7126736111111112e-06
2023 2023 1.0850694444444445e-05
2024 2023 2.7126736111111112e-06
2117 2023 2.7126736111111112e-06
2024 2024 1.0850694444444445e-05
2026 2024 2.7126736111111112e-06
2117 2024 2.7126736111111112e-06
2025 2025 1.0850694444444445e-05
2027 2025 2.7126736111111112e-06
2029 2025 2.7126736111111112e-06
2026 2026 1.0850694444444445e-05
2027 2026 2.7126736111111112e-06
2120 2026 2.7126736111111112e-06
2027 2027 1.0850694444444445e-05
2029 2027 2.7126736111111112e-06
2120 2027 2.7126736111111112e-06
2028 2028 1.0850694444444445e-05
2030 2028 2.7126736111111112e-06
2032 2028 2.7126736111111112e-06
2029 2029 1.0850694444444445e-05
2030 2029 2.7126736111111112e-06
2123 2029 2.7126736111111112e-06
2030 2030 1.0850694444444445e-05
2032 2030 2.7126736111111112e-06
2123 2030 2.7126736111111112e-06
2031 2031 1.0850694444444445e-05
2033 2031 2.7126736111111112e-06
2035 2031 2.7126736111111112e-06
2032 2032 1.0850694444444445e-05
2033 2032 2.7126736111111112e-06
2126 2032 2.7126736111111112e-06
2033 2033 1.0850694444444445e-05
2035 2033 2.7126736111111112e-06
2126 2033 2.7126736111111112e-06
2034 2034 1.0850694444444445e-05
2036 2034 2.7126736111111112e-06
2038 2034 2.7126736111111112e-06
2035 2035 1.0850694444444445e-05
2036 2035 2.7126736111111112e-06
2129 2035 2.7126736111111112e-06
2036 2036 1.0850694444444445e-05
2038 2036 2.7126736111111112e-06
2129 2036 2.7126736111111112e-06
2037 2037 1.0850694444444445e-05
2039 2037 2.7126736111111112e-06
2041 2037 2.7126736111111112e-06
2038 2038 1.0850694444444445e-05
2039 2038 2.7126736111111112e-06
2132 2038 2.7126736111111112e-06
2039 2039 1.0850694444444445e-05
2041 2039 2.7126736111111112e-06
2132 2039 2.7126736111111112e-06
2040 2040 1.0850694444444445e-05
2042 2040 2.7126736111111112e-06
2044 2040 2.7126736111111112e-06
2041 2041 1.0850694444444445e-05
2042 2041 2.7126736111111112e-06
2135 2041 2.7126736111111112e-06
2042 2042 1.0850694444444445e-05
2044 2042 2.7126736111111112e-06
2135 2042 2.7126736111111112e-06
2043 2043 1.0850694444444445e-05
2045 2043 2.7126736111111112e-06
2047 2043 2.7126736111111112e-06
2044 2044 1.0850694444444445e-05
2045 2044 2.7126736111111112e-06
2138 2044 2.7126736111111112e-06
2045 2045 1.0850694444444445e-05
2047 2045 2.7126736111111112e-06
2138 2045 2.7126736111111112e-06
2046 2046 1.0850694444444445e-05
2048 2046 2.7126736111111112e-06
2050 2046 2.7126736111111112e-06
2047 2047 1.0850694444444445e-05
2048 2047 2.7126736111111112e-06
2141 2047 2.7126736111111112e-06
2048 2048 1.0850694444444445e-05
2050 2048 2.7126736111111112e-06
2141 2048 2.7126736111111112e-06
2049 2049 1.0850694444444445e-05
2051 2049 2.7126736111111112e-06
2053 2049 2.7126736111111112e-06
2050 2050 1.0850694444444445e-05
2051 2050 2.7126736111111112e-06
2144 2050 2.7126736111111112e-06
2051 2051 1.0850694444444445e-05
2053 2051 2.7126736111111112e-06
2144 2051 2.7126736111111112e-06
2052 2052 1.0850694444444445e-05
2054 2052 2.7126736111111112e-06
2056 2052 2.7126736111111112e-06
2053 2053 1.0850694444444445e-05
2054 2053 2.7126736111111112e-06
2147 2053 2.7126736111111112e-06
2054 2054 1.0850694444444445e-05
2056 2054 2.7126736111111112e-06
2147 2054 2.7126736111111112e-06
2055 2055 1.0850694444444445e-05
2057 2055 2.7126736111111112e-06
2059 2055 2.7126736111111112e-06
2056 2056 1.0850694444444445e-05
2057 2056 2.7126736111111112e-06
2150 2056 2.7126736111111112e-06
2057 2057 1.0850694444444445e-05
2059 2057 2.7126736111111112e-06
2150 2057 2.7126736111111112e-06
2058 2058 1.0850694444444445e-05
2060 2058 2.7126736111111112e-06
2062 2058 2.7126736111111112e-06
2059 2059 1.0850694444444445e-05
2060 2059 2.7126736111111112e-06
2153 2059 2.7126736111111112e-06
2060 2060 1.0850694444444445e-05
2062 2060 2.7126736111111112e-06
2153 2060 2.7126736111111112e-06
2061 2061 1.0850694444444445e-05
2063 2061 2.7126736111111112e-06
2065 2061 2.7126736111111112e-06
2062 2062 1.0850694444444445e-05
2063 2062 2.7126736111111112e-06
2156 2062 2.7126736111111112e-06
2063 2063 1.0850694444444445e-05
2065 2063 2.7126736111111112e-06
2156 2063 2.7126736111111112e-06
2064 2064 1.0850694444444445e-05
2066 2064 2.7126736111111112e-06
2068 2064 2.7126736111111112e-06
2065 2065 1.0850694444444445e-05
2066 2065 2.7126736111111112e-06
2159 2065 2.7126736111111112e-06
2066 2066 1.0850694444444445e-05
2068 2066 2.7126736111111112e-06
2159 2066 2.7126736111111112e-06
2067 2067 1.0850694444444445e-05
2069 2067 2.7126736111111112e-06
2068 2068 1.0850694444444445e-05
2069 2068 2.7126736111111112e-06
2162 2068 2.7126736111111112e-06
2069 2069 1.0850694444444445e-05
2162 2069 2.7126736111111112e-06
2070 2070 1.0850694444444445e-05
2071 2070 2.7126736111111112e-06
2073 2070 2.7126736111111112e-06
2071 2071 1.0850694444444445e-05
2073 2071 2.7126736111111112e-06
2165 2071 2.7126736111111112e-06
2072 2072 1.0850694444444445e-05
2074 2072 2.7126736111111112e-06
2076 2072 2.7126736111111112e-06
2073 2073 1.0850694444444445e-05
2074 2073 2.7126736111111112e-06
2167 2073 2.7126736111111112e-06
2074 2074 1.0850694444444445e-05
2076 2074 2.7126736111111112e-06
2167 2074 2.7126736111111112e-06
2075 2075 1.0850694444444445e-05
2077 2075 2.7126736111111112e-06
2079 2075 2.7126736111111112e-06
2076 2076 1.0850694444444445e-05
2077 2076 2.7126736111111112e-06
2170 2076 2.7126736111111112e-06
2077 2077 1.0850694444444445e-05
2079 2077 2.7126736111111112e-06
2170 2077 2.7126736111111112e-06
2078 2078 1.0850694444444445e-05
2080 2078 2.7126736111111112e-06
2082 2078 2.7126736111111112e-06
2079 2079 1.0850694444444445e-05
2080 2079 2.7126736111111112e-06
2173 2079 2.7126736111111112e-06
2080 2080 1.0850694444444445e-05
2082 2080 2.7126736111111112e-06
2173 2080 2.7126736111111112e-06
2081 2081 1.0850694444444445e-05
2083 2081 2.7126736111111112e-06
2085 2081 2.7126736111111112e-06
2082 2082 1.0850694444444445e-05
2083 2082 2.7126736111111112e-06
2176 2082 2.7126736111111112e-06
2083 2083 1.0850694444444445e-05
2085 2083 2.7126736111111112e-06
2176 2083 2.7126736111111112e-06
2084 2084 1.0850694444444445e-05
2086 2084 2.7126736111111112e-06
2088 2084 2.7126736111111112e-06
2085 2085 1.0850694444444445e-05
2086 2085 2.7126736111111112e-06
2179 2085 2.7126736111111112e-06
2086 2086 1.0850694444444445e-05
2088 2086 2.7126736111111112e-06
2179 2086 2.7126736111111112e-06
2087 2087 1.0850694444444445e-05
2089 2087 2.7126736111111112e-06
2091 2087 2.7126736111111112e-06
2088 2088 1.0850694444444445e-05
2089 2088 2.7126736111111112e-06
2182 2088 2.7126736111111112e-06
2089 2089 1.0850694444444445e-05
2091 2089 2.7126736111111112e-06
2182 2089 2.7126736111111112e-06
2090 2090 1.0850694444444445e-05
2092 2090 2.7126736111111112e-06
2094 2090 2.7126736111111112e-06
2091 2091 1.0850694444444445e-05
2092 2091 2.7126736111111112e-06
2185 2091 2.7126736111111112e-06
2092 2092 1.0850694444444445e-05
2094 2092 2.7126736111111112e-06
2185 2092 2.7126736111111112e-06
2093 2093 1.0850694444444445e-05
2095 2093 2.7126736111111112e-06
2097 2093 2.7126736111111112e-06
2094 2094 1.0850694444444445e-05
2095 2094 2.7126736111111112e-06
2188 2094 2.7126736111111112e-06
2095 2095 1.0850694444444445e-05
2097 2095 2.7126736111111112e-06
2188 2095 2.7126736111111112e-06
2096 2096 1.0850694444444445e-05
2098 2096 2.7126736111111112e-06
2100 2096 2.7126736111111112e-06
2097 2097 1.0850694444444445e-05
2098 2097 2.7126736111111112e-06
2191 2097 2.7126736111111112e-06
2098 2098 1.0850694444444445e-05
2100 2098 2.7126736111111112e-06
2191 2098 2.7126736111111112e-06
2099 2099 1.0850694444444445e-05
2101 2099 2.7126736111111112e-06
2103 2099 2.7126736111111112e-06
2100 2100 1.0850694444444445e-05
2101 2100 2.7126736111111112e-06
2194 2100 2.7126736111111112e-06
2101 2101 1.0850694444444445e-05
2103 2101 2.7126736111111112e-06
2194 2101 2.7126736111111112e-06
2102 2102 1.0850694444444445e-05
2104 2102 2.7126736111111112e-06
2106 2102 2.7126736111111112e-06
2103 2103 1.0850694444444445e-05
2104 2103 2.7126736111111112e-06
2197 2103 2.7126736111111112e-06
2104 2104 1.0850694444444445e-05
2106 2104 2.7126736111111112e-06
2197 2104 2.7126736111111112e-06
2105 2105 1.0850694444444445e-05
2107 2105 2.7126736111111112e-06
2109 2105 2.7126736111111112e-06
2106 2106 1.0850694444444445e-05
2107 2106 2.7126736111111112e-06
2200 2106 2.7126736111111112e-06
2107 2107 1.0850694444444445e-05
2109 2107 2.7126736111111112e-06
2200 2107 2.7126736111111112e-06
2108 2108 1.0850694444444445e-05
2110 2108 2.7126736111111112e-06
2112 2108 2.7126736111111112e-06
2109 2109 1.0850694444444445e-05
2110 2109 2.7126736111111112e-06
2203 2109 2.7126736111111112e-06
2110 2110 1.0850694444444445e-05
2112 2110 2.7126736111111112e-06
2203 2110 2.7126736111111112e-06
2111 2111 1.0850694444444445e-05
2113 2111 2.7126736111111112e-06
2115 2111 2.7126736111111112e-06
2112 2112 1.0850694444444445e-05
2113 2112 2.7126736111111112e-06
2206 2112 2.7126736111111112e-06
2113 2113 1.0850694444444445e-05
2115 2113 2.7126736111111112e-06
2206 2113 2.7126736111111112e-06
2114 2114 1.0850694444444445e-05
2116 2114 2.7126736111111112e-06
2118 2114 2.7126736111111112e-06
2115 2115 1.0850694444444445e-05
2116 2115 2.7126736111111112e-06
2209 2115 2.7126736111111112e-06
2116 2116 1.0850694444444445e-05
2118 2116 2.7126736111111112e-06
2209 2116 2.7126736111111112e-06
2117 2117 1.0850694444444445e-05
2119 2117 2.7126736111111112e-06
2121 2117 2.7126736111111112e-06
2118 2118 1.0850694444444445e-05
2119 2118 2.7126736111111112e-06
2212 2118 2.7126736111111112e-06
2119 2119 1.0850694444444445e-05
2121 2119 2.7126736111111112e-06
2212 2119 2.7126736111111112e-06
2120 2120 1.0850694444444445e-05
2122 2120 2.7126736111111112e-06
2124 2120 2.7126736111111112e-06
2121 2121 1.0850694444444445e-05
2122 2121 2.7126736111111112e-06
2215 2121 2.7126736111111112e-06
2122 2122 1.0850694444444445e-05
2124 2122 2.7126736111111112e-06
2215 2122 2.7126736111111112e-06
2123 2123 1.0850694444444445e-05
2125 2123 2.7126736111111112e-06
2127 2123 2.7126736111111112e-06
2124 2124 1.0850694444444445e-05
2125 2124 2.7126736111111112e-06
2218 2124 2.7126736111111112e-06
2125 2125 1.0850694444444445e-05
2127 2125 2.7126736111111112e-06
2218 2125 2.7126736111111112e-06
2126 2126 1.0850694444444445e-05
2128 2126 2.7126736111111112e-06
2130 2126 2.7126736111111112e-06
2127 2127 1.0850694444444445e-05
2128 2127 2.7126736111111112e-06
2221 2127 2.7126736111111112e-06
2128 2128 1.0850694444444445e-05
2130 2128 2.7126736111111112e-06
2221 2128 2.7126736111111112e-06
2129 2129 1.0850694444444445e-05
2131 2129 2.7126736111111112e-06
2133 2129 2.7126736111111112e-06
2130 2130 1.0850694444444445e-05
2131 2130 2.7126736111111112e-06
2224 2130 2.7126736111111112e-06
2131 2131 1.0850694444444445e-05
2133 2131 2.7126736111111112e-06
2224 2131 2.7126736111111112e-06
2132 2132 1.0850694444444445e-05
2134 2132 2.7126736111111112e-06
2136 2132 2.7126736111111112e-06
2133 2133 1.0850694444444445e-05
2134 2133 2.7126736111111112e-06
2227 2133 2.7126736111111112e-06
2134 2134 1.0850694444444445e-05
2136 2134 2.7126736111111112e-06
2227 2134 2.7126736111111112e-06
2135 2135 1.0850694444444445e-05
2137 2135 2.7126736111111112e-06
2139 2135 2.7126736111111112e-06
2136 2136 1.0850694444444445e-05
2137 2136 2.7126736111111112e-06
2230 2136 2.7126736111111112e-06
2137 2137 1.0850694444444445e-05
2139 2137 2.7126736111111112e-06
2230 2137 2.7126736111111112e-06
2138 2138 1.0850694444444445e-05
2140 2138 2.7126736111111112e-06
2142 2138 2.7126736111111112e-06
2139 2139 1.0850694444444445e-05
2140 2139 2.7126736111111112e-06
2233 2139 2.7126736111111112e-06
2140 2140 1.0850694444444445e-05
2142 2140 2.7126736111111112e-06
2233 2140 2.7126736111111112e-06
2141 2141 1.0850694444444445e-05
2143 2141 2.7126736111111112e-06
2145 2141 2.7126736111111112e-06
2142 2142 1.0850694444444445e-05
2143 2142 2.7126736111111112e-06
2236 2142 2.7126736111111112e-06
2143 2143 1.0850694444444445e-05
2145 2143 2.7126736111111112e-06
2236 2143 2.7126736111111112e-06
2144 2144 1.0850694444444445e-05
2146 2144 2.7126736111111112e-06
2148 2144 2.7126736111111112e-06
2145 2145 1.0850694444444445e-05
2146 2145 2.7126736111111112e-06
2239 2145 2.7126736111111112e-06
2146 2146 1.0850694444444445e-05
2148 2146 2.7126736111111112e-06
2239 2146 2.7126736111111112e-06
2147 2147 1.0850694444444445e-05
2149 2147 2.7126736111111112e-06
2151 2147 2.7126736111111112e-06
2148 2148 1.0850694444444445e-05
2149 2148 2.7126736111111112e-06
2242 2148 2.7126736111111112e-06
2149 2149 1.0850694444444445e-05
2151 2149 2.7126736111111112e-06
2242 2149 2.7126736111111112e-06
2150 2150 1.0850694444444445e-05
2152 2150 2.7126736111111112e-06
2154 2150 2.7126736111111112e-06
2151 2151 1.0850694444444445e-05
2152 2151 2.7126736111111112e-06
2245 2151 2.7126736111111112e-06
2152 2152 1.0850694444444445e-05
2154 2152 2.7126736111111112e-06
2245 2152 2.7126736111111112e-06
2153 2153 1.0850694444444445e-05
2155 2153 2.7126736111111112e-06
2157 2153 2.7126736111111112e-06
2154 2154 1.0850694444444445e-05
2155 2154 2.7126736111111112e-06
2248 2154 2.7126736111111112e-06
2155 2155 1.0850694444444445e-05
2157 2155 2.7126736111111112e-06
2248 2155 2.7126736111111112e-06
2156 2156 1.0850694444444445e-05
2158 2156 2.7126736111111112e-06
2160 2156 2.7126736111111112e-06
2157 2157 1.0850694444444445e-05
2158 2157 2.7126736111111112e-06
2251 2157 2.7126736111111112e-06
2158 2158 1.0850694444444445e-05
2160 2158 2.7126736111111112e-06
2251 2158 2.7126736111111112e-06
2159 2159 1.0850694444444445e-05
2161 2159 2.7126736111111112e-06
2163 2159 2.7126736111111112e-06
2160 2160 1.0850694444444445e-05
2161 2160 2.7126736111111112e-06
2254 2160 2.7126736111111112e-06
2161 2161 1.0850694444444445e-05
2163 2161 2.7126736111111112e-06
2254 2161 2.7126736111111112e-06
2162 2162 1.0850694444444445e-05
2164 2162 2.7126736111111112e-06
2163 2163 1.0850694444444445e-05
2164 2163 2.7126736111111112e-06
2257 2163 2.7126736111111112e-06
2164 2164 1.0850694444444445e-05
2257 2164 2.7126736111111112e-06
2165 2165 1.0850694444444445e-05
2166 2165 2.7126736111111112e-06
2168 2165 2.7126736111111112e-06
2166 2166 1.0850694444444445e-05
2168 2166 2.7126736111111112e-06
2260 2166 2.7126736111111112e-06
2167 2167 1.0850694444444445e-05
2169 2167 2.7126736111111112e-06
2171 2167 2.7126736111111112e-06
2168 2168 1.0850694444444445e-05
2169 2168 2.7126736111111112e-06
2262 2168 2.7126736111111112e-06
2169 2169 1.0850694444444445e-05
2171 2169 2.7126736111111112e-06
2262 2169 2.7126736111111112e-06
2170 2170 1.0850694444444445e-05
2172 2170 2.7126736111111112e-06
2174 2170 2.7126736111111112e-06
2171 2171 1.0850694444444445e-05
2172 2171 2.7126736111111112e-06
2265 2171 2.7126736111111112e-06
2172 2172 1.0850694444444445e-05
2174 2172 2.7126736111111112e-06
2265 2172 2.7126736111111112e-06
2173 2173 1.0850694444444445e-05
2175 2173 2.7126736111111112e-06
2177 2173 2.7126736111111112e-06
2174 2174 1.0850694444444445e-05
2175 2174 2.7126736111111112e-06
2268 2174 2.7126736111111112e-06
2175 2175 1.0850694444444445e-05
2177 2175 2.7126736111111112e-06
2268 2175 2.7126736111111112e-06
2176 2176 1.0850694444444445e-05
2178 2176 2.7126736111111112e-06
2180 2176 2.7126736111111112e-06
2177 2177 1.0850694444444445e-05
2178 2177 2.7126736111111112e-06
2271 2177 2.7126736111111112e-06
2178 2178 1.0850694444444445e-05
2180 2178 2.7126736111111112e-06
2271 2178 2.7126736111111112e-06
2179 2179 1.0850694444444445e-05
2181 2179 2.7126736111111112e-06
2183 2179 2.7126736111111112e-06
2180 2180 1.0850694444444445e-05
2181 2180 2.7126736111111112e-06
2274 2180 2.7126736111111112e-06
2181 2181 1.0850694444444445e-05
2183 2181 2.7126736111111112e-06
2274 2181 2.7126736111111112e-06
2182 2182 1.0850694444444445e-05
2184 2182 2.7126736111111112e-06
2186 2182 2.7126736111111112e-06
2183 2183 1.0850694444444445e-05
2184 2183 2.7126736111111112e-06
2277 2183 2.7126736111111112e-06
2184 2184 1.0850694444444445e-05
2186 2184 2.7126736111111112e-06
2277 2184 2.7126736111111112e-06
2185 2185 1.0850694444444445e-05
2187 2185 2.7126736111111112e-06
2189 2185 2.7126736111111112e-06
2186 2186 1.0850694444444445e-05
2187 2186 2.7126736111111112e-06
2280 2186 2.7126736111111112e-06
2187 2187 1.0850694444444445e-05
2189 2187 2.7126736111111112e-06
2280 2187 2.7126736111111112e-06
2188 2188 1.0850694444444445e-05
2190 2188 2.7126736111111112e-06
2192 2188 2.7126736111111112e-06
2189 2189 1.0850694444444445e-05
2190 2189 2.7126736111111112e-06
2283 2189 2.7126736111111112e-06
2190 2190 1.0850694444444445e-05
2192 2190 2.7126736111111112e-06
2283 2190 2.7126736111111112e-06
2191 2191 1.0850694444444445e-05
2193 2191 2.7126736111111112e-06
2195 2191 2.7126736111111112e-06
2192 2192 1.0850694444444445e-05
2193 2192 2.7126736111111112e-06
2286 2192 2.7126736111111112e-06
2193 2193 1.0850694444444445e-05
2195 2193 2.7126736111111112e-06
2286 2193 2.7126736111111112e-06
2194 2194 1.0850694444444445e-05
2196 2194 2.7126736111111112e-06
2198 2194 2.7126736111111112e-06
2195 2195 1.0850694444444445e-05
2196 2195 2.7126736111111112e-06
2289 2195 2.7126736111111112e-06
2196 2196 1.0850694444444445e-05
2198 2196 2.7126736111111112e-06
2289 2196 2.7126736111111112e-06
2197 2197 1.0850694444444445e-05
2199 2197 2.7126736111111112e-06
2201 2197 2.7126736111111112e-06
2198 2198 1.0850694444444445e-05
2199 2198 2.7126736111111112e-06
2292 2198 2.7126736111111112e-06
2199 2199 1.0850694444444445e-05
2201 2199 2.7126736111111112e-06
2292 2199 2.7126736111111112e-06
2200 2200 1.0850694444444445e-05
2202 2200 2.7126736111111112e-06
2204 2200 2.7126736111111112e-06
2201 2201 1.0850694444444445e-05
2202 2201 2.7126736111111112e-06
2295 2201 2.7126736111111112e-06
2202 2202 1.0850694444444445e-05
2204 2202 2.7126736111111112e-06
2295 2202 2.7126736111111112e-06
2203 2203 1.0850694444444445e-05
2205 2203 2.7126736111111112e-06
2207 2203 2.7126736111111112e-06
2204 2204 1.0850694444444445e-05
2205 2204 2.7126736111111112e-06
2298 2204 2.7126736111111112e-06
2205 2205 1.0850694444444445e-05
2207 2205 2.7126736111111112e-06
2298 2205 2.7126736111111112e-06
2206 2206 1.0850694444444445e-05
2208 2206 2.7126736111111112e-06
2210 2206 2.7126736111111112e-06
2207 2207 1.0850694444444445e-05
2208 2207 2.7126736111111112e-06
2301 2207 2.7126736111111112e-06
2208 2208 1.0850694444444445e-05
2210 2208 2.7126736111111112e-06
2301 2208 2.7126736111111112e-06
2209 2209 1.0850694444444445e-05
2211 2209 2.7126736111111112e-06
2213 2209 2.7126736111111112e-06
2210 2210 1.0850694444444445e-05
2211 2210 2.7126736111111112e-06
2304 2210 2.7126736111111112e-06
2211 2211 1.0850694444444445e-05
2213 2211 2.7126736111111112e-06
2304 2211 2.7126736111111112e-06
2212 2212 1.0850694444444445e-05
2214 2212 2.7126736111111112e-06
2216 2212 2.7126736111111112e-06
2213 2213 1.0850694444444445e-05
2214 2213 2.7126736111111112e-06
2307 2213 2.7126736111111112e-06
2214 2214 1.0850694444444445e-05
2216 2214 2.7126736111111112e-06
2307 2214 2.7126736111111112e-06
2215 2215 1.0850694444444445e-05
2217 2215 2.7126736111111112e-06
2219 2215 2.7126736111111112e-06
2216 2216 1.0850694444444445e-05
2217 2216 2.7126736111111112e-06
2310 2216 2.7126736111111112e-06
2217 2217 1.0850694444444445e-05
2219 2217 2.7126736111111112e-06
2310 2217 2.7126736111111112e-06
2218 2218 1.0850694444444445e-05
2220 2218 2.7126736111111112e-06
2222 2218 2.7126736111111112e-06
2219 2219 1.0850694444444445e-05
2220 2219 2.7126736111111112e-06
2313 2219 2.7126736111111112e-06
2220 2220 1.0850694444444445e-05
2222 2220 2.7126736111111112e-06
2313 2220 2.7126736111111112e-06
2221 2221 1.0850694444444445e-05
2223 2221 2.7126736111111112e-06
2225 2221 2.7126736111111112e-06
2222 2222 1.0850694444444445e-05
2223 2222 2.7126736111111112e-06
2316 2222 2.7126736111111112e-06
2223 2223 1.0850694444444445e-05
2225 2223 2.7126736111111112e-06
2316 2223 2.7126736111111112e-06
2224 2224 1.0850694444444445e-05
2226 2224 2.7126736111111112e-06
2228 2224 2.7126736111111112e-06
2225 2225 1.0850694444444445e-05
2226 2225 2.7126736111111112e-06
2319 2225 2.7126736111111112e-06
2226 2226 1.0850694444444445e-05
2228 2226 2.7126736111111112e-06
2319 2226 2.7126736111111112e-06
2227 2227 1.0850694444444445e-05
2229 2227 2.7126736111111112e-06
2231 2227 2.7126736111111112e-06
2228 2228 1.0850694444444445e-05
2229 2228 2.7126736111111112e-06
2322 2228 2.7126736111111112e-06
2229 2229 1.0850694444444445e-05
2231 2229 2.7126736111111112e-06
2322 2229 2.7126736111111112e-06
2230 2230 1.0850694444444445e-05
2232 2230 2.7126736111111112e-06
2234 2230 2.7126736111111112e-06
2231 2231 1.0850694444444445e-05
2232 2231 2.7126736111111112e-06
2325 2231 2.7126736111111112e-06
2232 2232 1.0850694444444445e-05
2234 2232 2.7126736111111112e-06
2325 2232 2.7126736111111112e-06
2233 2233 1.0850694444444445e-05
2235 2233 2.7126736111111112e-06
2237 2233 2.7126736111111112e-06
2234 2234 1.0850694444444445e-05
2235 2234 2.7126736111111112e-06
2328 2234 2.7126736111111112e-06
2235 2235 1.0850694444444445e-05
2237 2235 2.7126736111111112e-06
2328 2235 2.7126736111111112e-06
2236 2236 1.0850694444444445e-05
2238 2236 2.7126736111111112e-06
2240 2236 2.7126736111111112e-06
2237 2237 1.0850694444444445e-05
2238 2237 2.7126736111111112e-06
2331 2237 2.7126736111111112e-06
2238 2238 1.0850694444444445e-05
2240 2238 2.7126736111111112e-06
2331 2238 2.7126736111111112e-06
2239 2239 1.0850694444444445e-05
2241 2239 2.7126736111111112e-06
2243 2239 2.7126736111111112e-06
2240 2240 1.0850694444444445e-05
2241 2240 2.7126736111111112e-06
2334 2240 2.7126736111111112e-06
2241 2241 1.0850694444444445e-05
2243 2241 2.7126736111111112e-06
2334 2241 2.7126736111111112e-06
2242 2242 1.0850694444444445e-05
2244 2242 2.7126736111111112e-06
2246 2242 2.7126736111111112e-06
2243 2243 1.0850694444444445e-05
2244 2243 2.7126736111111112e-06
2337 2243 2.7126736111111112e-06
2244 2244 1.0850694444444445e-05
2246 2244 2.7126736111111112e-06
2337 2244 2.7126736111111112e-06
2245 2245 1.0850694444444445e-05
2247 2245 2.7126736111111112e-06
2249 2245 2.7126736111111112e-06
2246 2246 1.0850694444444445e-05
2247 2246 2.7126736111111112e-06
2340 2246 2.7126736111111112e-06
2247 2247 1.0850694444444445e-05
2249 2247 2.7126736111111112e-06
2340 2247 2.7126736111111112e-06
2248 2248 1.0850694444444445e-05
2250 2248 2.7126736111111112e-06
2252 2248 2.7126736111111112e-06
2249 2249 1.0850694444444445e-05
2250 2249 2.7126736111111112e-06
2343 2249 2.7126736111111112e-06
2250 2250 1.0850694444444445e-05
2252 2250 2.7126736111111112e-06
2343 2250 2.7126736111111112e-06
2251 2251 1.0850694444444445e-05
2253 2251 2.7126736111111112e-06
2255 2251 2.7126736111111112e-06
2252 2252 1.0850694444444445e-05
2253 2252 2.7126736111111112e-06
2346 2252 2.7126736111111112e-06
2253 2253 1.0850694444444445e-05
2255 2253 2.7126736111111112e-06
2346 2253 2.7126736111111112e-06
2254 2254 1.0850694444444445e-05
2256 2254 2.7126736111111112e-06
2258 2254 2.7126736111111112e-06
2255 2255 1.0850694444444445e-05
2256 2255 2.7126736111111112e-06
2349 2255 2.7126736111111112e-06
2256 2256 1.0850694444444445e-05
2258 2256 2.7126736111111112e-06
2349 2256 2.7126736111111112e-06
2257 2257 1.0850694444444445e-05
2259 2257 2.7126736111111112e-06
2258 2258 1.0850694444444445e-05
2259 2258 2.7126736111111112e-06
2352 2258 2.7126736111111112e-06
2259 2259 1.0850694444444445e-05
2352 2259 2.7126736111111112e-06
2260 2260 1.0850694444444445e-05
2261 2260 2.7126736111111112e-06
2263 2260 2.7126736111111112e-06
2261 2261 1.0850694444444445e-05
2263 2261 2.7126736111111112e-06
2355 2261 2.7126736111111112e-06
2262 2262 1.0850694444444445e-05
2264 2262 2.7126736111111112e-06
2266 2262 2.7126736111111112e-06
2263 2263 1.0850694444444445e-05
2264 2263 2.7126736111111112e-06
2357 2263 2.7126736111111112e-06
2264 2264 1.0850694444444445e-05
2266 2264 2.7126736111111112e-06
2357 2264 2.7126736111111112e-06
2265 2265 1.0850694444444445e-05
2267 2265 2.7126736111111112e-06
2269 2265 2.7126736111111112e-06
2266 2266 1.0850694444444445e-05
2267 2266 2.7126736111111112e-06
2360 2266 2.7126736111111112e-06
2267 2267 1.0850694444444445e-05
2269 2267 2.7126736111111112e-06
2360 2267 2.7126736111111112e-06
2268 2268 1.0850694444444445e-05
2270 2268 2.7126736111111112e-06
2272 2268 2.7126736111111112e-06
2269 2269 1.0850694444444445e-05
2270 2269 2.7126736111111112e-06
2363 2269 2.7126736111111112e-06
2270 2270 1.0850694444444445e-05
2272 2270 2.7126736111111112e-06
2363 2270 2.7126736111111112e-06
2271 2271 1.0850694444444445e-05
2273 2271 2.7126736111111112e-06
2275 2271 2.7126736111111112e-06
2272 2272 1.0850694444444445e-05
2273 2272 2.7126736111111112e-06
2366 2272 2.7126736111111112e-06
2273 2273 1.0850694444444445e-05
2275 2273 2.7126736111111112e-06
2366 2273 2.7126736111111112e-06
2274 2274 1.0850694444444445e-05
2276 2274 2.7126736111111112e-06
2278 2274 2.7126736111111112e-06
2275 2275 1.0850694444444445e-05
2276 2275 2.7126736111111112e-06
2369 2275 2.7126736111111112e-06
2276 2276 1.0850694444444445e-05
2278 2276 2.7126736111111112e-06
2369 2276 2.7126736111111112e-06
2277 2277 1.0850694444444445e-05
2279 2277 2.7126736111111112e-06
2281 2277 2.7126736111111112e-06
2278 2278 1.0850694444444445e-05
2279 2278 2.7126736111111112e-06
2372 2278 2.7126736111111112e-06
2279 2279 1.0850694444444445e-05
2281 2279 2.7126736111111112e-06
2372 2279 2.7126736111111112e-06
2280 2280 1.0850694444444445e-05
2282 2280 2.7126736111111112e-06
2284 2280 2.7126736111111112e-06
2281 2281 1.0850694444444445e-05
2282 2281 2.7126736111111112e-06
2375 2281 2.7126736111111112e-06
2282 2282 1.0850694444444445e-05
2284 2282 2.7126736111111112e-06
2375 2282 2.7126736111111112e-06
2283 2283 1.0850694444444445e-05
2285 2283 2.7126736111111112e-06
2287 2283 2.7126736111111112e-06
2284 2284 1.0850694444444445e-05
2285 2284 2.7126736111111112e-06
2378 2284 2.7126736111111112e-06
2285 2285 1.0850694444444445e-05
2287 2285 2.7126736111111112e-06
2378 2285 2.7126736111111112e-06
2286 2286 1.0850694444444445e-05
2288 2286 2.7126736111111112e-06
2290 2286 2.7126736111111112e-06
2287 2287 1.0850694444444445e-05
2288 2287 2.7126736111111112e-06
2381 2287 2.7126736111111112e-06
2288 2288 1.0850694444444445e-05
2290 2288 2.7126736111111112e-06
2381 2288 2.7126736111111112e-06
2289 2289 1.0850694444444445e-05
2291 2289 2.7126736111111112e-06
2293 2289 2.7126736111111112e-06
2290 2290 1.0850694444444445e-05
2291 2290 2.7126736111111112e-06
2384 2290 2.7126736111111112e-06
2291 2291 1.0850694444444445e-05
2293 2291 2.7126736111111112e-06
2384 2291 2.7126736111111112e-06
2292 2292 1.0850694444444445e-05
2294 2292 2.7126736111111112e-06
2296 2292 2.7126736111111112e-06
2293 2293 1.0850694444444445e-05
2294 2293 2.7126736111111112e-06
2387 2293 2.7126736111111112e-06
2294 2294 1.0850694444444445e-05
2296 2294 2.7126736111111112e-06
2387 2294 2.7126736111111112e-06
2295 2295 1.0850694444444445e-05
2297 2295 2.7126736111111112e-06
2299 2295 2.7126736111111112e-06
2296 2296 1.0850694444444445e-05
2297 2296 2.7126736111111112e-06
2390 2296 2.7126736111111112e-06
2297 2297 1.0850694444444445e-05
2299 2297 2.7126736111111112e-06
2390 2297 2.7126736111111112e-06
2298 2298 1.0850694444444445e-05
2300 2298 2.7126736111111112e-06
2302 2298 2.7126736111111112e-06
2299 2299 1.0850694444444445e-05
2300 2299 2.7126736111111112e-06
2393 2299 2.7126736111111112e-06
2300 2300 1.0850694444444445e-05
2302 2300 2.7126736111111112e-06
2393 2300 2.7126736111111112e-06
2301 2301 1.0850694444444445e-05
2303 2301 2.7126736111111112e-06
2305 2301 2.7126736111111112e-06
2302 2302 1.0850694444444445e-05
2303 2302 2.7126736111111112e-06
2396 2302 2.7126736111111112e-06
2303 2303 1.0850694444444445e-05
2305 2303 2.7126736111111112e-06
2396 2303 2.7126736111111112e-06
2304 2304 1.0850694444444445e-05
2306 2304 2.7126736111111112e-06
2308 2304 2.7126736111111112e-06
2305 2305 1.0850694444444445e-05
2306 2305 2.7126736111111112e-06
2399 2305 2.7126736111111112e-06
2306 2306 1.0850694444444445e-05
2308 2306 2.7126736111111112e-06
2399 2306 2.7126736111111112e-06
2307 2307 1.0850694444444445e-05
2309 2307 2.7126736111111112e-06
2311 2307 2.7126736111111112e-06
2308 2308 1.0850694444444445e-05
2309 2308 2.7126736111111112e-06
2402 2308 2.7126736111111112e-06
2309 2309 1.0850694444444445e-05
2311 2309 2.7126736111111112e-06
2402 2309 2.7126736111111112e-06
2310 2310 1.0850694444444445e-05
2312 2310 2.7126736111111112e-06
2314 2310 2.7126736111111112e-06
2311 2311 1.0850694444444445e-05
2312 2311 2.7126736111111112e-06
2405 2311 2.7126736111111112e-06
2312 2312 1.0850694444444445e-05
2314 2312 2.7126736111111112e-06
2405 2312 2.7126736111111112e-06
2313 2313 1.0850694444444445e-05
2315 2313 2.7126736111111112e-06
2317 2313 2.7126736111111112e-06
2314 2314 1.0850694444444445e-05
2315 2314 2.7126736111111112e-06
2408 2314 2.7126736111111112e-06
2315 2315 1.0850694444444445e-05
2317 2315 2.7126736111111112e-06
2408 2315 2.7126736111111112e-06
2316 2316 1.0850694444444445e-05
2318 2316 2.7126736111111112e-06
2320 2316 2.7126736111111112e-06
2317 2317 1.0850694444444445e-05
2318 2317 2.7126736111111112e-06
2411 2317 2.7126736111111112e-06
2318 2318 1.0850694444444445e-05
2320 2318 2.7126736111111112e-06
2411 2318 2.7126736111111112e-06
2319 2319 1.0850694444444445e-05
2321 2319 2.7126736111111112e-06
2323 2319 2.7126736111111112e-06
2320 2320 1.0850694444444445e-05
2321 2320 2.7126736111111112e-06
2414 2320 2.7126736111111112e-06
2321 2321 1.0850694444444445e-05
2323 2321 2.7126736111111112e-06
2414 2321 2.7126736111111112e-06
2322 2322 1.0850694444444445e-05
2324 2322 2.7126736111111112e-06
2326 2322 2.7126736111111112e-06
2323 2323 1.0850694444444445e-05
2324 2323 2.7126736111111112e-06
2417 2323 2.7126736111111112e-06
2324 2324 1.0850694444444445e-05
2326 2324 2.7126736111111112e-06
2417 2324 2.7126736111111112e-06
2325 2325 1.0850694444444445e-05
2327 2325 2.7126736111111112e-06
2329 2325 2.7126736111111112e-06
2326 2326 1.0850694444444445e-05
2327 2326 2.7126736111111112e-06
2420 2326 2.7126736111111112e-06
2327 2327 1.0850694444444445e-05
2329 2327 2.7126736111111112e-06
2420 2327 2.7126736111111112e-06
2328 2328 1.0850694444444445e-05
2330 2328 2.7126736111111112e-06
2332 2328 2.7126736111111112e-06
2329 2329 1.0850694444444445e-05
2330 2329 2.7126736111111112e-06
2423 2329 2.7126736111111112e-06
2330 2330 1.0850694444444445e-05
2332 2330 2.7126736111111112e-06
2423 2330 2.7126736111111112e-06
2331 2331 1.0850694444444445e-05
2333 2331 2.7126736111111112e-06
2335 2331 2.7126736111111112e-06
2332 2332 1.0850694444444445e-05
2333 2332 2.7126736111111112e-06
2426 2332 2.7126736111111112e-06
2333 2333 1.0850694444444445e-05
2335 2333 2.7126736111111112e-06
2426 2333 2.7126736111111112e-06
2334 2334 1.0850694444444445e-05
2336 2334 2.7126736111111112e-06
2338 2334 2.7126736111111112e-06
2335 2335 1.0850694444444445e-05
2336 2335 2.7126736111111112e-06
2429 2335 2.7126736111111112e-06
2336 2336 1.0850694444444445e-05
2338 2336 2.7126736111111112e-06
2429 2336 2.7126736111111112e-06
2337 2337 1.0850694444444445e-05
2339 2337 2.7126736111111112e-06
2341 2337 2.7126736111111112e-06
2338 2338 1.0850694444444445e-05
2339 2338 2.7126736111111112e-06
2432 2338 2.7126736111111112e-06
2339 2339 1.0850694444444445e-05
2341 2339 2.7126736111111112e-06
2432 2339 2.7126736111111112e-06
2340 2340 1.0850694444444445e-05
2342 2340 2.7126736111111112e-06
2344 2340 2.7126736111111112e-06
2341 2341 1.0850694444444445e-05
2342 2341 2.7126736111111112e-06
2435 2341 2.7126736111111112e-06
2342 2342 1.0850694444444445e-05
2344 2342 2.7126736111111112e-06
2435 2342 2.7126736111111112e-06
2343 2343 1.0850694444444445e-05
2345 2343 2.7126736111111112e-06
2347 2343 2.7126736111111112e-06
2344 2344 1.0850694444444445e-05
2345 2344 2.7126736111111112e-06
2438 2344 2.7126736111111112e-06
2345 2345 1.0850694444444445e-05
2347 2345 2.7126736111111112e-06
2438 2345 2.7126736111111112e-06
2346 2346 1.0850694444444445e-05
2348 2346 2.7126736111111112e-06
2350 2346 2.7126736111111112e-06
2347 2347 1.0850694444444445e-05
2348 2347 2.7126736111111112e-06
2441 2347 2.7126736111111112e-06
2348 2348 1.0850694444444445e-05
2350 2348 2.7126736111111112e-06
2441 2348 2.7126736111111112e-06
2349 2349 1.0850694444444445e-05
2351 2349 2.7126736111111112e-06
2353 2349 2.7126736111111112e-06
2350 2350 1.0850694444444445e-05
2351 2350 2.7126736111111112e-06
2444 2350 2.7126736111111112e-06
2351 2351 1.0850694444444445e-05
2353 2351 2.7126736111111112e-06
2444 2351 2.7126736111111112e-06
2352 2352 1.0850694444444445e-05
2354 2352 2.7126736111111112e-06
2353 2353 1.0850694444444445e-05
2354 2353 2.7126736111111112e-06
2447 2353 2.7126736111111112e-06
2354 2354 1.0850694444444445e-05
2447 2354 2.7126736111111112e-06
2355 2355 1.0850694444444445e-05
2356 2355 2.7126736111111112e-06
2358 2355 2.7126736111111112e-06
2356 2356 1.0850694444444445e-05
2358 2356 2.7126736111111112e-06
2450 2356 2.7126736111111112e-06
2357 2357 1.0850694444444445e-05
2359 2357 2.7126736111111112e-06
2361 2357 2.7126736111111112e-06
2358 2358 1.0850694444444445e-05
2359 2358 2.7126736111111112e-06
2452 2358 2.7126736111111112e-06
2359 2359 1.0850694444444445e-05
2361 2359 2.7126736111111112e-06
2452 2359 2.7126736111111112e-06
2360 2360 1.0850694444444445e-05
2362 2360 2.7126736111111112e-06
2364 2360 2.7126736111111112e-06
2361 2361 1.0850694444444445e-05
2362 2361 2.7126736111111112e-06
2455 2361 2.7126736111111112e-06
2362 2362 1.0850694444444445e-05
2364 2362 2.7126736111111112e-06
2455 2362 2.7126736111111112e-06
2363 2363 1.0850694444444445e-05
2365 2363 2.7126736111111112e-06
2367 2363 2.7126736111111112e-06
2364 2364 1.0850694444444445e-05
2365 2364 2.7126736111111112e-06
2458 2364 2.7126736111111112e-06
2365 2365 1.0850694444444445e-05
2367 2365 2.7126736111111112e-06
2458 2365 2.7126736111111112e-06
2366 2366 1.0850694444444445e-05
2368 2366 2.7126736111111112e-06
2370 2366 2.7126736111111112e-06
2367 2367 1.0850694444444445e-05
2368 2367 2.7126736111111112e-06
2461 2367 2.7126736111111112e-06
2368 2368 1.0850694444444445e-05
2370 2368 2.7126736111111112e-06
2461 2368 2.7126736111111112e-06
2369 2369 1.0850694444444445e-05
2371 2369 2.7126736111111112e-06
2373 2369 2.7126736111111112e-06
2370 2370 1.0850694444444445e-05
2371 2370 2.7126736111111112e-06
2464 2370 2.7126736111111112e-06
2371 2371 1.0850694444444445e-05
2373 2371 2.7126736111111112e-06
2464 2371 2.7126736111111112e-06
2372 2372 1.0850694444444445e-05
2374 2372 2.7126736111111112e-06
2376 2372 2.7126736111111112e-06
2373 2373 1.0850694444444445e-05
2374 2373 2.7126736111111112e-06
2467 2373 2.7126736111111112e-06
2374 2374 1.0850694444444445e-05
2376 2374 2.7126736111111112e-06
2467 2374 2.7126736111111112e-06
2375 2375 1.0850694444444445e-05
2377 2375 2.7126736111111112e-06
2379 2375 2.7126736111111112e-06
2376 2376 1.0850694444444445e-05
2377 2376 2.7126736111111112e-06
2470 2376 2.7126736111111112e-06
2377 2377 1.0850694444444445e-05
2379 2377 2.7126736111111112e-06
2470 2377 2.7126736111111112e-06
2378 2378 1.0850694444444445e-05
2380 2378 2.7126736111111112e-06
2382 2378 2.7126736111111112e-06
2379 2379 1.0850694444444445e-05
2380 2379 2.7126736111111112e-06
2473 2379 2.7126736111111112e-06
2380 2380 1.0850694444444445e-05
2382 2380 2.7126736111111112e-06
2473 2380 2.7126736111111112e-06
2381 2381 1.0850694444444445e-05
2383 2381 2.7126736111111112e-06
2385 2381 2.7126736111111112e-06
2382 2382 1.0850694444444445e-05
2383 2382 2.7126736111111112e-06
2476 2382 2.7126736111111112e-06
2383 2383 1.0850694444444445e-05
2385 2383 2.7126736111111112e-06
2476 2383 2.7126736111111112e-06
2384 2384 1.0850694444444445e-05
2386 2384 2.7126736111111112e-06
2388 2384 2.7126736111111112e-06
2385 2385 1.0850694444444445e-05
2386 2385 2.7126736111111112e-06
2479 2385 2.7126736111111112e-06
2386 2386 1.0850694444444445e-05
2388 2386 2.7126736111111112e-06
2479 2386 2.7126736111111112e-06
2387 2387 1.0850694444444445e-05
2389 2387 2.7126736111111112e-06
2391 2387 2.7126736111111112e-06
2388 2388 1.0850694444444445e-05
2389 2388 2.7126736111111112e-06
2482 2388 2.7126736111111112e-06
2389 2389 1.0850694444444445e-05
2391 2389 2.7126736111111112e-06
2482 2389 2.7126736111111112e-06
2390 2390 1.0850694444444445e-05
2392 2390 2.7126736111111112e-06
2394 2390 2.7126736111111112e-06
2391 2391 1.0850694444444445e-05
2392 2391 2.7126736111111112e-06
2485 2391 2.7126736111111112e-06
2392 2392 1.0850694444444445e-05
2394 2392 2.7126736111111112e-06
2485 2392 2.7126736111111112e-06
2393 2393 1.0850694444444445e-05
2395 2393 2.7126736111111112e-06
2397 2393 2.7126736111111112e-06
2394 2394 1.0850694444444445e-05
2395 2394 2.7126736111111112e-06
2488 2394 2.7126736111111112e-06
2395 2395 1.0850694444444445e-05
2397 2395 2.7126736111111112e-06
2488 2395 2.7126736111111112e-06
2396 2396 1.0850694444444445e-05
2398 2396 2.7126736111111112e-06
2400 2396 2.7126736111111112e-06
2397 2397 1.0850694444444445e-05
2398 2397 2.7126736111111112e-06
2491 2397 2.7126736111111112e-06
2398 2398 1.0850694444444445e-05
2400 2398 2.7126736111111112e-06
2491 2398 2.7126736111111112e-06
2399 2399 1.0850694444444445e-05
2401 2399 2.7126736111111112e-06
2403 2399 2.7126736111111112e-06
2400 2400 1.0850694444444445e-05
2401 2400 2.7126736111111112e-06
2494 2400 2.7126736111111112e-06
2401 2401 1.0850694444444445e-05
2403 2401 2.7126736111111112e-06
2494 2401 2.7126736111111112e-06
2402 2402 1.0850694444444445e-05
2404 2402 2.7126736111111112e-06
2406 2402 2.7126736111111112e-06
2403 2403 1.0850694444444445e-05
2404 2403 2.7126736111111112e-06
2497 2403 2.7126736111111112e-06
2404 2404 1.0850694444444445e-05
2406 2404 2.7126736111111112e-06
2497 2404 2.7126736111111112e-06
2405 2405 1.0850694444444445e-05
2407 2405 2.7126736111111112e-06
2409 2405 2.7126736111111112e-06
2406 2406 1.0850694444444445e-05
2407 2406 2.7126736111111112e-06
2500 2406 2.7126736111111112e-06
2407 2407 1.0850694444444445e-05
2409 2407 2.7126736111111112e-06
2500 2407 2.7126736111111112e-06
2408 2408 1.0850694444444445e-05
2410 2408 2.7126736111111112e-06
2412 2408 2.7126736111111112e-06
2409 2409 1.0850694444444445e-05
2410 2409 2.7126736111111112e-06
2503 2409 2.7126736111111112e-06
2410 2410 1.0850694444444445e-05
2412 2410 2.7126736111111112e-06
2503 2410 2.7126736111111112e-06
2411 2411 1.0850694444444445e-05
2413 2411 2.7126736111111112e-06
2415 2411 2.7126736111111112e-06
2412 2412 1.0850694444444445e-05
2413 2412 2.7126736111111112e-06
2506 2412 2.7126736111111112e-06
2413 2413 1.0850694444444445e-05
2415 2413 2.7126736111111112e-06
2506 2413 2.7126736111111112e-06
2414 2414 1.0850694444444445e-05
2416 2414 2.7126736111111112e-06
2418 2414 2.7126736111111112e-06
2415 2415 1.0850694444444445e-05
2416 2415 2.7126736111111112e-06
2509 2415 2.7126736111111112e-06
2416 2416 1.0850694444444445e-05
2418 2416 2.7126736111111112e-06
2509 2416 2.7126736111111112e-06
2417 2417 1.0850694444444445e-05
2419 2417 2.7126736111111112e-06
2421 2417 2.7126736111111112e-06
2418 2418 1.0850694444444445e-05
2419 2418 2.7126736111111112e-06
2512 2418 2.7126736111111112e-06
2419 2419 1.0850694444444445e-05
2421 2419 2.7126736111111112e-06
2512 2419 2.7126736111111112e-06
2420 2420 1.0850694444444445e-05
2422 2420 2.7126736111111112e-06
2424 2420 2.7126736111111112e-06
2421 2421 1.0850694444444445e-05
2422 2421 2.7126736111111112e-06
2515 2421 2.7126736111111112e-06
2422 2422 1.0850694444444445e-05
2424 2422 2.7126736111111112e-06
2515 2422 2.7126736111111112e-06
2423 2423 1.0850694444444445e-05
2425 2423 2.7126736111111112e-06
2427 2423 2.7126736111111112e-06
2424 2424 1.0850694444444445e-05
2425 2424 2.7126736111111112e-06
2518 2424 2.7126736111111112e-06
2425 2425 1.0850694444444445e-05
2427 2425 2.7126736111111112e-06
2518 2425 2.7126736111111112e-06
2426 2426 1.0850694444444445e-05
2428 2426 2.7126736111111112e-06
2430 2426 2.7126736111111112e-06
2427 2427 1.0850694444444445e-05
2428 2427 2.7126736111111112e-06
2521 2427 2.7126736111111112e-06
2428 2428 1.0850694444444445e-05
2430 2428 2.7126736111111112e-06
2521 2428 2.7126736111111112e-06
2429 2429 1.0850694444444445e-05
2431 2429 2.7126736111111112e-06
2433 2429 2.7126736111111112e-06
2430 2430 1.0850694444444445e-05
2431 2430 2.7126736111111112e-06
2524 2430 2.7126736111111112e-06
2431 2431 1.0850694444444445e-05
2433 2431 2.7126736111111112e-06
2524 2431 2.7126736111111112e-06
2432 2432 1.0850694444444445e-05
2434 2432 2.7126736111111112e-06
2436 2432 2.7126736111111112e-06
2433 2433 1.0850694444444445e-05
2434 2433 2.7126736111111112e-06
2527 2433 2.7126736111111112e-06
2434 2434 1.0850694444444445e-05
2436 2434 2.7126736111111112e-06
2527 2434 2.7126736111111112e-06
2435 2435 1.0850694444444445e-05
2437 2435 2.7126736111111112e-06
2439 2435 2.7126736111111112e-06
2436 2436 1.0850694444444445e-05
2437 2436 2.7126736111111112e-06
2530 2436 2.7126736111111112e-06
2437 2437 1.0850694444444445e-05
2439 2437 2.7126736111111112e-06
2530 2437 2.7126736111111112e-06
2438 2438 1.0850694444444445e-05
2440 2438 2.7126736111111112e-06
2442 2438 2.7126736111111112e-06
2439 2439 1.0850694444444445e-05
2440 2439 2.7126736111111112e-06
2533 2439 2.7126736111111112e-06
2440 2440 1.0850694444444445e-05
2442 2440 2.7126736111111112e-06
2533 2440 2.7126736111111112e-06
2441 2441 1.0850694444444445e-05
2443 2441 2.7126736111111112e-06
2445 2441 2.7126736111111112e-06
2442 2442 1.0850694444444445e-05
2443 2442 2.7126736111111112e-06
2536 2442 2.7126736111111112e-06
2443 2443 1.0850694444444445e-05
2445 2443 2.7126736111111112e-06
2536 2443 2.7126736111111112e-06
2444 2444 1.0850694444444445e-05
2446 2444 2.7126736111111112e-06
2448 2444 2.7126736111111112e-06
2445 2445 1.0850694444444445e-05
2446 2445 2.7126736111111112e-06
2539 2445 2.7126736111111112e-06
2446 2446 1.0850694444444445e-05
2448 2446 2.7126736111111112e-06
2539 2446 2.7126736111111112e-06
2447 2447 1.0850694444444445e-05
2449 2447 2.7126736111111112e-06
2448 2448 1.0850694444444445e-05
2449 2448 2.7126736111111112e-06
2542 2448 2.7126736111111112e-06
2449 2449 1.0850694444444445e-05
2542 2449 2.7126736111111112e-06
2450 2450 1.0850694444444445e-05
2451 2450 2.7126736111111112e-06
2453 2450 2.7126736111111112e-06
2451 2451 1.0850694444444445e-05
2453 2451 2.7126736111111112e-06
2545 2451 2.7126736111111112e-06
2452 2452 1.0850694444444445e-05
2454 2452 2.7126736111111112e-06
2456 2452 2.7126736111111112e-06
2453 2453 1.0850694444444445e-05
2454 2453 2.7126736111111112e-06
2547 2453 2.7126736111111112e-06
2454 2454 1.0850694444444445e-05
2456 2454 2.7126736111111112e-06
2547 2454 2.7126736111111112e-06
2455 2455 1.0850694444444445e-05
2457 2455 2.7126736111111112e-06
2459 2455 2.7126736111111112e-06
2456 2456 1.0850694444444445e-05
2457 2456 2.7126736111111112e-06
2550 2456 2.7126736111111112e-06
2457 2457 1.0850694444444445e-05
2459 2457 2.7126736111111112e-06
2550 2457 2.7126736111111112e-06
2458 2458 1.0850694444444445e-05
2460 2458 2.7126736111111112e-06
2462 2458 2.7126736111111112e-06
2459 2459 1.0850694444444445e-05
2460 2459 2.7126736111111112e-06
2553 2459 2.7126736111111112e-06
2460 2460 1.0850694444444445e-05
2462 2460 2.7126736111111112e-06
2553 2460 2.7126736111111112e-06
2461 2461 1.0850694444444445e-05
2463 2461 2.7126736111111112e-06
2465 2461 2.7126736111111112e-06
2462 2462 1.0850694444444445e-05
2463 2462 2.7126736111111112e-06
2556 2462 2.7126736111111112e-06
2463 2463 1.0850694444444445e-05
2465 2463 2.7126736111111112e-06
2556 2463 2.7126736111111112e-06
2464 2464 1.0850694444444445e-05
2466 2464 2.7126736111111112e-06
2468 2464 2.7126736111111112e-06
2465 2465 1.0850694444444445e-05
2466 2465 2.7126736111111112e-06
2559 2465 2.7126736111111112e-06
2466 2466 1.0850694444444445e-05
2468 2466 2.7126736111111112e-06
2559 2466 2.7126736111111112e-06
2467 2467 1.0850694444444445e-05
2469 2467 2.7126736111111112e-06
2471 2467 2.7126736111111112e-06
2468 2468 1.0850694444444445e-05
2469 2468 2.7126736111111112e-06
2562 2468 2.7126736111111112e-06
2469 2469 1.0850694444444445e-05
2471 2469 2.7126736111111112e-06
2562 2469 2.7126736111111112e-06
2470 2470 1.0850694444444445e-05
2472 2470 2.7126736111111112e-06
2474 2470 2.7126736111111112e-06
2471 2471 1.0850694444444445e-05
2472 2471 2.7126736111111112e-06
2565 2471 2.7126736111111112e-06
2472 2472 1.0850694444444445e-05
2474 2472 2.7126736111111112e-06
2565 2472 2.7126736111111112e-06
2473 2473 1.0850694444444445e-05
2475 2473 2.7126736111111112e-06
2477 2473 2.7126736111111112e-06
2474 2474 1.0850694444444445e-05
2475 2474 2.7126736111111112e-06
2568 2474 2.7126736111111112e-06
2475 2475 1.0850694444444445e-05
2477 2475 2.7126736111111112e-06
2568 2475 2.7126736111111112e-06
2476 2476 1.0850694444444445e-05
2478 2476 2.7126736111111112e-06
2480 2476 2.7126736111111112e-06
2477 2477 1.0850694444444445e-05
2478 2477 2.7126736111111112e-06
2571 2477 2.7126736111111112e-06
2478 2478 1.0850694444444445e-05
2480 2478 2.7126736111111112e-06
2571 2478 2.7126736111111112e-06
2479 2479 1.0850694444444445e-05
2481 2479 2.7126736111111112e-06
2483 2479 2.7126736111111112e-06
2480 2480 1.0850694444444445e-05
2481 2480 2.7126736111111112e-06
2574 2480 2.7126736111111112e-06
2481 2481 1.0850694444444445e-05
2483 2481 2.7126736111111112e-06
2574 2481 2.7126736111111112e-06
2482 2482 1.0850694444444445e-05
2484 2482 2.7126736111111112e-06
2486 2482 2.7126736111111112e-06
2483 2483 1.0850694444444445e-05
2484 2483 2.7126736111111112e-06
2577 2483 2.7126736111111112e-06
2484 2484 1.0850694444444445e-05
2486 2484 2.7126736111111112e-06
2577 2484 2.7126736111111112e-06
2485 2485 1.0850694444444445e-05
2487 2485 2.7126736111111112e-06
2489 2485 2.7126736111111112e-06
2486 2486 1.0850694444444445e-05
2487 2486 2.7126736111111112e-06
2580 2486 2.7126736111111112e-06
2487 2487 1.0850694444444445e-05
2489 2487 2.7126736111111112e-06
2580 2487 2.7126736111111112e-06
2488 2488 1.0850694444444445e-05
2490 2488 2.7126736111111112e-06
2492 2488 2.7126736111111112e-06
2489 2489 1.0850694444444445e-05
2490 2489 2.7126736111111112e-06
2583 2489 2.7126736111111112e-06
2490 2490 1.0850694444444445e-05
2492 2490 2.7126736111111112e-06
2583 2490 2.7126736111111112e-06
2491 2491 1.0850694444444445e-05
2493 2491 2.7126736111111112e-06
2495 2491 2.7126736111111112e-06
2492 2492 1.0850694444444445e-05
2493 2492 2.7126736111111112e-06
2586 2492 2.7126736111111112e-06
2493 2493 1.0850694444444445e-05
2495 2493 2.7126736111111112e-06
2586 2493 2.7126736111111112e-06
2494 2494 1.0850694444444445e-05
2496 2494 2.7126736111111112e-06
2498 2494 2.7126736111111112e-06
2495 2495 1.0850694444444445e-05
2496 2495 2.7126736111111112e-06
2589 2495 2.7126736111111112e-06
2496 2496 1.0850694444444445e-05
2498 2496 2.7126736111111112e-06
2589 2496 2.7126736111111112e-06
2497 2497 1.0850694444444445e-05
2499 2497 2.7126736111111112e-06
2501 2497 2.7126736111111112e-06
2498 2498 1.0850694444444445e-05
2499 2498 2.7126736111111112e-06
2592 2498 2.7126736111111112e-06
2499 2499 1.0850694444444445e-05
2501 2499 2.7126736111111112e-06
2592 2499 2.7126736111111112e-06
2500 2500 1.0850694444444445e-05
2502 2500 2.7126736111111112e-06
2504 2500 2.7126736111111112e-06
2501 2501 1.0850694444444445e-05
2502 2501 2.7126736111111112e-06
2595 2501 2.7126736111111112e-06
2502 2502 1.0850694444444445e-05
2504 2502 2.7126736111111112e-06
2595 2502 2.7126736111111112e-06
2503 2503 1.0850694444444445e-05
2505 2503 2.7126736111111112e-06
2507 2503 2.7126736111111112e-06
2504 2504 1.0850694444444445e-05
2505 2504 2.7126736111111112e-06
2598 2504 2.7126736111111112e-06
2505 2505 1.0850694444444445e-05
2507 2505 2.7126736111111112e-06
2598 2505 2.7126736111111112e-06
2506 2506 1.0850694444444445e-05
2508 2506 2.7126736111111112e-06
2510 2506 2.7126736111111112e-06
2507 2507 1.0850694444444445e-05
2508 2507 2.7126736111111112e-06
2601 2507 2.7126736111111112e-06
2508 2508 1.0850694444444445e-05
2510 2508 2.7126736111111112e-06
2601 2508 2.7126736111111112e-06
2509 2509 1.0850694444444445e-05
2511 2509 2.7126736111111112e-06
2513 2509 2.7126736111111112e-06
2510 2510 1.0850694444444445e-05
2511 2510 2.7126736111111112e-06
2604 2510 2.7126736111111112e-06
2511 2511 1.0850694444444445e-05
2513 2511 2.7126736111111112e-06
2604 2511 2.7126736111111112e-06
2512 2512 1.0850694444444445e-05
2514 2512 2.7126736111111112e-06
2516 2512 2.7126736111111112e-06
2513 2513 1.0850694444444445e-05
2514 2513 2.7126736111111112e-06
2607 2513 2.7126736111111112e-06
2514 2514 1.0850694444444445e-05
2516 2514 2.7126736111111112e-06
2607 2514 2.7126736111111112e-06
2515 2515 1.0850694444444445e-05
2517 2515 2.7126736111111112e-06
2519 2515 2.7126736111111112e-06
2516 2516 1.0850694444444445e-05
2517 2516 2.7126736111111112e-06
2610 2516 2.7126736111111112e-06
2517 2517 1.0850694444444445e-05
2519 2517 2.7126736111111112e-06
2610 2517 2.7126736111111112e-06
2518 2518 1.0850694444444445e-05
2520 2518 2.7126736111111112e-06
2522 2518 2.7126736111111112e-06
2519 2519 1.0850694444444445e-05
2520 2519 2.7126736111111112e-06
2613 2519 2.7126736111111112e-06
2520 2520 1.0850694444444445e-05
2522 2520 2.7126736111111112e-06
2613 2520 2.7126736111111112e-06
2521 2521 1.0850694444444445e-05
2523 2521 2.7126736111111112e-06
2525 2521 2.7126736111111112e-06
2522 2522 1.0850694444444445e-05
2523 2522 2.7126736111111112e-06
2616 2522 2.7126736111111112e-06
2523 2523 1.0850694444444445e-05
2525 2523 2.7126736111111112e-06
2616 2523 2.7126736111111112e-06
2524 2524 1.0850694444444445e-05
2526 2524 2.7126736111111112e-06
2528 2524 2.7126736111111112e-06
2525 2525 1.0850694444444445e-05
2526 2525 2.7126736111111112e-06
2619 2525 2.7126736111111112e-06
2526 2526 1.0850694444444445e-05
2528 2526 2.7126736111111112e-06
2619 2526 2.7126736111111112e-06
2527 2527 1.0850694444444445e-05
2529 2527 2.7126736111111112e-06
2531 2527 2.7126736111111112e-06
2528 2528 1.0850694444444445e-05
2529 2528 2.7126736111111112e-06
2622 2528 2.7126736111111112e-06
2529 2529 1.0850694444444445e-05
2531 2529 2.7126736111111112e-06
2622 2529 2.7126736111111112e-06
2530 2530 1.0850694444444445e-05
2532 2530 2.7126736111111112e-06
2534 2530 2.7126736111111112e-06
2531 2531 1.0850694444444445e-05
2532 2531 2.7126736111111112e-06
2625 2531 2.7126736111111112e-06
2532 2532 1.0850694444444445e-05
2534 2532 2.7126736111111112e-06
2625 2532 2.7126736111111112e-06
2533 2533 1.0850694444444445e-05
2535 2533 2.7126736111111112e-06
2537 2533 2.7126736111111112e-06
2534 2534 1.0850694444444445e-05
2535 2534 2.7126736111111112e-06
2628 2534 2.7126736111111112e-06
2535 2535 1.0850694444444445e-05
2537 2535 2.7126736111111112e-06
2628 2535 2.7126736111111112e-06
2536 2536 1.0850694444444445e-05
2538 2536 2.7126736111111112e-06
2540 2536 2.7126736111111112e-06
2537 2537 1.0850694444444445e-05
2538 2537 2.7126736111111112e-06
2631 2537 2.7126736111111112e-06
2538 2538 1.0850694444444445e-05
2540 2538 2.7126736111111112e-06
2631 2538 2.7126736111111112e-06
2539 2539 1.0850694444444445e-05
2541 2539 2.7126736111111112e-06
2543 2539 2.7126736111111112e-06
2540 2540 1.0850694444444445e-05
2541 2540 2.7126736111111112e-06
2634 2540 2.7126736111111112e-06
2541 2541 1.0850694444444445e-05
2543 2541 2.7126736111111112e-06
2634 2541 2.7126736111111112e-06
2542 2542 1.0850694444444445e-05
2544 2542 2.7126736111111112e-06
2543 2543 1.0850694444444445e-05
2544 2543 2.7126736111111112e-06
2637 2543 2.7126736111111112e-06
2544 2544 1.0850694444444445e-05
2637 2544 2.7126736111111112e-06
2545 2545 1.0850694444444445e-05
2546 2545 2.7126736111111112e-06
2548 2545 2.7126736111111112e-06
2546 2546 1.0850694444444445e-05
2548 2546 2.7126736111111112e-06
2640 2546 2.7126736111111112e-06
2547 2547 1.0850694444444445e-05
2549 2547 2.7126736111111112e-06
2551 2547 2.7126736111111112e-06
2548 2548 1.0850694444444445e-05
2549 2548 2.7126736111111112e-06
2642 2548 2.7126736111111112e-06
2549 2549 1.0850694444444445e-05
2551 2549 2.7126736111111112e-06
2642 2549 2.7126736111111112e-06
2550 2550 1.0850694444444445e-05
2552 2550 2.7126736111111112e-06
2554 2550 2.7126736111111112e-06
2551 2551 1.0850694444444445e-05
2552 2551 2.7126736111111112e-06
2645 2551 2.7126736111111112e-06
2552 2552 1.0850694444444445e-05
2554 2552 2.7126736111111112e-06
2645 2552 2.7126736111111112e-06
2553 2553 1.0850694444444445e-05
2555 2553 2.7126736111111112e-06
2557 2553 2.7126736111111112e-06
2554 2554 1.0850694444444445e-05
2555 2554 2.7126736111111112e-06
2648 2554 2.7126736111111112e-06
2555 2555 1.0850694444444445e-05
2557 2555 2.7126736111111112e-06
2648 2555 2.7126736111111112e-06
2556 2556 1.0850694444444445e-05
2558 2556 2.7126736111111112e-06
2560 2556 2.7126736111111112e-06
2557 2557 1.0850694444444445e-05
2558 2557 2.7126736111111112e-06
2651 2557 2.7126736111111112e-06
2558 2558 1.0850694444444445e-05
2560 2558 2.7126736111111112e-06
2651 2558 2.7126736111111112e-06
2559 2559 1.0850694444444445e-05
2561 2559 2.7126736111111112e-06
2563 2559 2.7126736111111112e-06
2560 2560 1.0850694444444445e-05
2561 2560 2.7126736111111112e-06
2654 2560 2.7126736111111112e-06
2561 2561 1.0850694444444445e-05
2563 2561 2.7126736111111112e-06
2654 2561 2.7126736111111112e-06
2562 2562 1.0850694444444445e-05
2564 2562 2.7126736111111112e-06
2566 2562 2.7126736111111112e-06
2563 2563 1.0850694444444445e-05
2564 2563 2.7126736111111112e-06
2657 2563 2.7126736111111112e-06
2564 2564 1.0850694444444445e-05
2566 2564 2.7126736111111112e-06
2657 2564 2.7126736111111112e-06
2565 2565 1.0850694444444445e-05
2567 2565 2.7126736111111112e-06
2569 2565 2.7126736111111112e-06
2566 2566 1.0850694444444445e-05
2567 2566 2.7126736111111112e-06
2660 2566 2.7126736111111112e-06
2567 2567 1.0850694444444445e-05
2569 2567 2.7126736111111112e-06
2660 2567 2.7126736111111112e-06
2568 2568 1.0850694444444445e-05
2570 2568 2.7126736111111112e-06
2572 2568 2.7126736111111112e-06
2569 2569 1.0850694444444445e-05
2570 2569 2.7126736111111112e-06
2663 2569 2.7126736111111112e-06
2570 2570 1.0850694444444445e-05
2572 2570 2.7126736111111112e-06
2663 2570 2.7126736111111112e-06
2571 2571 1.0850694444444445e-05
2573 2571 2.7126736111111112e-06
2575 2571 2.7126736111111112e-06
2572 2572 1.0850694444444445e-05
2573 2572 2.7126736111111112e-06
2666 2572 2.7126736111111112e-06
2573 2573 1.0850694444444445e-05
2575 2573 2.7126736111111112e-06
2666 2573 2.7126736111111112e-06
2574 2574 1.0850694444444445e-05
2576 2574 2.7126736111111112e-06
2578 2574 2.7126736111111112e-06
2575 2575 1.0850694444444445e-05
2576 2575 2.7126736111111112e-06
2669 2575 2.7126736111111112e-06
2576 2576 1.0850694444444445e-05
2578 2576 2.7126736111111112e-06
2669 2576 2.7126736111111112e-06
2577 2577 1.0850694444444445e-05
2579 2577 2.7126736111111112e-06
2581 2577 2.7126736111111112e-06
2578 2578 1.0850694444444445e-05
2579 2578 2.7126736111111112e-06
2672 2578 2.7126736111111112e-06
2579 2579 1.0850694444444445e-05
2581 2579 2.7126736111111112e-06
2672 2579 2.7126736111111112e-06
2580 2580 1.0850694444444445e-05
2582 2580 2.7126736111111112e-06
2584 2580 2.7126736111111112e-06
2581 2581 1.0850694444444445e-05
2582 2581 2.7126736111111112e-06
2675 2581 2.7126736111111112e-06
2582 2582 1.0850694444444445e-05
2584 2582 2.7126736111111112e-06
2675 2582 2.7126736111111112e-06
2583 2583 1.0850694444444445e-05
2585 2583 2.7126736111111112e-06
2587 2583 2.7126736111111112e-06
2584 2584 1.0850694444444445e-05
2585 2584 2.7126736111111112e-06
2678 2584 2.7126736111111112e-06
2585 2585 1.0850694444444445e-05
2587 2585 2.7126736111111112e-06
2678 2585 2.7126736111111112e-06
2586 2586 1.0850694444444445e-05
2588 2586 2.7126736111111112e-06
2590 2586 2.7126736111111112e-06
2587 2587 1.0850694444444445e-05
2588 2587 2.7126736111111112e-06
2681 2587 2.7126736111111112e-06
2588 2588 1.0850694444444445e-05
2590 2588 2.7126736111111112e-06
2681 2588 2.7126736111111112e-06
2589 2589 1.0850694444444445e-05
2591 2589 2.7126736111111112e-06
2593 2589 2.7126736111111112e-06
2590 2590 1.0850694444444445e-05
2591 2590 2.7126736111111112e-06
2684 2590 2.7126736111111112e-06
2591 2591 1.0850694444444445e-05
2593 2591 2.7126736111111112e-06
2684 2591 2.7126736111111112e-06
2592 2592 1.0850694444444445e-05
2594 2592 2.7126736111111112e-06
2596 2592 2.7126736111111112e-06
2593 2593 1.0850694444444445e-05
2594 2593 2.7126736111111112e-06
2687 2593 2.7126736111111112e-06
2594 2594 1.0850694444444445e-05
2596 2594 2.7126736111111112e-06
2687 2594 2.7126736111111112e-06
2595 2595 1.0850694444444445e-05
2597 2595 2.7126736111111112e-06
2599 2595 2.7126736111111112e-06
2596 2596 1.0850694444444445e-05
2597 2596 2.7126736111111112e-06
2690 2596 2.7126736111111112e-06
2597 2597 1.0850694444444445e-05
2599 2597 2.7126736111111112e-06
2690 2597 2.7126736111111112e-06
2598 2598 1.0850694444444445e-05
2600 2598 2.7126736111111112e-06
2602 2598 2.7126736111111112e-06
2599 2599 1.0850694444444445e-05
2600 2599 2.7126736111111112e-06
2693 2599 2.7126736111111112e-06
2600 2600 1.0850694444444445e-05
2602 2600 2.7126736111111112e-06
2693 2600 2.7126736111111112e-06
2601 2601 1.0850694444444445e-05
2603 2601 2.7126736111111112e-06
2605 2601 2.7126736111111112e-06
2602 2602 1.0850694444444445e-05
2603 2602 2.7126736111111112e-06
2696 2602 2.7126736111111112e-06
2603 2603 1.0850694444444445e-05
2605 2603 2.7126736111111112e-06
2696 2603 2.7126736111111112e-06
2604 2604 1.0850694444444445e-05
2606 2604 2.7126736111111112e-06
2608 2604 2.7126736111111112e-06
2605 2605 1.0850694444444445e-05
2606 2605 2.7126736111111112e-06
2699 2605 2.7126736111111112e-06
2606 2606 1.0850694444444445e-05
2608 2606 2.7126736111111112e-06
2699 2606 2.7126736111111112e-06
2607 2607 1.0850694444444445e-05
2609 2607 2.7126736111111112e-06
2611 2607 2.7126736111111112e-06
2608 2608 1.0850694444444445e-05
2609 2608 2.7126736111111112e-06
2702 2608 2.7126736111111112e-06
2609 2609 1.0850694444444445e-05
2611 2609 2.7126736111111112e-06
2702 2609 2.7126736111111112e-06
2610 2610 1.0850694444444445e-05
2612 2610 2.7126736111111112e-06
2614 2610 2.7126736111111112e-06
2611 2611 1.0850694444444445e-05
2612 2611 2.7126736111111112e-06
2705 2611 2.7126736111111112e-06
2612 2612 1.0850694444444445e-05
2614 2612 2.7126736111111112e-06
2705 2612 2.7126736111111112e-06
2613 2613 1.0850694444444445e-05
2615 2613 2.7126736111111112e-06
2617 2613 2.7126736111111112e-06
2614 2614 1.0850694444444445e-05
2615 2614 2.7126736111111112e-06
2708 2614 2.7126736111111112e-06
2615 2615 1.0850694444444445e-05
2617 2615 2.7126736111111112e-06
2708 2615 2.7126736111111112e-06
2616 2616 1.0850694444444445e-05
2618 2616 2.7126736111111112e-06
2620 2616 2.7126736111111112e-06
2617 2617 1.0850694444444445e-05
2618 2617 2.7126736111111112e-06
2711 2617 2.7126736111111112e-06
2618 2618 1.0850694444444445e-05
2620 2618 2.7126736111111112e-06
2711 2618 2.7126736111111112e-06
2619 2619 1.0850694444444445e-05
2621 2619 2.7126736111111112e-06
2623 2619 2.7126736111111112e-06
2620 2620 1.0850694444444445e-05
2621 2620 2.7126736111111112e-06
2714 2620 2.7126736111111112e-06
2621 2621 1.0850694444444445e-05
2623 2621 2.7126736111111112e-06
2714 2621 2.7126736111111112e-06
2622 2622 1.0850694444444445e-05
2624 2622 2.7126736111111112e-06
2626 2622 2.7126736111111112e-06
2623 2623 1.0850694444444445e-05
2624 2623 2.7126736111111112e-06
2717 2623 2.7126736111111112e-06
2624 2624 1.0850694444444445e-05
2626 2624 2.7126736111111112e-06
2717 2624 2.7126736111111112e-06
2625 2625 1.0850694444444445e-05
2627 2625 2.7126736111111112e-06
2629 2625 2.7126736111111112e-06
2626 2626 1.0850694444444445e-05
2627 2626 2.7126736111111112e-06
2720 2626 2.7126736111111112e-06
2627 2627 1.0850694444444445e-05
2629 2627 2.7126736111111112e-06
2720 2627 2.7126736111111112e-06
2628 2628 1.0850694444444445e-05
2630 2628 2.7126736111111112e-06
2632 2628 2.7126736111111112e-06
2629 2629 1.0850694444444445e-05
2630 2629 2.7126736111111112e-06
2723 2629 2.7126736111111112e-06
2630 2630 1.0850694444444445e-05
2632 2630 2.7126736111111112e-06
2723 2630 2.7126736111111112e-06
2631 2631 1.0850694444444445e-05
2633 2631 2.7126736111111112e-06
2635 2631 2.7126736111111112e-06
2632 2632 1.0850694444444445e-05
2633 2632 2.7126736111111112e-06
2726 2632 2.7126736111111112e-06
2633 2633 1.0850694444444445e-05
2635 2633 2.7126736111111112e-06
2726 2633 2.7126736111111112e-06
2634 2634 1.0850694444444445e-05
2636 2634 2.7126736111111112e-06
2638 2634 2.7126736111111112e-06
2635 2635 1.0850694444444445e-05
2636 2635 2.7126736111111112e-06
2729 2635 2.7126736111111112e-06
2636 2636 1.0850694444444445e-05
2638 2636 2.7126736111111112e-06
2729 2636 2.7126736111111112e-06
2637 2637 1.0850694444444445e-05
2639 2637 2.7126736111111112e-06
2638 2638 1.0850694444444445e-05
2639 2638 2.7126736111111112e-06
2732 2638 2.7126736111111112e-06
2639 2639 1.0850694444444445e-05
2732 2639 2.7126736111111112e-06
2640 2640 1.0850694444444445e-05
2641 2640 2.7126736111111112e-06
2643 2640 2.7126736111111112e-06
2641 2641 1.0850694444444445e-05
2643 2641 2.7126736111111112e-06
2735 2641 2.7126736111111112e-06
2642 2642 1.0850694444444445e-05
2644 2642 2.7126736111111112e-06
2646 2642 2.7126736111111112e-06
2643 2643 1.0850694444444445e-05
2644 2643 2.7126736111111112e-06
2737 2643 2.7126736111111112e-06
2644 2644 1.0850694444444445e-05
2646 2644 2.7126736111111112e-06
2737 2644 2.7126736111111112e-06
2645 2645 1.0850694444444445e-05
2647 2645 2.7126736111111112e-06
2649 2645 2.7126736111111112e-06
2646 2646 1.0850694444444445e-05
2647 2646 2.7126736111111112e-06
2740 2646 2.7126736111111112e-06
2647 2647 1.0850694444444445e-05
2649 2647 2.7126736111111112e-06
2740 2647 2.7126736111111112e-06
2648 2648 1.0850694444444445e-05
2650 2648 2.7126736111111112e-06
2652 2648 2.7126736111111112e-06
2649 2649 1.0850694444444445e-05
2650 2649 2.7126736111111112e-06
2743 2649 2.7126736111111112e-06
2650 2650 1.0850694444444445e-05
2652 2650 2.7126736111111112e-06
2743 2650 2.7126736111111112e-06
2651 2651 1.0850694444444445e-05
2653 2651 2.7126736111111112e-06
2655 2651 2.7126736111111112e-06
2652 2652 1.0850694444444445e-05
2653 2652 2.7126736111111112e-06
2746 2652 2.7126736111111112e-06
2653 2653 1.0850694444444445e-05
2655 2653 2.7126736111111112e-06
2746 2653 2.7126736111111112e-06
2654 2654 1.0850694444444445e-05
2656 2654 2.7126736111111112e-06
2658 2654 2.7126736111111112e-06
2655 2655 1.0850694444444445e-05
2656 2655 2.7126736111111112e-06
2749 2655 2.7126736111111112e-06
2656 2656 1.0850694444444445e-05
2658 2656 2.7126736111111112e-06
2749 2656 2.7126736111111112e-06
2657 2657 1.0850694444444445e-05
2659 2657 2.7126736111111112e-06
2661 2657 2.7126736111111112e-06
2658 2658 1.0850694444444445e-05
2659 2658 2.7126736111111112e-06
2752 2658 2.7126736111111112e-06
2659 2659 1.0850694444444445e-05
2661 2659 2.7126736111111112e-06
2752 2659 2.7126736111111112e-06
2660 2660 1.0850694444444445e-05
2662 2660 2.7126736111111112e-06
2664 2660 2.7126736111111112e-06
2661 2661 1.0850694444444445e-05
2662 2661 2.7126736111111112e-06
2755 2661 2.7126736111111112e-06
2662 2662 1.0850694444444445e-05
2664 2662 2.7126736111111112e-06
2755 2662 2.7126736111111112e-06
2663 2663 1.0850694444444445e-05
2665 2663 2.7126736111111112e-06
2667 2663 2.7126736111111112e-06
2664 2664 1.0850694444444445e-05
2665 2664 2.7126736111111112e-06
2758 2664 2.7126736111111112e-06
2665 2665 1.0850694444444445e-05
2667 2665 2.7126736111111112e-06
2758 2665 2.7126736111111112e-06
2666 2666 1.0850694444444445e-05
2668 2666 2.7126736111111112e-06
2670 2666 2.7126736111111112e-06
2667 2667 1.0850694444444445e-05
2668 2667 2.7126736111111112e-06
2761 2667 2.7126736111111112e-06
2668 2668 1.0850694444444445e-05
2670 2668 2.7126736111111112e-06
2761 2668 2.7126736111111112e-06
2669 2669 1.0850694444444445e-05
2671 2669 2.7126736111111112e-06
2673 2669 2.7126736111111112e-06
2670 2670 1.0850694444444445e-05
2671 2670 2.7126736111111112e-06
2764 2670 2.7126736111111112e-06
2671 2671 1.0850694444444445e-05
2673 2671 2.7126736111111112e-06
2764 2671 2.7126736111111112e-06
2672 2672 1.0850694444444445e-05
2674 2672 2.7126736111111112e-06
2676 2672 2.7126736111111112e-06
2673 2673 1.0850694444444445e-05
2674 2673 2.7126736111111112e-06
2767 2673 2.7126736111111112e-06
2674 2674 1.0850694444444445e-05
2676 2674 2.7126736111111112e-06
2767 2674 2.7126736111111112e-06
2675 2675 1.0850694444444445e-05
2677 2675 2.7126736111111112e-06
2679 2675 2.7126736111111112e-06
2676 2676 1.0850694444444445e-05
2677 2676 2.7126736111111112e-06
2770 2676 2.7126736111111112e-06
2677 2677 1.0850694444444445e-05
2679 2677 2.7126736111111112e-06
2770 2677 2.7126736111111112e-06
2678 2678 1.0850694444444445e-05
2680 2678 2.7126736111111112e-06
2682 2678 2.7126736111111112e-06
2679 2679 1.0850694444444445e-05
2680 2679 2.7126736111111112e-06
2773 2679 2.7126736111111112e-06
2680 2680 1.0850694444444445e-05
2682 2680 2.7126736111111112e-06
2773 2680 2.7126736111111112e-06
2681 2681 1.0850694444444445e-05
2683 2681 2.7126736111111112e-06
2685 2681 2.7126736111111112e-06
2682 2682 1.0850694444444445e-05
2683 2682 2.7126736111111112e-06
2776 2682 2.7126736111111112e-06
2683 2683 1.0850694444444445e-05
2685 2683 2.7126736111111112e-06
2776 2683 2.7126736111111112e-06
2684 2684 1.0850694444444445e-05
2686 2684 2.7126736111111112e-06
2688 2684 2.7126736111111112e-06
2685 2685 1.0850694444444445e-05
2686 2685 2.7126736111111112e-06
2779 2685 2.7126736111111112e-06
2686 2686 1.0850694444444445e-05
2688 2686 2.7126736111111112e-06
2779 2686 2.7126736111111112e-06
2687 2687 1.0850694444444445e-05
2689 2687 2.7126736111111112e-06
2691 2687 2.7126736111111112e-06
2688 2688 1.0850694444444445e-05
2689 2688 2.7126736111111112e-06
2782 2688 2.7126736111111112e-06
2689 2689 1.0850694444444445e-05
2691 2689 2.7126736111111112e-06
2782 2689 2.7126736111111112e-06
2690 2690 1.0850694444444445e-05
2692 2690 2.7126736111111112e-06
2694 2690 2.7126736111111112e-06
2691 2691 1.0850694444444445e-05
2692 2691 2.7126736111111112e-06
2785 2691 2.7126736111111112e-06
2692 2692 1.0850694444444445e-05
2694 2692 2.7126736111111112e-06
2785 2692 2.7126736111111112e-06
2693 2693 1.0850694444444445e-05
2695 2693 2.7126736111111112e-06
2697 2693 2.7126736111111112e-06
2694 2694 1.0850694444444445e-05
2695 2694 2.7126736111111112e-06
2788 2694 2.7126736111111112e-06
2695 2695 1.0850694444444445e-05
2697 2695 2.7126736111111112e-06
2788 2695 2.7126736111111112e-06
2696 2696 1.0850694444444445e-05
2698 2696 2.7126736111111112e-06
2700 2696 2.7126736111111112e-06
2697 2697 1.0850694444444445e-05
2698 2697 2.7126736111111112e-06
2791 2697 2.7126736111111112e-06
2698 2698 1.0850694444444445e-05
2700 2698 2.7126736111111112e-06
2791 2698 2.7126736111111112e-06
2699 2699 1.0850694444444445e-05
2701 2699 2.7126736111111112e-06
2703 2699 2.7126736111111112e-06
2700 2700 1.0850694444444445e-05
2701 2700 2.7126736111111112e-06
2794 2700 2.7126736111111112e-06
2701 2701 1.0850694444444445e-05
2703 2701 2.7126736111111112e-06
2794 2701 2.7126736111111112e-06
2702 2702 1.0850694444444445e-05
2704 2702 2.7126736111111112e-06
2706 2702 2.7126736111111112e-06
2703 2703 1.0850694444444445e-05
2704 2703 2.7126736111111112e-06
2797 2703 2.7126736111111112e-06
2704 2704 1.0850694444444445e-05
2706 2704 2.7126736111111112e-06
2797 2704 2.7126736111111112e-06
2705 2705 1.0850694444444445e-05
2707 2705 2.7126736111111112e-06
2709 2705 2.7126736111111112e-06
2706 2706 1.0850694444444445e-05
2707 2706 2.7126736111111112e-06
2800 2706 2.7126736111111112e-06
2707 2707 1.0850694444444445e-05
2709 2707 2.7126736111111112e-06
2800 2707 2.7126736111111112e-06
2708 2708 1.0850694444444445e-05
2710 2708 2.7126736111111112e-06
2712 2708 2.7126736111111112e-06
2709 2709 1.0850694444444445e-05
2710 2709 2.7126736111111112e-06
2803 2709 2.7126736111111112e-06
2710 2710 1.0850694444444445e-05
2712 2710 2.7126736111111112e-06
2803 2710 2.7126736111111112e-06
2711 2711 1.0850694444444445e-05
2713 2711 2.7126736111111112e-06
2715 2711 2.7126736111111112e-06
2712 2712 1.0850694444444445e-05
2713 2712 2.7126736111111112e-06
2806 2712 2.7126736111111112e-06
2713 2713 1.0850694444444445e-05
2715 2713 2.7126736111111112e-06
2806 2713 2.7126736111111112e-06
2714 2714 1.0850694444444445e-05
2716 2714 2.7126736111111112e-06
2718 2714 2.7126736111111112e-06
2715 2715 1.0850694444444445e-05
2716 2715 2.7126736111111112e-06
2809 2715 2.7126736111111112e-06
2716 2716 1.0850694444444445e-05
2718 2716 2.7126736111111112e-06
2809 2716 2.7126736111111112e-06
2717 2717 1.0850694444444445e-05
2719 2717 2.7126736111111112e-06
2721 2717 2.7126736111111112e-06
2718 2718 1.0850694444444445e-05
2719 2718 2.7126736111111112e-06
2812 2718 2.7126736111111112e-06
2719 2719 1.0850694444444445e-05
2721 2719 2.7126736111111112e-06
2812 2719 2.7126736111111112e-06
2720 2720 1.0850694444444445e-05
2722 2720 2.7126736111111112e-06
2724 2720 2.7126736111111112e-06
2721 2721 1.0850694444444445e-05
2722 2721 2.7126736111111112e-06
2815 2721 2.7126736111111112e-06
2722 2722 1.0850694444444445e-05
2724 2722 2.7126736111111112e-06
2815 2722 2.7126736111111112e-06
2723 2723 1.0850694444444445e-05
2725 2723 2.7126736111111112e-06
2727 2723 2.7126736111111112e-06
2724 2724 1.0850694444444445e-05
2725 2724 2.7126736111111112e-06
2818 2724 2.7126736111111112e-06
2725 2725 1.0850694444444445e-05
2727 2725 2.7126736111111112e-06
2818 2725 2.7126736111111112e-06
2726 2726 1.0850694444444445e-05
2728 2726 2.7126736111111112e-06
2730 2726 2.7126736111111112e-06
2727 2727 1.0850694444444445e-05
2728 2727 2.7126736111111112e-06
2821 2727 2.7126736111111112e-06
2728 2728 1.0850694444444445e-05
2730 2728 2.7126736111111112e-06
2821 2728 2.7126736111111112e-06
2729 2729 1.0850694444444445e-05
2731 2729 2.7126736111111112e-06
2733 2729 2.7126736111111112e-06
2730 2730 1.0850694444444445e-05
2731 2730 2.7126736111111112e-06
2824 2730 2.7126736111111112e-06
2731 2731 1.0850694444444445e-05
2733 2731 2.7126736111111112e-06
2824 2731 2.7126736111111112e-06
2732 2732 1.0850694444444445e-05
2734 2732 2.7126736111111112e-06
2733 2733 1.0850694444444445e-05
2734 2733 2.7126736111111112e-06
2827 2733 2.7126736111111112e-06
2734 2734 1.0850694444444445e-05
2827 2734 2.7126736111111112e-06
2735 2735 1.0850694444444445e-05
2736 2735 2.7126736111111112e-06
2738 2735 2.7126736111111112e-06
2736 2736 1.0850694444444445e-05
2738 2736 2.7126736111111112e-06
2830 2736 2.7126736111111112e-06
2737 2737 1.0850694444444445e-05
2739 2737 2.7126736111111112e-06
2741 2737 2.7126736111111112e-06
2738 2738 1.0850694444444445e-05
2739 2738 2.7126736111111112e-06
2832 2738 2.7126736111111112e-06
2739 2739 1.0850694444444445e-05
2741 2739 2.7126736111111112e-06
2832 2739 2.7126736111111112e-06
2740 2740 1.0850694444444445e-05
2742 2740 2.7126736111111112e-06
2744 2740 2.7126736111111112e-06
2741 2741 1.0850694444444445e-05
2742 2741 2.7126736111111112e-06
2835 2741 2.7126736111111112e-06
2742 2742 1.0850694444444445e-05
2744 2742 2.7126736111111112e-06
2835 2742 2.7126736111111112e-06
2743 2743 1.0850694444444445e-05
2745 2743 2.7126736111111112e-06
2747 2743 2.7126736111111112e-06
2744 2744 1.0850694444444445e-05
2745 2744 2.7126736111111112e-06
2838 2744 2.7126736111111112e-06
2745 2745 1.0850694444444445e-05
2747 2745 2.7126736111111112e-06
2838 2745 2.7126736111111112e-06
2746 2746 1.0850694444444445e-05
2748 2746 2.7126736111111112e-06
2750 2746 2.7126736111111112e-06
2747 2747 1.0850694444444445e-05
2748 2747 2.7126736111111112e-06
2841 2747 2.7126736111111112e-06
2748 2748 1.0850694444444445e-05
2750 2748 2.7126736111111112e-06
2841 2748 2.7126736111111112e-06
2749 2749 1.0850694444444445e-05
2751 2749 2.7126736111111112e-06
2753 2749 2.7126736111111112e-06
2750 2750 1.0850694444444445e-05
2751 2750 2.7126736111111112e-06
2844 2750 2.7126736111111112e-06
2751 2751 1.0850694444444445e-05
2753 2751 2.7126736111111112e-06
2844 2751 2.7126736111111112e-06
2752 2752 1.0850694444444445e-05
2754 2752 2.7126736111111112e-06
2756 2752 2.7126736111111112e-06
2753 2753 1.0850694444444445e-05
2754 2753 2.7126736111111112e-06
2847 2753 2.7126736111111112e-06
2754 2754 1.0850694444444445e-05
2756 2754 2.7126736111111112e-06
2847 2754 2.7126736111111112e-06
2755 2755 1.0850694444444445e-05
2757 2755 2.7126736111111112e-06
2759 2755 2.7126736111111112e-06
2756 2756 1.0850694444444445e-05
2757 2756 2.7126736111111112e-06
2850 2756 2.7126736111111112e-06
2757 2757 1.0850694444444445e-05
2759 2757 2.7126736111111112e-06
2850 2757 2.7126736111111112e-06
2758 2758 1.0850694444444445e-05
2760 2758 2.7126736111111112e-06
2762 2758 2.7126736111111112e-06
2759 2759 1.0850694444444445e-05
2760 2759 2.7126736111111112e-06
2853 2759 2.7126736111111112e-06
2760 2760 1.0850694444444445e-05
2762 2760 2.7126736111111112e-06
2853 2760 2.7126736111111112e-06
2761 2761 1.0850694444444445e-05
2763 2761 2.7126736111111112e-06
2765 2761 2.7126736111111112e-06
2762 2762 1.0850694444444445e-05
2763 2762 2.7126736111111112e-06
2856 2762 2.7126736111111112e-06
2763 2763 1.0850694444444445e-05
2765 2763 2.7126736111111112e-06
2856 2763 2.7126736111111112e-06
2764 2764 1.0850694444444445e-05
2766 2764 2.7126736111111112e-06
2768 2764 2.7126736111111112e-06
2765 2765 1.0850694444444445e-05
2766 2765 2.7126736111111112e-06
2859 2765 2.7126736111111112e-06
2766 2766 1.0850694444444445e-05
2768 2766 2.7126736111111112e-06
2859 2766 2.7126736111111112e-06
2767 2767 1.0850694444444445e-05
2769 2767 2.7126736111111112e-06
2771 2767 2.7126736111111112e-06
2768 2768 1.0850694444444445e-05
2769 2768 2.7126736111111112e-06
2862 2768 2.7126736111111112e-06
2769 2769 1.0850694444444445e-05
2771 2769 2.7126736111111112e-06
2862 2769 2.7126736111111112e-06
2770 2770 1.0850694444444445e-05
2772 2770 2.7126736111111112e-06
2774 2770 2.7126736111111112e-06
2771 2771 1.0850694444444445e-05
2772 2771 2.7126736111111112e-06
2865 2771 2.7126736111111112e-06
2772 2772 1.0850694444444445e-05
2774 2772 2.7126736111111112e-06
2865 2772 2.7126736111111112e-06
2773 2773 1.0850694444444445e-05
2775 2773 2.7126736111111112e-06
2777 2773 2.7126736111111112e-06
2774 2774 1.0850694444444445e-05
2775 2774 2.7126736111111112e-06
2868 2774 2.7126736111111112e-06
2775 2775 1.0850694444444445e-05
2777 2775 2.7126736111111112e-06
2868 2775 2.7126736111111112e-06
2776 2776 1.0850694444444445e-05
2778 2776 2.7126736111111112e-06
2780 2776 2.7126736111111112e-06
2777 2777 1.0850694444444445e-05
2778 2777 2.7126736111111112e-06
2871 2777 2.7126736111111112e-06
2778 2778 1.0850694444444445e-05
2780 2778 2.7126736111111112e-06
2871 2778 2.7126736111111112e-06
2779 2779 1.0850694444444445e-05
2781 2779 2.7126736111111112e-06
2783 2779 2.7126736111111112e-06
2780 2780 1.0850694444444445e-05
2781 2780 2.7126736111111112e-06
2874 2780 2.7126736111111112e-06
2781 2781 1.0850694444444445e-05
2783 2781 2.7126736111111112e-06
2874 2781 2.7126736111111112e-06
2782 2782 1.0850694444444445e-05
2784 2782 2.7126736111111112e-06
2786 2782 2.7126736111111112e-06
2783 2783 1.0850694444444445e-05
2784 2783 2.7126736111111112e-06
2877 2783 2.7126736111111112e-06
2784 2784 1.0850694444444445e-05
2786 2784 2.7126736111111112e-06
2877 2784 2.7126736111111112e-06
2785 2785 1.0850694444444445e-05
2787 2785 2.7126736111111112e-06
2789 2785 2.7126736111111112e-06
2786 2786 1.0850694444444445e-05
2787 2786 2.7126736111111112e-06
2880 2786 2.7126736111111112e-06
2787 2787 1.0850694444444445e-05
2789 2787 2.7126736111111112e-06
2880 2787 2.7126736111111112e-06
2788 2788 1.0850694444444445e-05
2790 2788 2.7126736111111112e-06
2792 2788 2.7126736111111112e-06
2789 2789 1.0850694444444445e-05
2790 2789 2.7126736111111112e-06
2883 2789 2.7126736111111112e-06
2790 2790 1.0850694444444445e-05
2792 2790 2.7126736111111112e-06
2883 2790 2.7126736111111112e-06
2791 2791 1.0850694444444445e-05
2793 2791 2.7126736111111112e-06
2795 2791 2.7126736111111112e-06
2792 2792 1.0850694444444445e-05
2793 2792 2.7126736111111112e-06
2886 2792 2.7126736111111112e-06
2793 2793 1.0850694444444445e-05
2795 2793 2.7126736111111112e-06
2886 2793 2.7126736111111112e-06
2794 2794 1.0850694444444445e-05
2796 2794 2.7126736111111112e-06
2798 2794 2.7126736111111112e-06
2795 2795 1.0850694444444445e-05
2796 2795 2.7126736111111112e-06
2889 2795 2.7126736111111112e-06
2796 2796 1.0850694444444445e-05
2798 2796 2.7126736111111112e-06
2889 2796 2.7126736111111112e-06
2797 2797 1.0850694444444445e-05
2799 2797 2.7126736111111112e-06
2801 2797 2.7126736111111112e-06
2798 2798 1.0850694444444445e-05
2799 2798 2.7126736111111112e-06
2892 2798 2.7126736111111112e-06
2799 2799 1.0850694444444445e-05
2801 2799 2.7126736111111112e-06
2892 2799 2.7126736111111112e-06
2800 2800 1.0850694444444445e-05
2802 2800 2.7126736111111112e-06
2804 2800 2.7126736111111112e-06
2801 2801 1.0850694444444445e-05
2802 2801 2.7126736111111112e-06
2895 2801 2.7126736111111112e-06
2802 2802 1.0850694444444445e-05
2804 2802 2.7126736111111112e-06
2895 2802 2.7126736111111112e-06
2803 2803 1.0850694444444445e-05
2805 2803 2.7126736111111112e-06
2807 2803 2.7126736111111112e-06
2804 2804 1.0850694444444445e-05
2805 2804 2.7126736111111112e-06
2898 2804 2.7126736111111112e-06
2805 2805 1.0850694444444445e-05
2807 2805 2.7126736111111112e-06
2898 2805 2.7126736111111112e-06
2806 2806 1.0850694444444445e-05
2808 2806 2.7126736111111112e-06
2810 2806 2.7126736111111112e-06
2807 2807 1.0850694444444445e-05
2808 2807 2.7126736111111112e-06
2901 2807 2.7126736111111112e-06
2808 2808 1.0850694444444445e-05
2810 2808 2.7126736111111112e-06
2901 2808 2.7126736111111112e-06
2809 2809 1.0850694444444445e-05
2811 2809 2.7126736111111112e-06
2813 2809 2.7126736111111112e-06
2810 2810 1.0850694444444445e-05
2811 2810 2.7126736111111112e-06
2904 2810 2.7126736111111112e-06
2811 2811 1.0850694444444445e-05
2813 2811 2.7126736111111112e-06
2904 2811 2.7126736111111112e-06
2812 2812 1.0850694444444445e-05
2814 2812 2.7126736111111112e-06
2816 2812 2.7126736111111112e-06
2813 2813 1.0850694444444445e-05
2814 2813 2.7126736111111112e-06
2907 2813 2.7126736111111112e-06
2814 2814 1.0850694444444445e-05
2816 2814 2.7126736111111112e-06
2907 2814 2.7126736111111112e-06
2815 2815 1.0850694444444445e-05
2817 2815 2.7126736111111112e-06
2819 2815 2.7126736111111112e-06
2816 2816 1.0850694444444445e-05
2817 2816 2.7126736111111112e-06
2910 2816 2.7126736111111112e-06
2817 2817 1.0850694444444445e-05
2819 2817 2.7126736111111112e-06
2910 2817 2.7126736111111112e-06
2818 2818 1.0850694444444445e-05
2820 2818 2.7126736111111112e-06
2822 2818 2.7126736111111112e-06
2819 2819 1.0850694444444445e-05
2820 2819 2.7126736111111112e-06
2913 2819 2.7126736111111112e-06
2820 2820 1.0850694444444445e-05
2822 2820 2.7126736111111112e-06
2913 2820 2.7126736111111112e-06
2821 2821 1.0850694444444445e-05
2823 2821 2.7126736111111112e-06
2825 2821 2.7126736111111112e-06
2822 2822 1.0850694444444445e-05
2823 2822 2.7126736111111112e-06
2916 2822 2.7126736111111112e-06
2823 2823 1.0850694444444445e-05
2825 2823 2.7126736111111112e-06
2916 2823 2.7126736111111112e-06
2824 2824 1.0850694444444445e-05
2826 2824 2.7126736111111112e-06
2828 2824 2.7126736111111112e-06
2825 2825 1.0850694444444445e-05
2826 2825 2.7126736111111112e-06
2919 2825 2.7126736111111112e-06
2826 2826 1.0850694444444445e-05
2828 2826 2.7126736111111112e-06
2919 2826 2.7126736111111112e-06
2827 2827 1.0850694444444445e-05
2829 2827 2.7126736111111112e-06
2828 2828 1.0850694444444445e-05
2829 2828 2.7126736111111112e-06
2922 2828 2.7126736111111112e-06
2829 2829 1.0850694444444445e-05
2922 2829 2.7126736111111112e-06
2830 2830 1.0850694444444445e-05
2831 2830 2.7126736111111112e-06
2833 2830 2.7126736111111112e-06
2831 2831 1.0850694444444445e-05
2833 2831 2.7126736111111112e-06
2925 2831 2.7126736111111112e-06
2832 2832 1.0850694444444445e-05
2834 2832 2.7126736111111112e-06
2836 2832 2.7126736111111112e-06
2833 2833 1.0850694444444445e-05
2834 2833 2.7126736111111112e-06
2927 2833 2.7126736111111112e-06
2834 2834 1.0850694444444445e-05
2836 2834 2.7126736111111112e-06
2927 2834 2.7126736111111112e-06
2835 2835 1.0850694444444445e-05
2837 2835 2.7126736111111112e-06
2839 2835 2.7126736111111112e-06
2836 2836 1.0850694444444445e-05
2837 2836 2.7126736111111112e-06
2930 2836 2.7126736111111112e-06
2837 2837 1.0850694444444445e-05
2839 2837 2.7126736111111112e-06
2930 2837 2.7126736111111112e-06
2838 2838 1.0850694444444445e-05
2840 2838 2.7126736111111112e-06
2842 2838 2.7126736111111112e-06
2839 2839 1.0850694444444445e-05
2840 2839 2.7126736111111112e-06
2933 2839 2.7126736111111112e-06
2840 2840 1.0850694444444445e-05
2842 2840 2.7126736111111112e-06
2933 2840 2.7126736111111112e-06
2841 2841 1.0850694444444445e-05
2843 2841 2.7126736111111112e-06
2845 2841 2.7126736111111112e-06
2842 2842 1.0850694444444445e-05
2843 2842 2.7126736111111112e-06
2936 2842 2.7126736111111112e-06
2843 2843 1.0850694444444445e-05
2845 2843 2.7126736111111112e-06
2936 2843 2.7126736111111112e-06
2844 2844 1.0850694444444445e-05
2846 2844 2.7126736111111112e-06
2848 2844 2.7126736111111112e-06
2845 2845 1.0850694444444445e-05
2846 2845 2.7126736111111112e-06
2939 2845 2.7126736111111112e-06
2846 2846 1.0850694444444445e-05
2848 2846 2.7126736111111112e-06
2939 2846 2.7126736111111112e-06
2847 2847 1.0850694444444445e-05
2849 2847 2.7126736111111112e-06
2851 2847 2.7126736111111112e-06
2848 2848 1.0850694444444445e-05
2849 2848 2.7126736111111112e-06
2942 2848 2.7126736111111112e-06
2849 2849 1.0850694444444445e-05
2851 2849 2.7126736111111112e-06
2942 2849 2.7126736111111112e-06
2850 2850 1.0850694444444445e-05
2852 2850 2.7126736111111112e-06
2854 2850 2.7126736111111112e-06
2851 2851 1.0850694444444445e-05
2852 2851 2.7126736111111112e-06
2945 2851 2.7126736111111112e-06
2852 2852 1.0850694444444445e-05
2854 2852 2.7126736111111112e-06
2945 2852 2.7126736111111112e-06
2853 2853 1.0850694444444445e-05
2855 2853 2.7126736111111112e-06
2857 2853 2.7126736111111112e-06
2854 2854 1.0850694444444445e-05
2855 2854 2.7126736111111112e-06
2948 2854 2.7126736111111112e-06
2855 2855 1.0850694444444445e-05
2857 2855 2.7126736111111112e-06
2948 2855 2.7126736111111112e-06
2856 2856 1.0850694444444445e-05
2858 2856 2.7126736111111112e-06
2860 2856 2.7126736111111112e-06
2857 2857 1.0850694444444445e-05
2858 2857 2.7126736111111112e-06
2951 2857 2.7126736111111112e-06
2858 2858 1.0850694444444445e-05
2860 2858 2.7126736111111112e-06
2951 2858 2.7126736111111112e-06
2859 2859 1.0850694444444445e-05
2861 2859 2.7126736111111112e-06
2863 2859 2.7126736111111112e-06
2860 2860 1.0850694444444445e-05
2861 2860 2.7126736111111112e-06
2954 2860 2.7126736111111112e-06
2861 2861 1.0850694444444445e-05
2863 2861 2.7126736111111112e-06
2954 2861 2.7126736111111112e-06
2862 2862 1.0850694444444445e-05
2864 2862 2.7126736111111112e-06
2866 2862 2.7126736111111112e-06
2863 2863 1.0850694444444445e-05
2864 2863 2.7126736111111112e-06
2957 2863 2.7126736111111112e-06
2864 2864 1.0850694444444445e-05
2866 2864 2.7126736111111112e-06
2957 2864 2.7126736111111112e-06
2865 2865 1.0850694444444445e-05
2867 2865 2.7126736111111112e-06
2869 2865 2.7126736111111112e-06
2866 2866 1.0850694444444445e-05
2867 2866 2.7126736111111112e-06
2960 2866 2.7126736111111112e-06
2867 2867 1.0850694444444445e-05
2869 2867 2.7126736111111112e-06
2960 2867 2.7126736111111112e-06
2868 2868 1.0850694444444445e-05
2870 2868 2.7126736111111112e-06
2872 2868 2.7126736111111112e-06
2869 2869 1.0850694444444445e-05
2870 2869 2.7126736111111112e-06
2963 2869 2.7126736111111112e-06
2870 2870 1.0850694444444445e-05
2872 2870 2.7126736111111112e-06
2963 2870 2.7126736111111112e-06
2871 2871 1.0850694444444445e-05
2873 2871 2.7126736111111112e-06
2875 2871 2.7126736111111112e-06
2872 2872 1.0850694444444445e-05
2873 2872 2.7126736111111112e-06
2966 2872 2.7126736111111112e-06
2873 2873 1.0850694444444445e-05
2875 2873 2.7126736111111112e-06
2966 2873 2.7126736111111112e-06
2874 2874 1.0850694444444445e-05
2876 2874 2.7126736111111112e-06
2878 2874 2.7126736111111112e-06
2875 2875 1.0850694444444445e-05
2876 2875 2.7126736111111112e-06
2969 2875 2.7126736111111112e-06
2876 2876 1.0850694444444445e-05
2878 2876 2.7126736111111112e-06
2969 2876 2.7126736111111112e-06
2877 2877 1.0850694444444445e-05
2879 2877 2.7126736111111112e-06
2881 2877 2.7126736111111112e-06
2878 2878 1.0850694444444445e-05
2879 2878 2.7126736111111112e-06
2972 2878 2.7126736111111112e-06
2879 2879 1.0850694444444445e-05
2881 2879 2.7126736111111112e-06
2972 2879 2.7126736111111112e-06
2880 2880 1.0850694444444445e-05
2882 2880 2.7126736111111112e-06
2884 2880 2.7126736111111112e-06
2881 2881 1.0850694444444445e-05
2882 2881 2.7126736111111112e-06
2975 2881 2.7126736111111112e-06
2882 2882 1.0850694444444445e-05
2884 2882 2.7126736111111112e-06
2975 2882 2.7126736111111112e-06
2883 2883 1.0850694444444445e-05
2885 2883 2.7126736111111112e-06
2887 2883 2.7126736111111112e-06
2884 2884 1.0850694444444445e-05
2885 2884 2.7126736111111112e-06
2978 2884 2.7126736111111112e-06
2885 2885 1.0850694444444445e-05
2887 2885 2.7126736111111112e-06
2978 2885 2.7126736111111112e-06
2886 2886 1.0850694444444445e-05
2888 2886 2.7126736111111112e-06
2890 2886 2.7126736111111112e-06
2887 2887 1.0850694444444445e-05
2888 2887 2.7126736111111112e-06
2981 2887 2.7126736111111112e-06
2888 2888 1.0850694444444445e-05
2890 2888 2.7126736111111112e-06
2981 2888 2.7126736111111112e-06
2889 2889 1.0850694444444445e-05
2891 2889 2.7126736111111112e-06
2893 2889 2.7126736111111112e-06
2890 2890 1.0850694444444445e-05
2891 2890 2.7126736111111112e-06
2984 2890 2.7126736111111112e-06
2891 2891 1.0850694444444445e-05
2893 2891 2.7126736111111112e-06
2984 2891 2.7126736111111112e-06
2892 2892 1.0850694444444445e-05
2894 2892 2.7126736111111112e-06
2896 2892 2.7126736111111112e-06
2893 2893 1.0850694444444445e-05
2894 2893 2.7126736111111112e-06
2987 2893 2.7126736111111112e-06
2894 2894 1.0850694444444445e-05
2896 2894 2.7126736111111112e-06
2987 2894 2.7126736111111112e-06
2895 2895 1.0850694444444445e-05
2897 2895 2.7126736111111112e-06
2899 2895 2.7126736111111112e-06
2896 2896 1.0850694444444445e-05
2897 2896 2.7126736111111112e-06
2990 2896 2.7126736111111112e-06
2897 2897 1.0850694444444445e-05
2899 2897 2.7126736111111112e-06
2990 2897 2.7126736111111112e-06
2898 2898 1.0850694444444445e-05
2900 2898 2.7126736111111112e-06
2902 2898 2.7126736111111112e-06
2899 2899 1.0850694444444445e-05
2900 2899 2.7126736111111112e-06
2993 2899 2.7126736111111112e-06
2900 2900 1.0850694444444445e-05
2902 2900 2.7126736111111112e-06
2993 2900 2.7126736111111112e-06
2901 2901 1.0850694444444445e-05
2903 2901 2.7126736111111112e-06
2905 2901 2.7126736111111112e-06
2902 2902 1.0850694444444445e-05
2903 2902 2.7126736111111112e-06
2996 2902 2.7126736111111112e-06
2903 2903 1.0850694444444445e-05
2905 2903 2.7126736111111112e-06
2996 2903 2.7126736111111112e-06
2904 2904 1.0850694444444445e-05
2906 2904 2.7126736111111112e-06
2908 2904 2.7126736111111112e-06
2905 2905 1.0850694444444445e-05
2906 2905 2.7126736111111112e-06
2999 2905 2.7126736111111112e-06
2906 2906 1.0850694444444445e-05
2908 2906 2.7126736111111112e-06
2999 2906 2.7126736111111112e-06
2907 2907 1.0850694444444445e-05
2909 2907 2.7126736111111112e-06
2911 2907 2.7126736111111112e-06
2908 2908 1.0850694444444445e-05
2909 2908 2.7126736111111112e-06
3002 2908 2.7126736111111112e-06
2909 2909 1.0850694444444445e-05
2911 2909 2.7126736111111112e-06
3002 2909 2.7126736111111112e-06
2910 2910 1.0850694444444445e-05
2912 2910 2.7126736111111112e-06
2914 2910 2.7126736111111112e-06
2911 2911 1.0850694444444445e-05
2912 2911 2.7126736111111112e-06
3005 2911 2.7126736111111112e-06
2912 2912 1.0850694444444445e-05
2914 2912 2.7126736111111112e-06
3005 2912 2.7126736111111112e-06
2913 2913 1.0850694444444445e-05
2915 2913 2.7126736111111112e-06
2917 2913 2.7126736111111112e-06
2914 2914 1.0850694444444445e-05
2915 2914 2.7126736111111112e-06
3008 2914 2.7126736111111112e-06
2915 2915 1.0850694444444445e-05
2917 2915 2.7126736111111112e-06
3008 2915 2.7126736111111112e-06
2916 2916 1.0850694444444445e-05
2918 2916 2.7126736111111112e-06
2920 2916 2.7126736111111112e-06
2917 2917 1.0850694444444445e-05
2918 2917 2.7126736111111112e-06
3011 2917 2.7126736111111112e-06
2918 2918 1.0850694444444445e-05
2920 2918 2.7126736111111112e-06
3011 2918 2.7126736111111112e-06
2919 2919 1.0850694444444445e-05
2921 2919 2.7126736111111112e-06
2923 2919 2.7126736111111112e-06
2920 2920 1.0850694444444445e-05
2921 2920 2.7126736111111112e-06
3014 2920 2.7126736111111112e-06
2921 2921 1.0850694444444445e-05
2923 2921 2.7126736111111112e-06
3014 2921 2.7126736111111112e-06
2922 2922 1.0850694444444445e-05
2924 2922 2.7126736111111112e-06
2923 2923 1.0850694444444445e-05
2924 2923 2.7126736111111112e-06
3017 2923 2.7126736111111112e-06
2924 2924 1.0850694444444445e-05
3017 2924 2.7126736111111112e-06
2925 2925 1.0850694444444445e-05
2926 2925 2.7126736111111112e-06
2928 2925 2.7126736111111112e-06
2926 2926 1.0850694444444445e-05
2928 2926 2.7126736111111112e-06
3020 2926 2.7126736111111112e-06
2927 2927 1.0850694444444445e-05
2929 2927 2.7126736111111112e-06
2931 2927 2.7126736111111112e-06
2928 2928 1.0850694444444445e-05
2929 2928 2.7126736111111112e-06
3022 2928 2.7126736111111112e-06
2929 2929 1.0850694444444445e-05
2931 2929 2.7126736111111112e-06
3022 2929 2.7126736111111112e-06
2930 2930 1.0850694444444445e-05
2932 2930 2.7126736111111112e-06
2934 2930 2.7126736111111112e-06
2931 2931 1.0850694444444445e-05
2932 2931 2.7126736111111112e-06
3025 2931 2.7126736111111112e-06
2932 2932 1.0850694444444445e-05
2934 2932 2.7126736111111112e-06
3025 2932 2.7126736111111112e-06
2933 2933 1.0850694444444445e-05
2935 2933 2.7126736111111112e-06
2937 2933 2.7126736111111112e-06
2934 2934 1.0850694444444445e-05
2935 2934 2.7126736111111112e-06
3028 2934 2.7126736111111112e-06
2935 2935 1.0850694444444445e-05
2937 2935 2.7126736111111112e-06
3028 2935 2.7126736111111112e-06
2936 2936 1.0850694444444445e-05
2938 2936 2.7126736111111112e-06
2940 2936 2.7126736111111112e-06
2937 2937 1.0850694444444445e-05
2938 2937 2.7126736111111112e-06
3031 2937 2.7126736111111112e-06
2938 2938 1.0850694444444445e-05
2940 2938 2.7126736111111112e-06
3031 2938 2.7126736111111112e-06
2939 2939 1.0850694444444445e-05
2941 2939 2.7126736111111112e-06
2943 2939 2.7126736111111112e-06
2940 2940 1.0850694444444445e-05
2941 2940 2.7126736111111112e-06
3034 2940 2.7126736111111112e-06
2941 2941 1.0850694444444445e-05
2943 2941 2.7126736111111112e-06
3034 2941 2.7126736111111112e-06
2942 2942 1.0850694444444445e-05
2944 2942 2.7126736111111112e-06
2946 2942 2.7126736111111112e-06
2943 2943 1.0850694444444445e-05
2944 2943 2.7126736111111112e-06
3037 2943 2.7126736111111112e-06
2944 2944 1.0850694444444445e-05
2946 2944 2.7126736111111112e-06
3037 2944 2.7126736111111112e-06
2945 2945 1.0850694444444445e-05
2947 2945 2.7126736111111112e-06
2949 2945 2.7126736111111112e-06
2946 2946 1.0850694444444445e-05
2947 2946 2.7126736111111112e-06
3040 2946 2.7126736111111112e-06
2947 2947 1.0850694444444445e-05
2949 2947 2.7126736111111112e-06
3040 2947 2.7126736111111112e-06
2948 2948 1.0850694444444445e-05
2950 2948 2.7126736111111112e-06
2952 2948 2.7126736111111112e-06
2949 2949 1.0850694444444445e-05
2950 2949 2.7126736111111112e-06
3043 2949 2.7126736111111112e-06
2950 2950 1.0850694444444445e-05
2952 2950 2.7126736111111112e-06
3043 2950 2.7126736111111112e-06
2951 2951 1.0850694444444445e-05
2953 2951 2.7126736111111112e-06
2955 2951 2.7126736111111112e-06
2952 2952 1.0850694444444445e-05
2953 2952 2.7126736111111112e-06
3046 2952 2.7126736111111112e-06
2953 2953 1.0850694444444445e-05
2955 2953 2.7126736111111112e-06
3046 2953 2.7126736111111112e-06
2954 2954 1.0850694444444445e-05
2956 2954 2.7126736111111112e-06
2958 2954 2.7126736111111112e-06
2955 2955 1.0850694444444445e-05
2956 2955 2.7126736111111112e-06
3049 2955 2.7126736111111112e-06
2956 2956 1.0850694444444445e-05
2958 2956 2.7126736111111112e-06
3049 2956 2.7126736111111112e-06
2957 2957 1.0850694444444445e-05
2959 2957 2.7126736111111112e-06
2961 2957 2.7126736111111112e-06
2958 2958 1.0850694444444445e-05
2959 2958 2.7126736111111112e-06
3052 2958 2.7126736111111112e-06
2959 2959 1.0850694444444445e-05
2961 2959 2.7126736111111112e-06
3052 2959 2.7126736111111112e-06
2960 2960 1.0850694444444445e-05
2962 2960 2.7126736111111112e-06
2964 2960 2.7126736111111112e-06
2961 2961 1.0850694444444445e-05
2962 2961 2.7126736111111112e-06
3055 2961 2.7126736111111112e-06
2962 2962 1.0850694444444445e-05
2964 2962 2.7126736111111112e-06
3055 2962 2.7126736111111112e-06
2963 2963 1.0850694444444445e-05
2965 2963 2.7126736111111112e-06
2967 2963 2.7126736111111112e-06
2964 2964 1.0850694444444445e-05
2965 2964 2.7126736111111112e-06
3058 2964 2.7126736111111112e-06
2965 2965 1.0850694444444445e-05
2967 2965 2.7126736111111112e-06
3058 2965 2.7126736111111112e-06
2966 2966 1.0850694444444445e-05
2968 2966 2.7126736111111112e-06
2970 2966 2.7126736111111112e-06
2967 2967 1.0850694444444445e-05
2968 2967 2.7126736111111112e-06
3061 2967 2.7126736111111112e-06
2968 2968 1.0850694444444445e-05
2970 2968 2.7126736111111112e-06
3061 2968 2.7126736111111112e-06
2969 2969 1.0850694444444445e-05
2971 2969 2.7126736111111112e-06
2973 2969 2.7126736111111112e-06
2970 2970 1.0850694444444445e-05
2971 2970 2.7126736111111112e-06
3064 2970 2.7126736111111112e-06
2971 2971 1.0850694444444445e-05
2973 2971 2.7126736111111112e-06
3064 2971 2.7126736111111112e-06
2972 2972 1.0850694444444445e-05
2974 2972 2.7126736111111112e-06
2976 2972 2.7126736111111112e-06
2973 2973 1.0850694444444445e-05
2974 2973 2.7126736111111112e-06
3067 2973 2.7126736111111112e-06
2974 2974 1.0850694444444445e-05
2976 2974 2.7126736111111112e-06
3067 2974 2.7126736111111112e-06
2975 2975 1.0850694444444445e-05
2977 2975 2.7126736111111112e-06
2979 2975 2.7126736111111112e-06
2976 2976 1.0850694444444445e-05
2977 2976 2.7126736111111112e-06
3070 2976 2.7126736111111112e-06
2977 2977 1.0850694444444445e-05
2979 2977 2.7126736111111112e-06
3070 2977 2.7126736111111112e-06
2978 2978 1.0850694444444445e-05
2980 2978 2.7126736111111112e-06
2982 2978 2.7126736111111112e-06
2979 2979 1.0850694444444445e-05
2980 2979 2.7126736111111112e-06
3073 2979 2.7126736111111112e-06
2980 2980 1.0850694444444445e-05
2982 2980 2.7126736111111112e-06
3073 2980 2.7126736111111112e-06
2981 2981 1.0850694444444445e-05
2983 2981 2.7126736111111112e-06
2985 2981 2.7126736111111112e-06
2982 2982 1.0850694444444445e-05
2983 2982 2.7126736111111112e-06
3076 2982 2.7126736111111112e-06
2983 2983 1.0850694444444445e-05
2985 2983 2.7126736111111112e-06
3076 2983 2.7126736111111112e-06
2984 2984 1.0850694444444445e-05
2986 2984 2.7126736111111112e-06
2988 2984 2.7126736111111112e-06
2985 2985 1.0850694444444445e-05
2986 2985 2.7126736111111112e-06
3079 2985 2.7126736111111112e-06
2986 2986 1.0850694444444445e-05
2988 2986 2.7126736111111112e-06
3079 2986 2.7126736111111112e-06
2987 2987 1.0850694444444445e-05
2989 2987 2.7126736111111112e-06
2991 2987 2.7126736111111112e-06
2988 2988 1.0850694444444445e-05
2989 2988 2.7126736111111112e-06
3082 2988 2.7126736111111112e-06
2989 2989 1.0850694444444445e-05
2991 2989 2.7126736111111112e-06
3082 2989 2.7126736111111112e-06
2990 2990 1.0850694444444445e-05
2992 2990 2.7126736111111112e-06
2994 2990 2.7126736111111112e-06
2991 2991 1.0850694444444445e-05
2992 2991 2.7126736111111112e-06
3085 2991 2.7126736111111112e-06
2992 2992 1.0850694444444445e-05
2994 2992 2.7126736111111112e-06
3085 2992 2.7126736111111112e-06
2993 2993 1.0850694444444445e-05
2995 2993 2.7126736111111112e-06
2997 2993 2.7126736111111112e-06
2994 2994 1.0850694444444445e-05
2995 2994 2.7126736111111112e-06
3088 2994 2.7126736111111112e-06
2995 2995 1.0850694444444445e-05
2997 2995 2.7126736111111112e-06
3088 2995 2.7126736111111112e-06
2996 2996 1.0850694444444445e-05
2998 2996 2.7126736111111112e-06
3000 2996 2.7126736111111112e-06
2997 2997 1.0850694444444445e-05
2998 2997 2.7126736111111112e-06
3091 2997 2.7126736111111112e-06
2998 2998 1.0850694444444445e-05
3000 2998 2.7126736111111112e-06
3091 2998 2.7126736111111112e-06
2999 2999 1.0850694444444445e-05
3001 2999 2.7126736111111112e-06
3003 2999 2.7126736111111112e-06
3000 3000 1.0850694444444445e-05
3001 3000 2.7126736111111112e-06
3094 3000 2.7126736111111112e-06
3001 3001 1.0850694444444445e-05
3003 3001 2.7126736111111112e-06
3094 3001 2.7126736111111112e-06
3002 3002 1.0850694444444445e-05
3004 3002 2.7126736111111112e-06
3006 3002 2.7126736111111112e-06
3003 3003 1.0850694444444445e-05
3004 3003 2.7126736111111112e-06
3097 3003 2.7126736111111112e-06
3004 3004 1.0850694444444445e-05
3006 3004 2.7126736111111112e-06
3097 3004 2.7126736111111112e-06
3005 3005 1.0850694444444445e-05
3007 3005 2.7126736111111112e-06
3009 3005 2.7126736111111112e-06
3006 3006 1.0850694444444445e-05
3007 3006 2.7126736111111112e-06
3100 3006 2.7126736111111112e-06
3007 3007 1.0850694444444445e-05
3009 3007 2.7126736111111112e-06
3100 3007 2.7126736111111112e-06
3008 3008 1.0850694444444445e-05
3010 3008 2.7126736111111112e-06
3012 3008 2.7126736111111112e-06
3009 3009 1.0850694444444445e-05
3010 3009 2.7126736111111112e-06
3103 3009 2.7126736111111112e-06
3010 3010 1.0850694444444445e-05
3012 3010 2.7126736111111112e-06
3103 3010 2.7126736111111112e-06
3011 3011 1.0850694444444445e-05
3013 3011 2.7126736111111112e-06
3015 3011 2.7126736111111112e-06
3012 3012 1.0850694444444445e-05
3013 3012 2.7126736111111112e-06
3106 3012 2.7126736111111112e-06
3013 3013 1.0850694444444445e-05
3015 3013 2.7126736111111112e-06
3106 3013 2.7126736111111112e-06
3014 3014 1.0850694444444445e-05
3016 3014 2.7126736111111112e-06
3018 3014 2.7126736111111112e-06
3015 3015 1.0850694444444445e-05
3016 3015 2.7126736111111112e-06
3109 3015 2.7126736111111112e-06
3016 3016 1.0850694444444445e-05
3018 3016 2.7126736111111112e-06
3109 3016 2.7126736111111112e-06
3017 3017 1.0850694444444445e-05
3019 3017 2.7126736111111112e-06
3018 3018 1.0850694444444445e-05
3019 3018 2.7126736111111112e-06
3112 3018 2.7126736111111112e-06
3019 3019 1.0850694444444445e-05
3112 3019 2.7126736111111112e-06
3020 3020 1.0850694444444445e-05
3021 3020 2.7126736111111112e-06
3023 3020 2.7126736111111112e-06
3021 3021 1.0850694444444445e-05
3023 3021 2.7126736111111112e-06
3115 3021 2.7126736111111112e-06
3022 3022 1.0850694444444445e-05
3024 3022 2.7126736111111112e-06
3026 3022 2.7126736111111112e-06
3023 3023 1.0850694444444445e-05
3024 3023 2.7126736111111112e-06
3117 3023 2.7126736111111112e-06
3024 3024 1.0850694444444445e-05
3026 3024 2.7126736111111112e-06
3117 3024 2.7126736111111112e-06
3025 3025 1.0850694444444445e-05
3027 3025 2.7126736111111112e-06
3029 3025 2.7126736111111112e-06
3026 3026 1.0850694444444445e-05
3027 3026 2.7126736111111112e-06
3120 3026 2.7126736111111112e-06
3027 3027 1.0850694444444445e-05
3029 3027 2.7126736111111112e-06
3120 3027 2.7126736111111112e-06
3028 3028 1.0850694444444445e-05
3030 3028 2.7126736111111112e-06
3032 3028 2.7126736111111112e-06
3029 3029 1.0850694444444445e-05
3030 3029 2.7126736111111112e-06
3123 3029 2.7126736111111112e-06
3030 3030 1.0850694444444445e-05
3032 3030 2.7126736111111112e-06
3123 3030 2.7126736111111112e-06
3031 3031 1.0850694444444445e-05
3033 3031 2.7126736111111112e-06
3035 3031 2.7126736111111112e-06
3032 3032 1.0850694444444445e-05
3033 3032 2.7126736111111112e-06
3126 3032 2.7126736111111112e-06
3033 3033 1.0850694444444445e-05
3035 3033 2.7126736111111112e-06
3126 3033 2.7126736111111112e-06
3034 3034 1.0850694444444445e-05
3036 3034 2.7126736111111112e-06
3038 3034 2.7126736111111112e-06
3035 3035 1.0850694444444445e-05
3036 3035 2.7126736111111112e-06
3129 3035 2.7126736111111112e-06
3036 3036 1.0850694444444445e-05
3038 3036 2.7126736111111112e-06
3129 3036 2.7126736111111112e-06
3037 3037 1.0850694444444445e-05
3039 3037 2.7126736111111112e-06
3041 3037 2.7126736111111112e-06
3038 3038 1.0850694444444445e-05
3039 3038 2.7126736111111112e-06
3132 3038 2.7126736111111112e-06
3039 3039 1.0850694444444445e-05
3041 3039 2.7126736111111112e-06
3132 3039 2.7126736111111112e-06
3040 3040 1.0850694444444445e-05
3042 3040 2.7126736111111112e-06
3044 3040 2.7126736111111112e-06
3041 3041 1.0850694444444445e-05
3042 3041 2.7126736111111112e-06
3135 3041 2.7126736111111112e-06
3042 3042 1.0850694444444445e-05
3044 3042 2.7126736111111112e-06
3135 3042 2.7126736111111112e-06
3043 3043 1.0850694444444445e-05
3045 3043 2.7126736111111112e-06
3047 3043 2.7126736111111112e-06
3044 3044 1.0850694444444445e-05
3045 3044 2.7126736111111112e-06
3138 3044 2.7126736111111112e-06
3045 3045 1.0850694444444445e-05
3047 3045 2.7126736111111112e-06
3138 3045 2.7126736111111112e-06
3046 3046 1.0850694444444445e-05
3048 3046 2.7126736111111112e-06
3050 3046 2.7126736111111112e-06
3047 3047 1.0850694444444445e-05
3048 3047 2.7126736111111112e-06
3141 3047 2.7126736111111112e-06
3048 3048 1.0850694444444445e-05
3050 3048 2.7126736111111112e-06
3141 3048 2.7126736111111112e-06
3049 3049 1.0850694444444445e-05
3051 3049 2.7126736111111112e-06
3053 3049 2.7126736111111112e-06
3050 3050 1.0850694444444445e-05
3051 3050 2.7126736111111112e-06
3144 3050 2.7126736111111112e-06
3051 3051 1.0850694444444445e-05
3053 3051 2.7126736111111112e-06
3144 3051 2.7126736111111112e-06
3052 3052 1.0850694444444445e-05
3054 3052 2.7126736111111112e-06
3056 3052 2.7126736111111112e-06
3053 3053 1.0850694444444445e-05
3054 3053 2.7126736111111112e-06
3147 3053 2.7126736111111112e-06
3054 3054 1.0850694444444445e-05
3056 3054 2.7126736111111112e-06
3147 3054 2.7126736111111112e-06
3055 3055 1.0850694444444445e-05
3057 3055 2.7126736111111112e-06
3059 3055 2.7126736111111112e-06
3056 3056 1.0850694444444445e-05
3057 3056 2.7126736111111112e-06
3150 3056 2.7126736111111112e-06
3057 3057 1.0850694444444445e-05
3059 3057 2.7126736111111112e-06
3150 3057 2.7126736111111112e-06
3058 3058 1.0850694444444445e-05
3060 3058 2.7126736111111112e-06
3062 3058 2.7126736111111112e-06
3059 3059 1.0850694444444445e-05
3060 3059 2.7126736111111112e-06
3153 3059 2.7126736111111112e-06
3060 3060 1.0850694444444445e-05
3062 3060 2.7126736111111112e-06
3153 3060 2.7126736111111112e-06
3061 3061 1.0850694444444445e-05
3063 3061 2.7126736111111112e-06
3065 3061 2.7126736111111112e-06
3062 3062 1.0850694444444445e-05
3063 3062 2.7126736111111112e-06
3156 3062 2.7126736111111112e-06
3063 3063 1.0850694444444445e-05
3065 3063 2.7126736111111112e-06
3156 3063 2.7126736111111112e-06
3064 3064 1.0850694444444445e-05
3066 3064 2.7126736111111112e-06
3068 3064 2.7126736111111112e-06
3065 3065 1.0850694444444445e-05
3066 3065 2.7126736111111112e-06
3159 3065 2.7126736111111112e-06
3066 3066 1.0850694444444445e-05
3068 3066 2.7126736111111112e-06
3159 3066 2.7126736111111112e-06
3067 3067 1.0850694444444445e-05
3069 3067 2.7126736111111112e-06
3071 3067 2.7126736111111112e-06
3068 3068 1.0850694444444445e-05
3069 3068 2.7126736111111112e-06
3162 3068 2.7126736111111112e-06
3069 3069 1.0850694444444445e-05
3071 3069 2.7126736111111112e-06
3162 3069 2.7126736111111112e-06
3070 3070 1.0850694444444445e-05
3072 3070 2.7126736111111112e-06
3074 3070 2.7126736111111112e-06
3071 3071 1.0850694444444445e-05
3072 3071 2.7126736111111112e-06
3165 3071 2.7126736111111112e-06
3072 3072 1.0850694444444445e-05
3074 3072 2.7126736111111112e-06
3165 3072 2.7126736111111112e-06
3073 3073 1.0850694444444445e-05
3075 3073 2.7126736111111112e-06
3077 3073 2.7126736111111112e-06
3074 3074 1.0850694444444445e-05
3075 3074 2.7126736111111112e-06
3168 3074 2.7126736111111112e-06
3075 3075 1.0850694444444445e-05
3077 3075 2.7126736111111112e-06
3168 3075 2.7126736111111112e-06
3076 3076 1.0850694444444445e-05
3078 3076 2.7126736111111112e-06
3080 3076 2.7126736111111112e-06
3077 3077 1.0850694444444445e-05
3078 3077 2.7126736111111112e-06
3171 3077 2.7126736111111112e-06
3078 3078 1.0850694444444445e-05
3080 3078 2.7126736111111112e-06
3171 3078 2.7126736111111112e-06
3079 3079 1.0850694444444445e-05
3081 3079 2.7126736111111112e-06
3083 3079 2.7126736111111112e-06
3080 3080 1.0850694444444445e-05
3081 3080 2.7126736111111112e-06
3174 3080 2.7126736111111112e-06
3081 3081 1.0850694444444445e-05
3083 3081 2.7126736111111112e-06
3174 3081 2.7126736111111112e-06
3082 3082 1.0850694444444445e-05
3084 3082 2.7126736111111112e-06
3086 3082 2.7126736111111112e-06
3083 3083 1.0850694444444445e-05
3084 3083 2.7126736111111112e-06
3177 3083 2.7126736111111112e-06
3084 3084 1.0850694444444445e-05
3086 3084 2.7126736111111112e-06
3177 3084 2.7126736111111112e-06
3085 3085 1.0850694444444445e-05
3087 3085 2.7126736111111112e-06
3089 3085 2.7126736111111112e-06
3086 3086 1.0850694444444445e-05
3087 3086 2.7126736111111112e-06
3180 3086 2.7126736111111112e-06
3087 3087 1.0850694444444445e-05
3089 3087 2.7126736111111112e-06
3180 3087 2.7126736111111112e-06
3088 3088 1.0850694444444445e-05
3090 3088 2.7126736111111112e-06
3092 3088 2.7126736111111112e-06
3089 3089 1.0850694444444445e-05
3090 3089 2.7126736111111112e-06
3183 3089 2.7126736111111112e-06
3090 3090 1.0850694444444445e-05
3092 3090 2.7126736111111112e-06
3183 3090 2.7126736111111112e-06
3091 3091 1.0850694444444445e-05
3093 3091 2.7126736111111112e-06
3095 3091 2.7126736111111112e-06
3092 3092 1.0850694444444445e-05
3093 3092 2.7126736111111112e-06
3186 3092 2.7126736111111112e-06
3093 3093 1.0850694444444445e-05
3095 3093 2.7126736111111112e-06
3186 3093 2.7126736111111112e-06
3094 3094 1.0850694444444445e-05
3096 3094 2.7126736111111112e-06
3098 3094 2.7126736111111112e-06
3095 3095 1.0850694444444445e-05
3096 3095 2.7126736111111112e-06
3189 3095 2.7126736111111112e-06
3096 3096 1.0850694444444445e-05
3098 3096 2.7126736111111112e-06
3189 3096 2.7126736111111112e-06
3097 3097 1.0850694444444445e-05
3099 3097 2.7126736111111112e-06
3101 3097 2.7126736111111112e-06
3098 3098 1.0850694444444445e-05
3099 3098 2.7126736111111112e-06
3192 3098 2.7126736111111112e-06
3099 3099 1.0850694444444445e-05
3101 3099 2.7126736111111112e-06
3192 3099 2.7126736111111112e-06
3100 3100 1.0850694444444445e-05
3102 3100 2.7126736111111112e-06
3104 3100 2.7126736111111112e-06
3101 3101 1.0850694444444445e-05
3102 3101 2.7126736111111112e-06
3195 3101 2.7126736111111112e-06
3102 3102 1.0850694444444445e-05
3104 3102 2.7126736111111112e-06
3195 3102 2.7126736111111112e-06
3103 3103 1.0850694444444445e-05
3105 3103 2.7126736111111112e-06
3107 3103 2.7126736111111112e-06
3104 3104 1.0850694444444445e-05
3105 3104 2.7126736111111112e-06
3198 3104 2.7126736111111112e-06
3105 3105 1.0850694444444445e-05
3107 3105 2.7126736111111112e-06
3198 3105 2.7126736111111112e-06
3106 3106 1.0850694444444445e-05
3108 3106 2.7126736111111112e-06
3110 3106 2.7126736111111112e-06
3107 3107 1.0850694444444445e-05
3108 3107 2.7126736111111112e-06
3201 3107 2.7126736111111112e-06
3108 3108 1.0850694444444445e-05
3110 3108 2.7126736111111112e-06
3201 3108 2.7126736111111112e-06
3109 3109 1.0850694444444445e-05
3111 3109 2.7126736111111112e-06
3113 3109 2.7126736111111112e-06
3110 3110 1.0850694444444445e-05
3111 3110 2.7126736111111112e-06
3204 3110 2.7126736111111112e-06
3111 3111 1.0850694444444445e-05
3113 3111 2.7126736111111112e-06
3204 3111 2.7126736111111112e-06
3112 3112 1.0850694444444445e-05
3114 3112 2.7126736111111112e-06
3113 3113 1.0850694444444445e-05
3114 3113 2.7126736111111112e-06
3207 3113 2.7126736111111112e-06
3114 3114 1.0850694444444445e-05
3207 3114 2.7126736111111112e-06
3115 3115 1.0850694444444445e-05
3116 3115 2.7126736111111112e-06
3118 3115 2.7126736111111112e-06
3116 3116 1.0850694444444445e-05
3118 3116 2.7126736111111112e-06
3210 3116 2.7126736111111112e-06
3117 3117 1.0850694444444445e-05
3119 3117 2.7126736111111112e-06
3121 3117 2.7126736111111112e-06
3118 3118 1.0850694444444445e-05
3119 3118 2.7126736111111112e-06
3212 3118 2.7126736111111112e-06
3119 3119 1.0850694444444445e-05
3121 3119 2.7126736111111112e-06
3212 3119 2.7126736111111112e-06
3120 3120 1.0850694444444445e-05
3122 3120 2.7126736111111112e-06
3124 3120 2.7126736111111112e-06
3121 3121 1.0850694444444445e-05
3122 3121 2.7126736111111112e-06
3215 3121 2.7126736111111112e-06
3122 3122 1.0850694444444445e-05
3124 3122 2.7126736111111112e-06
3215 3122 2.7126736111111112e-06
3123 3123 1.0850694444444445e-05
3125 3123 2.7126736111111112e-06
3127 3123 2.7126736111111112e-06
3124 3124 1.0850694444444445e-05
3125 3124 2.7126736111111112e-06
3218 3124 2.7126736111111112e-06
3125 3125 1.0850694444444445e-05
3127 3125 2.7126736111111112e-06
3218 3125 2.7126736111111112e-06
3126 3126 1.0850694444444445e-05
3128 3126 2.7126736111111112e-06
3130 3126 2.7126736111111112e-06
3127 3127 1.0850694444444445e-05
3128 3127 2.7126736111111112e-06
3221 3127 2.7126736111111112e-06
3128 3128 1.0850694444444445e-05
3130 3128 2.7126736111111112e-06
3221 3128 2.7126736111111112e-06
3129 3129 1.0850694444444445e-05
3131 3129 2.7126736111111112e-06
3133 3129 2.7126736111111112e-06
3130 3130 1.0850694444444445e-05
3131 3130 2.7126736111111112e-06
3224 3130 2.7126736111111112e-06
3131 3131 1.0850694444444445e-05
3133 3131 2.7126736111111112e-06
3224 3131 2.7126736111111112e-06
3132 3132 1.0850694444444445e-05
3134 3132 2.7126736111111112e-06
3136 3132 2.7126736111111112e-06
3133 3133 1.0850694444444445e-05
3134 3133 2.7126736111111112e-06
3227 3133 2.7126736111111112e-06
3134 3134 1.0850694444444445e-05
3136 3134 2.7126736111111112e-06
3227 3134 2.7126736111111112e-06
3135 3135 1.0850694444444445e-05
3137 3135 2.7126736111111112e-06
3139 3135 2.7126736111111112e-06
3136 3136 1.0850694444444445e-05
3137 3136 2.7126736111111112e-06
3230 3136 2.7126736111111112e-06
3137 3137 1.0850694444444445e-05
3139 3137 2.7126736111111112e-06
3230 3137 2.7126736111111112e-06
3138 3138 1.0850694444444445e-05
3140 3138 2.7126736111111112e-06
3142 3138 2.7126736111111112e-06
3139 3139 1.0850694444444445e-05
3140 3139 2.7126736111111112e-06
3233 3139 2.7126736111111112e-06
3140 3140 1.0850694444444445e-05
3142 3140 2.7126736111111112e-06
3233 3140 2.7126736111111112e-06
3141 3141 1.0850694444444445e-05
3143 3141 2.7126736111111112e-06
3145 3141 2.7126736111111112e-06
3142 3142 1.0850694444444445e-05
3143 3142 2.7126736111111112e-06
3236 3142 2.7126736111111112e-06
3143 3143 1.0850694444444445e-05
3145 3143 2.7126736111111112e-06
3236 3143 2.7126736111111112e-06
3144 3144 1.0850694444444445e-05
3146 3144 2.7126736111111112e-06
3148 3144 2.7126736111111112e-06
3145 3145 1.0850694444444445e-05
3146 3145 2.7126736111111112e-06
3239 3145 2.7126736111111112e-06
3146 3146 1.0850694444444445e-05
3148 3146 2.7126736111111112e-06
3239 3146 2.7126736111111112e-06
3147 3147 1.0850694444444445e-05
3149 3147 2.7126736111111112e-06
3151 3147 2.7126736111111112e-06
3148 3148 1.0850694444444445e-05
3149 3148 2.7126736111111112e-06
3242 3148 2.7126736111111112e-06
3149 3149 1.0850694444444445e-05
3151 3149 2.7126736111111112e-06
3242 3149 2.7126736111111112e-06
3150 3150 1.0850694444444445e-05
3152 3150 2.7126736111111112e-06
3154 3150 2.7126736111111112e-06
3151 3151 1.0850694444444445e-05
3152 3151 2.7126736111111112e-06
3245 3151 2.7126736111111112e-06
3152 3152 1.0850694444444445e-05
3154 3152 2.7126736111111112e-06
3245 3152 2.7126736111111112e-06
3153 3153 1.0850694444444445e-05
3155 3153 2.7126736111111112e-06
3157 3153 2.7126736111111112e-06
3154 3154 1.0850694444444445e-05
3155 3154 2.7126736111111112e-06
3248 3154 2.7126736111111112e-06
3155 3155 1.0850694444444445e-05
3157 3155 2.7126736111111112e-06
3248 3155 2.7126736111111112e-06
3156 3156 1.0850694444444445e-05
3158 3156 2.7126736111111112e-06
3160 3156 2.7126736111111112e-06
3157 3157 1.0850694444444445e-05
3158 3157 2.7126736111111112e-06
3251 3157 2.7126736111111112e-06
3158 3158 1.0850694444444445e-05
3160 3158 2.7126736111111112e-06
3251 3158 2.7126736111111112e-06
3159 3159 1.0850694444444445e-05
3161 3159 2.7126736111111112e-06
3163 3159 2.7126736111111112e-06
3160 3160 1.0850694444444445e-05
3161 3160 2.7126736111111112e-06
3254 3160 2.7126736111111112e-06
3161 3161 1.0850694444444445e-05
3163 3161 2.7126736111111112e-06
3254 3161 2.7126736111111112e-06
3162 3162 1.0850694444444445e-05
3164 3162 2.7126736111111112e-06
3166 3162 2.7126736111111112e-06
3163 3163 1.0850694444444445e-05
3164 3163 2.7126736111111112e-06
3257 3163 2.7126736111111112e-06
3164 3164 1.0850694444444445e-05
3166 3164 2.7126736111111112e-06
3257 3164 2.7126736111111112e-06
3165 3165 1.0850694444444445e-05
3167 3165 2.7126736111111112e-06
3169 3165 2.7126736111111112e-06
3166 3166 1.0850694444444445e-05
3167 3166 2.7126736111111112e-06
3260 3166 2.7126736111111112e-06
3167 3167 1.0850694444444445e-05
3169 3167 2.7126736111111112e-06
3260 3167 2.7126736111111112e-06
3168 3168 1.0850694444444445e-05
3170 3168 2.7126736111111112e-06
3172 3168 2.7126736111111112e-06
3169 3169 1.0850694444444445e-05
3170 3169 2.7126736111111112e-06
3263 3169 2.7126736111111112e-06
3170 3170 1.0850694444444445e-05
3172 3170 2.7126736111111112e-06
3263 3170 2.7126736111111112e-06
3171 3171 1.0850694444444445e-05
3173 3171 2.7126736111111112e-06
3175 3171 2.7126736111111112e-06
3172 3172 1.0850694444444445e-05
3173 3172 2.7126736111111112e-06
3266 3172 2.7126736111111112e-06
3173 3173 1.0850694444444445e-05
3175 3173 2.7126736111111112e-06
3266 3173 2.7126736111111112e-06
3174 3174 1.0850694444444445e-05
3176 3174 2.7126736111111112e-06
3178 3174 2.7126736111111112e-06
3175 3175 1.0850694444444445e-05
3176 3175 2.7126736111111112e-06
3269 3175 2.7126736111111112e-06
3176 3176 1.0850694444444445e-05
3178 3176 2.7126736111111112e-06
3269 3176 2.7126736111111112e-06
3177 3177 1.0850694444444445e-05
3179 3177 2.7126736111111112e-06
3181 3177 2.7126736111111112e-06
3178 3178 1.0850694444444445e-05
3179 3178 2.7126736111111112e-06
3272 3178 2.7126736111111112e-06
3179 3179 1.0850694444444445e-05
3181 3179 2.7126736111111112e-06
3272 3179 2.7126736111111112e-06
3180 3180 1.0850694444444445e-05
3182 3180 2.7126736111111112e-06
3184 3180 2.7126736111111112e-06
3181 3181 1.0850694444444445e-05
3182 3181 2.7126736111111112e-06
3275 3181 2.7126736111111112e-06
3182 3182 1.0850694444444445e-05
3184 3182 2.7126736111111112e-06
3275 3182 2.7126736111111112e-06
3183 3183 1.0850694444444445e-05
3185 3183 2.7126736111111112e-06
3187 3183 2.7126736111111112e-06
3184 3184 1.0850694444444445e-05
3185 3184 2.7126736111111112e-06
3278 3184 2.7126736111111112e-06
3185 3185 1.0850694444444445e-05
3187 3185 2.7126736111111112e-06
3278 3185 2.7126736111111112e-06
3186 3186 1.0850694444444445e-05
3188 3186 2.7126736111111112e-06
3190 3186 2.7126736111111112e-06
3187 3187 1.0850694444444445e-05
3188 3187 2.7126736111111112e-06
3281 3187 2.7126736111111112e-06
3188 3188 1.0850694444444445e-05
3190 3188 2.7126736111111112e-06
3281 3188 2.7126736111111112e-06
3189 3189 1.0850694444444445e-05
3191 3189 2.7126736111111112e-06
3193 3189 2.7126736111111112e-06
3190 3190 1.0850694444444445e-05
3191 3190 2.7126736111111112e-06
3284 3190 2.7126736111111112e-06
3191 3191 1.0850694444444445e-05
3193 3191 2.7126736111111112e-06
3284 3191 2.7126736111111112e-06
3192 3192 1.0850694444444445e-05
3194 3192 2.7126736111111112e-06
3196 3192 2.7126736111111112e-06
3193 3193 1.0850694444444445e-05
3194 3193 2.7126736111111112e-06
3287 3193 2.7126736111111112e-06
3194 3194 1.0850694444444445e-05
3196 3194 2.7126736111111112e-06
3287 3194 2.7126736111111112e-06
3195 3195 1.0850694444444445e-05
3197 3195 2.7126736111111112e-06
3199 3195 2.7126736111111112e-06
3196 3196 1.0850694444444445e-05
3197 3196 2.7126736111111112e-06
3290 3196 2.7126736111111112e-06
3197 3197 1.0850694444444445e-05
3199 3197 2.7126736111111112e-06
3290 3197 2.7126736111111112e-06
3198 3198 1.0850694444444445e-05
3200 3198 2.7126736111111112e-06
3202 3198 2.7126736111111112e-06
3199 3199 1.0850694444444445e-05
3200 3199 2.7126736111111112e-06
3293 3199 2.7126736111111112e-06
3200 3200 1.0850694444444445e-05
3202 3200 2.7126736111111112e-06
3293 3200 2.7126736111111112e-06
3201 3201 1.0850694444444445e-05
3203 3201 2.7126736111111112e-06
3205 3201 2.7126736111111112e-06
3202 3202 1.0850694444444445e-05
3203 3202 2.7126736111111112e-06
3296 3202 2.7126736111111112e-06
3203 3203 1.0850694444444445e-05
3205 3203 2.7126736111111112e-06
3296 3203 2.7126736111111112e-06
3204 3204 1.0850694444444445e-05
3206 3204 2.7126736111111112e-06
3208 3204 2.7126736111111112e-06
3205 3205 1.0850694444444445e-05
3206 3205 2.7126736111111112e-06
3299 3205 2.7126736111111112e-06
3206 3206 1.0850694444444445e-05
3208 3206 2.7126736111111112e-06
3299 3206 2.7126736111111112e-06
3207 3207 1.0850694444444445e-05
3209 3207 2.7126736111111112e-06
3208 3208 1.0850694444444445e-05
3209 3208 2.7126736111111112e-06
3302 3208 2.7126736111111112e-06
3209 3209 1.0850694444444445e-05
3302 3209 2.7126736111111112e-06
3210 3210 1.0850694444444445e-05
3211 3210 2.7126736111111112e-06
3213 3210 2.7126736111111112e-06
3211 3211 1.0850694444444445e-05
3213 3211 2.7126736111111112e-06
3305 3211 2.7126736111111112e-06
3212 3212 1.0850694444444445e-05
3214 3212 2.7126736111111112e-06
3216 3212 2.7126736111111112e-06
3213 3213 1.0850694444444445e-05
3214 3213 2.7126736111111112e-06
3307 3213 2.7126736111111112e-06
3214 3214 1.0850694444444445e-05
3216 3214 2.7126736111111112e-06
3307 3214 2.7126736111111112e-06
3215 3215 1.0850694444444445e-05
3217 3215 2.7126736111111112e-06
3219 3215 2.7126736111111112e-06
3216 3216 1.0850694444444445e-05
3217 3216 2.7126736111111112e-06
3310 3216 2.7126736111111112e-06
3217 3217 1.0850694444444445e-05
3219 3217 2.7126736111111112e-06
3310 3217 2.7126736111111112e-06
3218 3218 1.0850694444444445e-05
3220 3218 2.7126736111111112e-06
3222 3218 2.7126736111111112e-06
3219 3219 1.0850694444444445e-05
3220 3219 2.7126736111111112e-06
3313 3219 2.7126736111111112e-06
3220 3220 1.0850694444444445e-05
3222 3220 2.7126736111111112e-06
3313 3220 2.7126736111111112e-06
3221 3221 1.0850694444444445e-05
3223 3221 2.7126736111111112e-06
3225 3221 2.7126736111111112e-06
3222 3222 1.0850694444444445e-05
3223 3222 2.7126736111111112e-06
3316 3222 2.7126736111111112e-06
3223 3223 1.0850694444444445e-05
3225 3223 2.7126736111111112e-06
3316 3223 2.7126736111111112e-06
3224 3224 1.0850694444444445e-05
3226 3224 2.7126736111111112e-06
3228 3224 2.7126736111111112e-06
3225 3225 1.0850694444444445e-05
3226 3225 2.7126736111111112e-06
3319 3225 2.7126736111111112e-06
3226 3226 1.0850694444444445e-05
3228 3226 2.7126736111111112e-06
3319 3226 2.7126736111111112e-06
3227 3227 1.0850694444444445e-05
3229 3227 2.7126736111111112e-06
3231 3227 2.7126736111111112e-06
3228 3228 1.0850694444444445e-05
3229 3228 2.7126736111111112e-06
3322 3228 2.7126736111111112e-06
3229 3229 1.0850694444444445e-05
3231 3229 2.7126736111111112e-06
3322 3229 2.7126736111111112e-06
3230 3230 1.0850694444444445e-05
3232 3230 2.7126736111111112e-06
3234 3230 2.7126736111111112e-06
3231 3231 1.0850694444444445e-05
3232 3231 2.7126736111111112e-06
3325 3231 2.7126736111111112e-06
3232 3232 1.0850694444444445e-05
3234 3232 2.7126736111111112e-06
3325 3232 2.7126736111111112e-06
3233 3233 1.0850694444444445e-05
3235 3233 2.7126736111111112e-06
3237 3233 2.7126736111111112e-06
3234 3234 1.0850694444444445e-05
3235 3234 2.7126736111111112e-06
3328 3234 2.7126736111111112e-06
3235 3235 1.0850694444444445e-05
3237 3235 2.7126736111111112e-06
3328 3235 2.7126736111111112e-06
3236 3236 1.0850694444444445e-05
3238 3236 2.7126736111111112e-06
3240 3236 2.7126736111111112e-06
3237 3237 1.0850694444444445e-05
3238 3237 2.7126736111111112e-06
3331 3237 2.7126736111111112e-06
3238 3238 1.0850694444444445e-05
3240 3238 2.7126736111111112e-06
3331 3238 2.7126736111111112e-06
3239 3239 1.0850694444444445e-05
3241 3239 2.7126736111111112e-06
3243 3239 2.7126736111111112e-06
3240 3240 1.0850694444444445e-05
3241 3240 2.7126736111111112e-06
3334 3240 2.7126736111111112e-06
3241 3241 1.0850694444444445e-05
3243 3241 2.7126736111111112e-06
3334 3241 2.7126736111111112e-06
3242 3242 1.0850694444444445e-05
3244 3242 2.7126736111111112e-06
3246 3242 2.7126736111111112e-06
3243 3243 1.0850694444444445e-05
3244 3243 2.7126736111111112e-06
3337 3243 2.7126736111111112e-06
3244 3244 1.0850694444444445e-05
3246 3244 2.7126736111111112e-06
3337 3244 2.7126736111111112e-06
3245 3245 1.0850694444444445e-05
3247 3245 2.7126736111111112e-06
3249 3245 2.7126736111111112e-06
3246 3246 1.0850694444444445e-05
3247 3246 2.7126736111111112e-06
3340 3246 2.7126736111111112e-06
3247 3247 1.0850694444444445e-05
3249 3247 2.7126736111111112e-06
3340 3247 2.7126736111111112e-06
3248 3248 1.0850694444444445e-05
3250 3248 2.7126736111111112e-06
3252 3248 2.7126736111111112e-06
3249 3249 1.0850694444444445e-05
3250 3249 2.7126736111111112e-06
3343 3249 2.7126736111111112e-06
3250 3250 1.0850694444444445e-05
3252 3250 2.7126736111111112e-06
3343 3250 2.7126736111111112e-06
3251 3251 1.0850694444444445e-05
3253 3251 2.7126736111111112e-06
3255 3251 2.7126736111111112e-06
3252 3252 1.0850694444444445e-05
3253 3252 2.7126736111111112e-06
3346 3252 2.7126736111111112e-06
3253 3253 1.0850694444444445e-05
3255 3253 2.7126736111111112e-06
3346 3253 2.7126736111111112e-06
3254 3254 1.0850694444444445e-05
3256 3254 2.7126736111111112e-06
3258 3254 2.7126736111111112e-06
3255 3255 1.0850694444444445e-05
3256 3255 2.7126736111111112e-06
3349 3255 2.7126736111111112e-06
3256 3256 1.0850694444444445e-05
3258 3256 2.7126736111111112e-06
3349 3256 2.7126736111111112e-06
3257 3257 1.0850694444444445e-05
3259 3257 2.7126736111111112e-06
3261 3257 2.7126736111111112e-06
3258 3258 1.0850694444444445e-05
3259 3258 2.7126736111111112e-06
3352 3258 2.7126736111111112e-06
3259 3259 1.0850694444444445e-05
3261 3259 2.7126736111111112e-06
3352 3259 2.7126736111111112e-06
3260 3260 1.0850694444444445e-05
3262 3260 2.7126736111111112e-06
3264 3260 2.7126736111111112e-06
3261 3261 1.0850694444444445e-05
3262 3261 2.7126736111111112e-06
3355 3261 2.7126736111111112e-06
3262 3262 1.0850694444444445e-05
3264 3262 2.7126736111111112e-06
3355 3262 2.7126736111111112e-06
3263 3263 1.0850694444444445e-05
3265 3263 2.7126736111111112e-06
3267 3263 2.7126736111111112e-06
3264 3264 1.0850694444444445e-05
3265 3264 2.7126736111111112e-06
3358 3264 2.7126736111111112e-06
3265 3265 1.0850694444444445e-05
3267 3265 2.7126736111111112e-06
3358 3265 2.7126736111111112e-06
3266 3266 1.0850694444444445e-05
3268 3266 2.7126736111111112e-06
3270 3266 2.7126736111111112e-06
3267 3267 1.0850694444444445e-05
3268 3267 2.7126736111111112e-06
3361 3267 2.7126736111111112e-06
3268 3268 1.0850694444444445e-05
3270 3268 2.7126736111111112e-06
3361 3268 2.7126736111111112e-06
3269 3269 1.0850694444444445e-05
3271 3269 2.7126736111111112e-06
3273 3269 2.7126736111111112e-06
3270 3270 1.0850694444444445e-05
3271 3270 2.7126736111111112e-06
3364 3270 2.7126736111111112e-06
3271 3271 1.0850694444444445e-05
3273 3271 2.7126736111111112e-06
3364 3271 2.7126736111111112e-06
3272 3272 1.0850694444444445e-05
3274 3272 2.7126736111111112e-06
3276 3272 2.7126736111111112e-06
3273 3273 1.0850694444444445e-05
3274 3273 2.7126736111111112e-06
3367 3273 2.7126736111111112e-06
3274 3274 1.0850694444444445e-05
3276 3274 2.7126736111111112e-06
3367 3274 2.7126736111111112e-06
3275 3275 1.0850694444444445e-05
3277 3275 2.7126736111111112e-06
3279 3275 2.7126736111111112e-06
3276 3276 1.0850694444444445e-05
3277 3276 2.7126736111111112e-06
3370 3276 2.7126736111111112e-06
3277 3277 1.0850694444444445e-05
3279 3277 2.7126736111111112e-06
3370 3277 2.7126736111111112e-06
3278 3278 1.0850694444444445e-05
3280 3278 2.7126736111111112e-06
3282 3278 2.7126736111111112e-06
3279 3279 1.0850694444444445e-05
3280 3279 2.7126736111111112e-06
3373 3279 2.7126736111111112e-06
3280 3280 1.0850694444444445e-05
3282 3280 2.7126736111111112e-06
3373 3280 2.7126736111111112e-06
3281 3281 1.0850694444444445e-05
3283 3281 2.7126736111111112e-06
3285 3281 2.7126736111111112e-06
3282 3282 1.0850694444444445e-05
3283 3282 2.7126736111111112e-06
3376 3282 2.7126736111111112e-06
3283 3283 1.0850694444444445e-05
3285 3283 2.7126736111111112e-06
3376 3283 2.7126736111111112e-06
3284 3284 1.0850694444444445e-05
3286 3284 2.7126736111111112e-06
3288 3284 2.7126736111111112e-06
3285 3285 1.0850694444444445e-05
3286 3285 2.7126736111111112e-06
3379 3285 2.7126736111111112e-06
3286 3286 1.0850694444444445e-05
3288 3286 2.7126736111111112e-06
3379 3286 2.7126736111111112e-06
3287 3287 1.0850694444444445e-05
3289 3287 2.7126736111111112e-06
3291 3287 2.7126736111111112e-06
3288 3288 1.0850694444444445e-05
3289 3288 2.7126736111111112e-06
3382 3288 2.7126736111111112e-06
3289 3289 1.0850694444444445e-05
3291 3289 2.7126736111111112e-06
3382 3289 2.7126736111111112e-06
3290 3290 1.0850694444444445e-05
3292 3290 2.7126736111111112e-06
3294 3290 2.7126736111111112e-06
3291 3291 1.0850694444444445e-05
3292 3291 2.7126736111111112e-06
3385 3291 2.7126736111111112e-06
3292 3292 1.0850694444444445e-05
3294 3292 2.7126736111111112e-06
3385 3292 2.7126736111111112e-06
3293 3293 1.0850694444444445e-05
3295 3293 2.7126736111111112e-06
3297 3293 2.7126736111111112e-06
3294 3294 1.0850694444444445e-05
3295 3294 2.7126736111111112e-06
3388 3294 2.7126736111111112e-06
3295 3295 1.0850694444444445e-05
3297 3295 2.7126736111111112e-06
3388 3295 2.7126736111111112e-06
3296 3296 1.0850694444444445e-05
3298 3296 2.7126736111111112e-06
3300 3296 2.7126736111111112e-06
3297 3297 1.0850694444444445e-05
3298 3297 2.7126736111111112e-06
3391 3297 2.7126736111111112e-06
3298 3298 1.0850694444444445e-05
3300 3298 2.7126736111111112e-06
3391 3298 2.7126736111111112e-06
3299 3299 1.0850694444444445e-05
3301 3299 2.7126736111111112e-06
3303 3299 2.7126736111111112e-06
3300 3300 1.0850694444444445e-05
3301 3300 2.7126736111111112e-06
3394 3300 2.7126736111111112e-06
3301 3301 1.0850694444444445e-05
3303 3301 2.7126736111111112e-06
3394 3301 2.7126736111111112e-06
3302 3302 1.0850694444444445e-05
3304 3302 2.7126736111111112e-06
3303 3303 1.0850694444444445e-05
3304 3303 2.7126736111111112e-06
3397 3303 2.7126736111111112e-06
3304 3304 1.0850694444444445e-05
3397 3304 2.7126736111111112e-06
3305 3305 1.0850694444444445e-05
3306 3305 2.7126736111111112e-06
3308 3305 2.7126736111111112e-06
3306 3306 1.0850694444444445e-05
3308 3306 2.7126736111111112e-06
3400 3306 2.7126736111111112e-06
3307 3307 1.0850694444444445e-05
3309 3307 2.7126736111111112e-06
3311 3307 2.7126736111111112e-06
3308 3308 1.0850694444444445e-05
3309 3308 2.7126736111111112e-06
3402 3308 2.7126736111111112e-06
3309 3309 1.0850694444444445e-05
3311 3309 2.7126736111111112e-06
3402 3309 2.7126736111111112e-06
3310 3310 1.0850694444444445e-05
3312 3310 2.7126736111111112e-06
3314 3310 2.7126736111111112e-06
3311 3311 1.0850694444444445e-05
3312 3311 2.7126736111111112e-06
3405 3311 2.7126736111111112e-06
3312 3312 1.0850694444444445e-05
3314 3312 2.7126736111111112e-06
3405 3312 2.7126736111111112e-06
3313 3313 1.0850694444444445e-05
3315 3313 2.7126736111111112e-06
3317 3313 2.7126736111111112e-06
3314 3314 1.0850694444444445e-05
3315 3314 2.7126736111111112e-06
3408 3314 2.7126736111111112e-06
3315 3315 1.0850694444444445e-05
3317 3315 2.7126736111111112e-06
3408 3315 2.7126736111111112e-06
3316 3316 1.0850694444444445e-05
3318 3316 2.7126736111111112e-06
3320 3316 2.7126736111111112e-06
3317 3317 1.0850694444444445e-05
3318 3317 2.7126736111111112e-06
3411 3317 2.7126736111111112e-06
3318 3318 1.0850694444444445e-05
3320 3318 2.7126736111111112e-06
3411 3318 2.7126736111111112e-06
3319 3319 1.0850694444444445e-05
3321 3319 2.7126736111111112e-06
3323 3319 2.7126736111111112e-06
3320 3320 1.0850694444444445e-05
3321 3320 2.7126736111111112e-06
3414 3320 2.7126736111111112e-06
3321 3321 1.0850694444444445e-05
3323 3321 2.7126736111111112e-06
3414 3321 2.7126736111111112e-06
3322 3322 1.0850694444444445e-05
3324 3322 2.7126736111111112e-06
3326 3322 2.7126736111111112e-06
3323 3323 1.0850694444444445e-05
3324 3323 2.7126736111111112e-06
3417 3323 2.7126736111111112e-06
3324 3324 1.0850694444444445e-05
3326 3324 2.7126736111111112e-06
3417 3324 2.7126736111111112e-06
3325 3325 1.0850694444444445e-05
3327 3325 2.7126736111111112e-06
3329 3325 2.7126736111111112e-06
3326 3326 1.0850694444444445e-05
3327 3326 2.7126736111111112e-06
3420 3326 2.7126736111111112e-06
3327 3327 1.0850694444444445e-05
3329 3327 2.7126736111111112e-06
3420 3327 2.7126736111111112e-06
3328 3328 1.0850694444444445e-05
3330 3328 2.7126736111111112e-06
3332 3328 2.7126736111111112e-06
3329 3329 1.0850694444444445e-05
3330 3329 2.7126736111111112e-06
3423 3329 2.7126736111111112e-06
3330 3330 1.0850694444444445e-05
3332 3330 2.7126736111111112e-06
3423 3330 2.7126736111111112e-06
3331 3331 1.0850694444444445e-05
3333 3331 2.7126736111111112e-06
3335 3331 2.7126736111111112e-06
3332 3332 1.0850694444444445e-05
3333 3332 2.7126736111111112e-06
3426 3332 2.7126736111111112e-06
3333 3333 1.0850694444444445e-05
3335 3333 2.7126736111111112e-06
3426 3333 2.7126736111111112e-06
3334 3334 1.0850694444444445e-05
3336 3334 2.7126736111111112e-06
3338 3334 2.7126736111111112e-06
3335 3335 1.0850694444444445e-05
3336 3335 2.7126736111111112e-06
3429 3335 2.7126736111111112e-06
3336 3336 1.0850694444444445e-05
3338 3336 2.7126736111111112e-06
3429 3336 2.7126736111111112e-06
3337 3337 1.0850694444444445e-05
3339 3337 2.7126736111111112e-06
3341 3337 2.7126736111111112e-06
3338 3338 1.0850694444444445e-05
3339 3338 2.7126736111111112e-06
3432 3338 2.7126736111111112e-06
3339 3339 1.0850694444444445e-05
3341 3339 2.7126736111111112e-06
3432 3339 2.7126736111111112e-06
3340 3340 1.0850694444444445e-05
3342 3340 2.7126736111111112e-06
3344 3340 2.7126736111111112e-06
3341 3341 1.0850694444444445e-05
3342 3341 2.7126736111111112e-06
3435 3341 2.7126736111111112e-06
3342 3342 1.0850694444444445e-05
3344 3342 2.7126736111111112e-06
3435 3342 2.7126736111111112e-06
3343 3343 1.0850694444444445e-05
3345 3343 2.7126736111111112e-06
3347 3343 2.7126736111111112e-06
3344 3344 1.0850694444444445e-05
3345 3344 2.7126736111111112e-06
3438 3344 2.7126736111111112e-06
3345 3345 1.0850694444444445e-05
3347 3345 2.7126736111111112e-06
3438 3345 2.7126736111111112e-06
3346 3346 1.0850694444444445e-05
3348 3346 2.7126736111111112e-06
3350 3346 2.7126736111111112e-06
3347 3347 1.0850694444444445e-05
3348 3347 2.7126736111111112e-06
3441 3347 2.7126736111111112e-06
3348 3348 1.0850694444444445e-05
3350 3348 2.7126736111111112e-06
3441 3348 2.7126736111111112e-06
3349 3349 1.0850694444444445e-05
3351 3349 2.7126736111111112e-06
3353 3349 2.7126736111111112e-06
3350 3350 1.0850694444444445e-05
3351 3350 2.7126736111111112e-06
3444 3350 2.7126736111111112e-06
3351 3351 1.0850694444444445e-05
3353 3351 2.7126736111111112e-06
3444 3351 2.7126736111111112e-06
3352 3352 1.0850694444444445e-05
3354 3352 2.7126736111111112e-06
3356 3352 2.7126736111111112e-06
3353 3353 1.0850694444444445e-05
3354 3353 2.7126736111111112e-06
3447 3353 2.7126736111111112e-06
3354 3354 1.0850694444444445e-05
3356 3354 2.7126736111111112e-06
3447 3354 2.7126736111111112e-06
3355 3355 1.0850694444444445e-05
3357 3355 2.7126736111111112e-06
3359 3355 2.7126736111111112e-06
3356 3356 1.0850694444444445e-05
3357 3356 2.7126736111111112e-06
3450 3356 2.7126736111111112e-06
3357 3357 1.0850694444444445e-05
3359 3357 2.7126736111111112e-06
3450 3357 2.7126736111111112e-06
3358 3358 1.0850694444444445e-05
3360 3358 2.7126736111111112e-06
3362 3358 2.7126736111111112e-06
3359 3359 1.0850694444444445e-05
3360 3359 2.7126736111111112e-06
3453 3359 2.7126736111111112e-06
3360 3360 1.0850694444444445e-05
3362 3360 2.7126736111111112e-06
3453 3360 2.7126736111111112e-06
3361 3361 1.0850694444444445e-05
3363 3361 2.7126736111111112e-06
3365 3361 2.7126736111111112e-06
3362 3362 1.0850694444444445e-05
3363 3362 2.7126736111111112e-06
3456 3362 2.7126736111111112e-06
3363 3363 1.0850694444444445e-05
3365 3363 2.7126736111111112e-06
3456 3363 2.7126736111111112e-06
3364 3364 1.0850694444444445e-05
3366 3364 2.7126736111111112e-06
3368 3364 2.7126736111111112e-06
3365 3365 1.0850694444444445e-05
3366 3365 2.7126736111111112e-06
3459 3365 2.7126736111111112e-06
3366 3366 1.0850694444444445e-05
3368 3366 2.7126736111111112e-06
3459 3366 2.7126736111111112e-06
3367 3367 1.0850694444444445e-05
3369 3367 2.7126736111111112e-06
3371 3367 2.7126736111111112e-06
3368 3368 1.0850694444444445e-05
3369 3368 2.7126736111111112e-06
3462 3368 2.7126736111111112e-06
3369 3369 1.0850694444444445e-05
3371 3369 2.7126736111111112e-06
3462 3369 2.7126736111111112e-06
3370 3370 1.0850694444444445e-05
3372 3370 2.7126736111111112e-06
3374 3370 2.7126736111111112e-06
3371 3371 1.0850694444444445e-05
3372 3371 2.7126736111111112e-06
3465 3371 2.7126736111111112e-06
3372 3372 1.0850694444444445e-05
3374 3372 2.7126736111111112e-06
3465 3372 2.7126736111111112e-06
3373 3373 1.0850694444444445e-05
3375 3373 2.7126736111111112e-06
3377 3373 2.7126736111111112e-06
3374 3374 1.0850694444444445e-05
3375 3374 2.7126736111111112e-06
3468 3374 2.7126736111111112e-06
3375 3375 1.0850694444444445e-05
3377 3375 2.7126736111111112e-06
3468 3375 2.7126736111111112e-06
3376 3376 1.0850694444444445e-05
3378 3376 2.7126736111111112e-06
3380 3376 2.7126736111111112e-06
3377 3377 1.0850694444444445e-05
3378 3377 2.7126736111111112e-06
3471 3377 2.7126736111111112e-06
3378 3378 1.0850694444444445e-05
3380 3378 2.7126736111111112e-06
3471 3378 2.7126736111111112e-06
3379 3379 1.0850694444444445e-05
3381 3379 2.7126736111111112e-06
3383 3379 2.7126736111111112e-06
3380 3380 1.0850694444444445e-05
3381 3380 2.7126736111111112e-06
3474 3380 2.7126736111111112e-06
3381 3381 1.0850694444444445e-05
3383 3381 2.7126736111111112e-06
3474 3381 2.7126736111111112e-06
3382 3382 1.0850694444444445e-05
3384 3382 2.7126736111111112e-06
3386 3382 2.7126736111111112e-06
3383 3383 1.0850694444444445e-05
3384 3383 2.7126736111111112e-06
3477 3383 2.7126736111111112e-06
3384 3384 1.0850694444444445e-05
3386 3384 2.7126736111111112e-06
3477 3384 2.7126736111111112e-06
3385 3385 1.0850694444444445e-05
3387 3385 2.7126736111111112e-06
3389 3385 2.7126736111111112e-06
3386 3386 1.0850694444444445e-05
3387 3386 2.7126736111111112e-06
3480 3386 2.7126736111111112e-06
3387 3387 1.0850694444444445e-05
3389 3387 2.7126736111111112e-06
3480 3387 2.7126736111111112e-06
3388 3388 1.0850694444444445e-05
3390 3388 2.7126736111111112e-06
3392 3388 2.7126736111111112e-06
3389 3389 1.0850694444444445e-05
3390 3389 2.7126736111111112e-06
3483 3389 2.7126736111111112e-06
3390 3390 1.0850694444444445e-05
3392 3390 2.7126736111111112e-06
3483 3390 2.7126736111111112e-06
3391 3391 1.0850694444444445e-05
3393 3391 2.7126736111111112e-06
3395 3391 2.7126736111111112e-06
3392 3392 1.0850694444444445e-05
3393 3392 2.7126736111111112e-06
3486 3392 2.7126736111111112e-06
3393 3393 1.0850694444444445e-05
3395 3393 2.7126736111111112e-06
3486 3393 2.7126736111111112e-06
3394 3394 1.0850694444444445e-05
3396 3394 2.7126736111111112e-06
3398 3394 2.7126736111111112e-06
3395 3395 1.0850694444444445e-05
3396 3395 2.7126736111111112e-06
3489 3395 2.7126736111111112e-06
3396 3396 1.0850694444444445e-05
3398 3396 2.7126736111111112e-06
3489 3396 2.7126736111111112e-06
3397 3397 1.0850694444444445e-05
3399 3397 2.7126736111111112e-06
3398 3398 1.0850694444444445e-05
3399 3398 2.7126736111111112e-06
3492 3398 2.7126736111111112e-06
3399 3399 1.0850694444444445e-05
3492 3399 2.7126736111111112e-06
3400 3400 1.0850694444444445e-05
3401 3400 2.7126736111111112e-06
3403 3400 2.7126736111111112e-06
3401 3401 1.0850694444444445e-05
3403 3401 2.7126736111111112e-06
3495 3401 2.7126736111111112e-06
3402 3402 1.0850694444444445e-05
3404 3402 2.7126736111111112e-06
3406 3402 2.7126736111111112e-06
3403 3403 1.0850694444444445e-05
3404 3403 2.7126736111111112e-06
3497 3403 2.7126736111111112e-06
3404 3404 1.0850694444444445e-05
3406 3404 2.7126736111111112e-06
3497 3404 2.7126736111111112e-06
3405 3405 1.0850694444444445e-05
3407 3405 2.7126736111111112e-06
3409 3405 2.7126736111111112e-06
3406 3406 1.0850694444444445e-05
3407 3406 2.7126736111111112e-06
3500 3406 2.7126736111111112e-06
3407 3407 1.0850694444444445e-05
3409 3407 2.7126736111111112e-06
3500 3407 2.7126736111111112e-06
3408 3408 1.0850694444444445e-05
3410 3408 2.7126736111111112e-06
3412 3408 2.7126736111111112e-06
3409 3409 1.0850694444444445e-05
3410 3409 2.7126736111111112e-06
3503 3409 2.7126736111111112e-06
3410 3410 1.0850694444444445e-05
3412 3410 2.7126736111111112e-06
3503 3410 2.7126736111111112e-06
3411 3411 1.0850694444444445e-05
3413 3411 2.7126736111111112e-06
3415 3411 2.7126736111111112e-06
3412 3412 1.0850694444444445e-05
3413 3412 2.7126736111111112e-06
3506 3412 2.7126736111111112e-06
3413 3413 1.0850694444444445e-05
3415 3413 2.7126736111111112e-06
3506 3413 2.7126736111111112e-06
3414 3414 1.0850694444444445e-05
3416 3414 2.7126736111111112e-06
3418 3414 2.7126736111111112e-06
3415 3415 1.0850694444444445e-05
3416 3415 2.7126736111111112e-06
3509 3415 2.7126736111111112e-06
3416 3416 1.0850694444444445e-05
3418 3416 2.7126736111111112e-06
3509 3416 2.7126736111111112e-06
3417 3417 1.0850694444444445e-05
3419 3417 2.7126736111111112e-06
3421 3417 2.7126736111111112e-06
3418 3418 1.0850694444444445e-05
3419 3418 2.7126736111111112e-06
3512 3418 2.7126736111111112e-06
3419 3419 1.0850694444444445e-05
3421 3419 2.7126736111111112e-06
3512 3419 2.7126736111111112e-06
3420 3420 1.0850694444444445e-05
3422 3420 2.7126736111111112e-06
3424 3420 2.7126736111111112e-06
3421 3421 1.0850694444444445e-05
3422 3421 2.7126736111111112e-06
3515 3421 2.7126736111111112e-06
3422 3422 1.0850694444444445e-05
3424 3422 2.7126736111111112e-06
3515 3422 2.7126736111111112e-06
3423 3423 1.0850694444444445e-05
3425 3423 2.7126736111111112e-06
3427 3423 2.7126736111111112e-06
3424 3424 1.0850694444444445e-05
3425 3424 2.7126736111111112e-06
3518 3424 2.7126736111111112e-06
3425 3425 1.0850694444444445e-05
3427 3425 2.7126736111111112e-06
3518 3425 2.7126736111111112e-06
3426 3426 1.0850694444444445e-05
3428 3426 2.7126736111111112e-06
3430 3426 2.7126736111111112e-06
3427 3427 1.0850694444444445e-05
3428 3427 2.7126736111111112e-06
3521 3427 2.7126736111111112e-06
3428 3428 1.0850694444444445e-05
3430 3428 2.7126736111111112e-06
3521 3428 2.7126736111111112e-06
3429 3429 1.0850694444444445e-05
3431 3429 2.7126736111111112e-06
3433 3429 2.7126736111111112e-06
3430 3430 1.0850694444444445e-05
3431 3430 2.7126736111111112e-06
3524 3430 2.7126736111111112e-06
3431 3431 1.0850694444444445e-05
3433 3431 2.7126736111111112e-06
3524 3431 2.7126736111111112e-06
3432 3432 1.0850694444444445e-05
3434 3432 2.7126736111111112e-06
3436 3432 2.7126736111111112e-06
3433 3433 1.0850694444444445e-05
3434 3433 2.7126736111111112e-06
3527 3433 2.7126736111111112e-06
3434 3434 1.0850694444444445e-05
3436 3434 2.7126736111111112e-06
3527 3434 2.7126736111111112e-06
3435 3435 1.0850694444444445e-05
3437 3435 2.7126736111111112e-06
3439 3435 2.7126736111111112e-06
3436 3436 1.0850694444444445e-05
3437 3436 2.7126736111111112e-06
3530 3436 2.7126736111111112e-06
3437 3437 1.0850694444444445e-05
3439 3437 2.7126736111111112e-06
3530 3437 2.7126736111111112e-06
3438 3438 1.0850694444444445e-05
3440 3438 2.7126736111111112e-06
3442 3438 2.7126736111111112e-06
3439 3439 1.0850694444444445e-05
3440 3439 2.7126736111111112e-06
3533 3439 2.7126736111111112e-06
3440 3440 1.0850694444444445e-05
3442 3440 2.7126736111111112e-06
3533 3440 2.7126736111111112e-06
3441 3441 1.0850694444444445e-05
3443 3441 2.7126736111111112e-06
3445 3441 2.7126736111111112e-06
3442 3442 1.0850694444444445e-05
3443 3442 2.7126736111111112e-06
3536 3442 2.7126736111111112e-06
3443 3443 1.0850694444444445e-05
3445 3443 2.7126736111111112e-06
3536 3443 2.7126736111111112e-06
3444 3444 1.0850694444444445e-05
3446 3444 2.7126736111111112e-06
3448 3444 2.7126736111111112e-06
3445 3445 1.0850694444444445e-05
3446 3445 2.7126736111111112e-06
3539 3445 2.7126736111111112e-06
3446 3446 1.0850694444444445e-05
3448 3446 2.7126736111111112e-06
3539 3446 2.7126736111111112e-06
3447 3447 1.0850694444444445e-05
3449 3447 2.7126736111111112e-06
3451 3447 2.7126736111111112e-06
3448 3448 1.0850694444444445e-05
3449 3448 2.7126736111111112e-06
3542 3448 2.7126736111111112e-06
3449 3449 1.0850694444444445e-05
3451 3449 2.7126736111111112e-06
3542 3449 2.7126736111111112e-06
3450 3450 1.0850694444444445e-05
3452 3450 2.7126736111111112e-06
3454 3450 2.7126736111111112e-06
3451 3451 1.0850694444444445e-05
3452 3451 2.7126736111111112e-06
3545 3451 2.7126736111111112e-06
3452 3452 1.0850694444444445e-05
3454 3452 2.7126736111111112e-06
3545 3452 2.7126736111111112e-06
3453 3453 1.0850694444444445e-05
3455 3453 2.7126736111111112e-06
3457 3453 2.7126736111111112e-06
3454 3454 1.0850694444444445e-05
3455 3454 2.7126736111111112e-06
3548 3454 2.7126736111111112e-06
3455 3455 1.0850694444444445e-05
3457 3455 2.7126736111111112e-06
3548 3455 2.7126736111111112e-06
3456 3456 1.0850694444444445e-05
3458 3456 2.7126736111111112e-06
3460 3456 2.7126736111111112e-06
3457 3457 1.0850694444444445e-05
3458 3457 2.7126736111111112e-06
3551 3457 2.7126736111111112e-06
3458 3458 1.0850694444444445e-05
3460 3458 2.7126736111111112e-06
3551 3458 2.7126736111111112e-06
3459 3459 1.0850694444444445e-05
3461 3459 2.7126736111111112e-06
3463 3459 2.7126736111111112e-06
3460 3460 1.0850694444444445e-05
3461 3460 2.7126736111111112e-06
3554 3460 2.7126736111111112e-06
3461 3461 1.0850694444444445e-05
3463 3461 2.7126736111111112e-06
3554 3461 2.7126736111111112e-06
3462 3462 1.0850694444444445e-05
3464 3462 2.7126736111111112e-06
3466 3462 2.7126736111111112e-06
3463 3463 1.0850694444444445e-05
3464 3463 2.7126736111111112e-06
3557 3463 2.7126736111111112e-06
3464 3464 1.0850694444444445e-05
3466 3464 2.7126736111111112e-06
3557 3464 2.7126736111111112e-06
3465 3465 1.0850694444444445e-05
3467 3465 2.7126736111111112e-06
3469 3465 2.7126736111111112e-06
3466 3466 1.0850694444444445e-05
3467 3466 2.7126736111111112e-06
3560 3466 2.7126736111111112e-06
3467 3467 1.0850694444444445e-05
3469 3467 2.7126736111111112e-06
3560 3467 2.7126736111111112e-06
3468 3468 1.0850694444444445e-05
3470 3468 2.7126736111111112e-06
3472 3468 2.7126736111111112e-06
3469 3469 1.0850694444444445e-05
3470 3469 2.7126736111111112e-06
3563 3469 2.7126736111111112e-06
3470 3470 1.0850694444444445e-05
3472 3470 2.7126736111111112e-06
3563 3470 2.7126736111111112e-06
3471 3471 1.0850694444444445e-05
3473 3471 2.7126736111111112e-06
3475 3471 2.7126736111111112e-06
3472 3472 1.0850694444444445e-05
3473 3472 2.7126736111111112e-06
3566 3472 2.7126736111111112e-06
3473 3473 1.0850694444444445e-05
3475 3473 2.7126736111111112e-06
3566 3473 2.7126736111111112e-06
3474 3474 1.0850694444444445e-05
3476 3474 2.7126736111111112e-06
3478 3474 2.7126736111111112e-06
3475 3475 1.0850694444444445e-05
3476 3475 2.7126736111111112e-06
3569 3475 2.7126736111111112e-06
3476 3476 1.0850694444444445e-05
3478 3476 2.7126736111111112e-06
3569 3476 2.7126736111111112e-06
3477 3477 1.0850694444444445e-05
3479 3477 2.7126736111111112e-06
3481 3477 2.7126736111111112e-06
3478 3478 1.0850694444444445e-05
3479 3478 2.7126736111111112e-06
3572 3478 2.7126736111111112e-06
3479 3479 1.0850694444444445e-05
3481 3479 2.7126736111111112e-06
3572 3479 2.7126736111111112e-06
3480 3480 1.0850694444444445e-05
3482 3480 2.7126736111111112e-06
3484 3480 2.7126736111111112e-06
3481 3481 1.0850694444444445e-05
3482 3481 2.7126736111111112e-06
3575 3481 2.7126736111111112e-06
3482 3482 1.0850694444444445e-05
3484 3482 2.7126736111111112e-06
3575 3482 2.7126736111111112e-06
3483 3483 1.0850694444444445e-05
3485 3483 2.7126736111111112e-06
3487 3483 2.7126736111111112e-06
3484 3484 1.0850694444444445e-05
3485 3484 2.7126736111111112e-06
3578 3484 2.7126736111111112e-06
3485 3485 1.0850694444444445e-05
3487 3485 2.7126736111111112e-06
3578 3485 2.7126736111111112e-06
3486 3486 1.0850694444444445e-05
3488 3486 2.7126736111111112e-06
3490 3486 2.7126736111111112e-06
3487 3487 1.0850694444444445e-05
3488 3487 2.7126736111111112e-06
3581 3487 2.7126736111111112e-06
3488 3488 1.0850694444444445e-05
3490 3488 2.7126736111111112e-06
3581 3488 2.7126736111111112e-06
3489 3489 1.0850694444444445e-05
3491 3489 2.7126736111111112e-06
3493 3489 2.7126736111111112e-06
3490 3490 1.0850694444444445e-05
3491 3490 2.7126736111111112e-06
3584 3490 2.7126736111111112e-06
3491 3491 1.0850694444444445e-05
3493 3491 2.7126736111111112e-06
3584 3491 2.7126736111111112e-06
3492 3492 1.0850694444444445e-05
3494 3492 2.7126736111111112e-06
3493 3493 1.0850694444444445e-05
3494 3493 2.7126736111111112e-06
3587 3493 2.7126736111111112e-06
3494 3494 1.0850694444444445e-05
3587 3494 2.7126736111111112e-06
3495 3495 1.0850694444444445e-05
3496 3495 2.7126736111111112e-06
3498 3495 2.7126736111111112e-06
3496 3496 1.0850694444444445e-05
3498 3496 2.7126736111111112e-06
3590 3496 2.7126736111111112e-06
3497 3497 1.0850694444444445e-05
3499 3497 2.7126736111111112e-06
3501 3497 2.7126736111111112e-06
3498 3498 1.0850694444444445e-05
3499 3498 2.7126736111111112e-06
3592 3498 2.7126736111111112e-06
3499 3499 1.0850694444444445e-05
3501 3499 2.7126736111111112e-06
3592 3499 2.7126736111111112e-06
3500 3500 1.0850694444444445e-05
3502 3500 2.7126736111111112e-06
3504 3500 2.7126736111111112e-06
3501 3501 1.0850694444444445e-05
3502 3501 2.7126736111111112e-06
3595 3501 2.7126736111111112e-06
3502 3502 1.0850694444444445e-05
3504 3502 2.7126736111111112e-06
3595 3502 2.7126736111111112e-06
3503 3503 1.0850694444444445e-05
3505 3503 2.7126736111111112e-06
3507 3503 2.7126736111111112e-06
3504 3504 1.0850694444444445e-05
3505 3504 2.7126736111111112e-06
3598 3504 2.7126736111111112e-06
3505 3505 1.0850694444444445e-05
3507 3505 2.7126736111111112e-06
3598 3505 2.7126736111111112e-06
3506 3506 1.0850694444444445e-05
3508 3506 2.7126736111111112e-06
3510 3506 2.7126736111111112e-06
3507 3507 1.0850694444444445e-05
3508 3507 2.7126736111111112e-06
3601 3507 2.7126736111111112e-06
3508 3508 1.0850694444444445e-05
3510 3508 2.7126736111111112e-06
3601 3508 2.7126736111111112e-06
3509 3509 1.0850694444444445e-05
3511 3509 2.7126736111111112e-06
3513 3509 2.7126736111111112e-06
3510 3510 1.0850694444444445e-05
3511 3510 2.7126736111111112e-06
3604 3510 2.7126736111111112e-06
3511 3511 1.0850694444444445e-05
3513 3511 2.7126736111111112e-06
3604 3511 2.7126736111111112e-06
3512 3512 1.0850694444444445e-05
3514 3512 2.7126736111111112e-06
3516 3512 2.7126736111111112e-06
3513 3513 1.0850694444444445e-05
3514 3513 2.7126736111111112e-06
3607 3513 2.7126736111111112e-06
3514 3514 1.0850694444444445e-05
3516 3514 2.7126736111111112e-06
3607 3514 2.7126736111111112e-06
3515 3515 1.0850694444444445e-05
3517 3515 2.7126736111111112e-06
3519 3515 2.7126736111111112e-06
3516 3516 1.0850694444444445e-05
3517 3516 2.7126736111111112e-06
3610 3516 2.7126736111111112e-06
3517 3517 1.0850694444444445e-05
3519 3517 2.7126736111111112e-06
3610 3517 2.7126736111111112e-06
3518 3518 1.0850694444444445e-05
3520 3518 2.7126736111111112e-06
3522 3518 2.7126736111111112e-06
3519 3519 1.0850694444444445e-05
3520 3519 2.7126736111111112e-06
3613 3519 2.7126736111111112e-06
3520 3520 1.0850694444444445e-05
3522 3520 2.7126736111111112e-06
3613 3520 2.7126736111111112e-06
3521 3521 1.0850694444444445e-05
3523 3521 2.7126736111111112e-06
3525 3521 2.7126736111111112e-06
3522 3522 1.0850694444444445e-05
3523 3522 2.7126736111111112e-06
3616 3522 2.7126736111111112e-06
3523 3523 1.0850694444444445e-05
3525 3523 2.7126736111111112e-06
3616 3523 2.7126736111111112e-06
3524 3524 1.0850694444444445e-05
3526 3524 2.7126736111111112e-06
3528 3524 2.7126736111111112e-06
3525 3525 1.0850694444444445e-05
3526 3525 2.7126736111111112e-06
3619 3525 2.7126736111111112e-06
3526 3526 1.0850694444444445e-05
3528 3526 2.7126736111111112e-06
3619 3526 2.7126736111111112e-06
3527 3527 1.0850694444444445e-05
3529 3527 2.7126736111111112e-06
3531 3527 2.7126736111111112e-06
3528 3528 1.0850694444444445e-05
3529 3528 2.7126736111111112e-06
3622 3528 2.7126736111111112e-06
3529 3529 1.0850694444444445e-05
3531 3529 2.7126736111111112e-06
3622 3529 2.7126736111111112e-06
3530 3530 1.0850694444444445e-05
3532 3530 2.7126736111111112e-06
3534 3530 2.7126736111111112e-06
3531 3531 1.0850694444444445e-05
3532 3531 2.7126736111111112e-06
3625 3531 2.7126736111111112e-06
3532 3532 1.0850694444444445e-05
3534 3532 2.7126736111111112e-06
3625 3532 2.7126736111111112e-06
3533 3533 1.0850694444444445e-05
3535 3533 2.7126736111111112e-06
3537 3533 2.7126736111111112e-06
3534 3534 1.0850694444444445e-05
3535 3534 2.7126736111111112e-06
3628 3534 2.7126736111111112e-06
3535 3535 1.0850694444444445e-05
3537 3535 2.7126736111111112e-06
3628 3535 2.7126736111111112e-06
3536 3536 1.0850694444444445e-05
3538 3536 2.7126736111111112e-06
3540 3536 2.7126736111111112e-06
3537 3537 1.0850694444444445e-05
3538 3537 2.7126736111111112e-06
3631 3537 2.7126736111111112e-06
3538 3538 1.0850694444444445e-05
3540 3538 2.7126736111111112e-06
3631 3538 2.7126736111111112e-06
3539 3539 1.0850694444444445e-05
3541 3539 2.7126736111111112e-06
3543 3539 2.7126736111111112e-06
3540 3540 1.0850694444444445e-05
3541 3540 2.7126736111111112e-06
3634 3540 2.7126736111111112e-06
3541 3541 1.0850694444444445e-05
3543 3541 2.7126736111111112e-06
3634 3541 2.7126736111111112e-06
3542 3542 1.0850694444444445e-05
3544 3542 2.7126736111111112e-06
3546 3542 2.7126736111111112e-06
3543 3543 1.0850694444444445e-05
3544 3543 2.7126736111111112e-06
3637 3543 2.7126736111111112e-06
3544 3544 1.0850694444444445e-05
3546 3544 2.7126736111111112e-06
3637 3544 2.7126736111111112e-06
3545 3545 1.0850694444444445e-05
3547 3545 2.7126736111111112e-06
3549 3545 2.7126736111111112e-06
3546 3546 1.0850694444444445e-05
3547 3546 2.7126736111111112e-06
3640 3546 2.7126736111111112e-06
3547 3547 1.0850694444444445e-05
3549 3547 2.7126736111111112e-06
3640 3547 2.7126736111111112e-06
3548 3548 1.0850694444444445e-05
3550 3548 2.7126736111111112e-06
3552 3548 2.7126736111111112e-06
3549 3549 1.0850694444444445e-05
3550 3549 2.7126736111111112e-06
3643 3549 2.7126736111111112e-06
3550 3550 1.0850694444444445e-05
3552 3550 2.7126736111111112e-06
3643 3550 2.7126736111111112e-06
3551 3551 1.0850694444444445e-05
3553 3551 2.7126736111111112e-06
3555 3551 2.7126736111111112e-06
3552 3552 1.0850694444444445e-05
3553 3552 2.7126736111111112e-06
3646 3552 2.7126736111111112e-06
3553 3553 1.0850694444444445e-05
3555 3553 2.7126736111111112e-06
3646 3553 2.7126736111111112e-06
3554 3554 1.0850694444444445e-05
3556 3554 2.7126736111111112e-06
3558 3554 2.7126736111111112e-06
3555 3555 1.0850694444444445e-05
3556 3555 2.7126736111111112e-06
3649 3555 2.7126736111111112e-06
3556 3556 1.0850694444444445e-05
3558 3556 2.7126736111111112e-06
3649 3556 2.7126736111111112e-06
3557 3557 1.0850694444444445e-05
3559 3557 2.7126736111111112e-06
3561 3557 2.7126736111111112e-06
3558 3558 1.0850694444444445e-05
3559 3558 2.7126736111111112e-06
3652 3558 2.7126736111111112e-06
3559 3559 1.0850694444444445e-05
3561 3559 2.7126736111111112e-06
3652 3559 2.7126736111111112e-06
3560 3560 1.0850694444444445e-05
3562 3560 2.7126736111111112e-06
3564 3560 2.7126736111111112e-06
3561 3561 1.0850694444444445e-05
3562 3561 2.7126736111111112e-06
3655 3561 2.7126736111111112e-06
3562 3562 1.0850694444444445e-05
3564 3562 2.7126736111111112e-06
3655 3562 2.7126736111111112e-06
3563 3563 1.0850694444444445e-05
3565 3563 2.7126736111111112e-06
3567 3563 2.7126736111111112e-06
3564 3564 1.0850694444444445e-05
3565 3564 2.7126736111111112e-06
3658 3564 2.7126736111111112e-06
3565 3565 1.0850694444444445e-05
3567 3565 2.7126736111111112e-06
3658 3565 2.7126736111111112e-06
3566 3566 1.0850694444444445e-05
3568 3566 2.7126736111111112e-06
3570 3566 2.7126736111111112e-06
3567 3567 1.0850694444444445e-05
3568 3567 2.7126736111111112e-06
3661 3567 2.7126736111111112e-06
3568 3568 1.0850694444444445e-05
3570 3568 2.7126736111111112e-06
3661 3568 2.7126736111111112e-06
3569 3569 1.0850694444444445e-05
3571 3569 2.7126736111111112e-06
3573 3569 2.7126736111111112e-06
3570 3570 1.0850694444444445e-05
3571 3570 2.7126736111111112e-06
3664 3570 2.7126736111111112e-06
3571 3571 1.0850694444444445e-05
3573 3571 2.7126736111111112e-06
3664 3571 2.7126736111111112e-06
3572 3572 1.0850694444444445e-05
3574 3572 2.7126736111111112e-06
3576 3572 2.7126736111111112e-06
3573 3573 1.0850694444444445e-05
3574 3573 2.7126736111111112e-06
3667 3573 2.7126736111111112e-06
3574 3574 1.0850694444444445e-05
3576 3574 2.7126736111111112e-06
3667 3574 2.7126736111111112e-06
3575 3575 1.0850694444444445e-05
3577 3575 2.7126736111111112e-06
3579 3575 2.7126736111111112e-06
3576 3576 1.0850694444444445e-05
3577 3576 2.7126736111111112e-06
3670 3576 2.7126736111111112e-06
3577 3577 1.0850694444444445e-05
3579 3577 2.7126736111111112e-06
3670 3577 2.7126736111111112e-06
3578 3578 1.0850694444444445e-05
3580 3578 2.7126736111111112e-06
3582 3578 2.7126736111111112e-06
3579 3579 1.0850694444444445e-05
3580 3579 2.7126736111111112e-06
3673 3579 2.7126736111111112e-06
3580 3580 1.0850694444444445e-05
3582 3580 2.7126736111111112e-06
3673 3580 2.7126736111111112e-06
3581 3581 1.0850694444444445e-05
3583 3581 2.7126736111111112e-06
3585 3581 2.7126736111111112e-06
3582 3582 1.0850694444444445e-05
3583 3582 2.7126736111111112e-06
3676 3582 2.7126736111111112e-06
3583 3583 1.0850694444444445e-05
3585 3583 2.7126736111111112e-06
3676 3583 2.7126736111111112e-06
3584 3584 1.0850694444444445e-05
3586 3584 2.7126736111111112e-06
3588 3584 2.7126736111111112e-06
3585 3585 1.0850694444444445e-05
3586 3585 2.7126736111111112e-06
3679 3585 2.7126736111111112e-06
3586 3586 1.0850694444444445e-05
3588 3586 2.7126736111111112e-06
3679 3586 2.7126736111111112e-06
3587 3587 1.0850694444444445e-05
3589 3587 2.7126736111111112e-06
3588 3588 1.0850694444444445e-05
3589 3588 2.7126736111111112e-06
3682 3588 2.7126736111111112e-06
3589 3589 1.0850694444444445e-05
3682 3589 2.7126736111111112e-06
3590 3590 1.0850694444444445e-05
3591 3590 2.7126736111111112e-06
3593 3590 2.7126736111111112e-06
3591 3591 1.0850694444444445e-05
3593 3591 2.7126736111111112e-06
3685 3591 2.7126736111111112e-06
3592 3592 1.0850694444444445e-05
3594 3592 2.7126736111111112e-06
3596 3592 2.7126736111111112e-06
3593 3593 1.0850694444444445e-05
3594 3593 2.7126736111111112e-06
3687 3593 2.7126736111111112e-06
3594 3594 1.0850694444444445e-05
3596 3594 2.7126736111111112e-06
3687 3594 2.7126736111111112e-06
3595 3595 1.0850694444444445e-05
3597 3595 2.7126736111111112e-06
3599 3595 2.7126736111111112e-06
3596 3596 1.0850694444444445e-05
3597 3596 2.7126736111111112e-06
3690 3596 2.7126736111111112e-06
3597 3597 1.0850694444444445e-05
3599 3597 2.7126736111111112e-06
3690 3597 2.7126736111111112e-06
3598 3598 1.0850694444444445e-05
3600 3598 2.7126736111111112e-06
3602 3598 2.7126736111111112e-06
3599 3599 1.0850694444444445e-05
3600 3599 2.7126736111111112e-06
3693 3599 2.7126736111111112e-06
3600 3600 1.0850694444444445e-05
3602 3600 2.7126736111111112e-06
3693 3600 2.7126736111111112e-06
3601 3601 1.0850694444444445e-05
3603 3601 2.7126736111111112e-06
3605 3601 2.7126736111111112e-06
3602 3602 1.0850694444444445e-05
3603 3602 2.7126736111111112e-06
3696 3602 2.7126736111111112e-06
3603 3603 1.0850694444444445e-05
3605 3603 2.7126736111111112e-06
3696 3603 2.7126736111111112e-06
3604 3604 1.0850694444444445e-05
3606 3604 2.7126736111111112e-06
3608 3604 2.7126736111111112e-06
3605 3605 1.0850694444444445e-05
3606 3605 2.7126736111111112e-06
3699 3605 2.7126736111111112e-06
3606 3606 1.0850694444444445e-05
3608 3606 2.7126736111111112e-06
3699 3606 2.7126736111111112e-06
3607 3607 1.0850694444444445e-05
3609 3607 2.7126736111111112e-06
3611 3607 2.7126736111111112e-06
3608 3608 1.0850694444444445e-05
3609 3608 2.7126736111111112e-06
3702 3608 2.7126736111111112e-06
3609 3609 1.0850694444444445e-05
3611 3609 2.7126736111111112e-06
3702 3609 2.7126736111111112e-06
3610 3610 1.0850694444444445e-05
3612 3610 2.7126736111111112e-06
3614 3610 2.7126736111111112e-06
3611 3611 1.0850694444444445e-05
3612 3611 2.7126736111111112e-06
3705 3611 2.7126736111111112e-06
3612 3612 1.0850694444444445e-05
3614 3612 2.7126736111111112e-06
3705 3612 2.7126736111111112e-06
3613 3613 1.0850694444444445e-05
3615 3613 2.7126736111111112e-06
3617 3613 2.7126736111111112e-06
3614 3614 1.0850694444444445e-05
3615 3614 2.7126736111111112e-06
3708 3614 2.7126736111111112e-06
3615 3615 1.0850694444444445e-05
3617 3615 2.7126736111111112e-06
3708 3615 2.7126736111111112e-06
3616 3616 1.0850694444444445e-05
3618 3616 2.7126736111111112e-06
3620 3616 2.7126736111111112e-06
3617 3617 1.0850694444444445e-05
3618 3617 2.7126736111111112e-06
3711 3617 2.7126736111111112e-06
3618 3618 1.0850694444444445e-05
3620 3618 2.7126736111111112e-06
3711 3618 2.7126736111111112e-06
3619 3619 1.0850694444444445e-05
3621 3619 2.7126736111111112e-06
3623 3619 2.7126736111111112e-06
3620 3620 1.0850694444444445e-05
3621 3620 2.7126736111111112e-06
3714 3620 2.7126736111111112e-06
3621 3621 1.0850694444444445e-05
3623 3621 2.7126736111111112e-06
3714 3621 2.7126736111111112e-06
3622 3622 1.0850694444444445e-05
3624 3622 2.7126736111111112e-06
3626 3622 2.7126736111111112e-06
3623 3623 1.0850694444444445e-05
3624 3623 2.7126736111111112e-06
3717 3623 2.7126736111111112e-06
3624 3624 1.0850694444444445e-05
3626 3624 2.7126736111111112e-06
3717 3624 2.7126736111111112e-06
3625 3625 1.0850694444444445e-05
3627 3625 2.7126736111111112e-06
3629 3625 2.7126736111111112e-06
3626 3626 1.0850694444444445e-05
3627 3626 2.7126736111111112e-06
3720 3626 2.7126736111111112e-06
3627 3627 1.0850694444444445e-05
3629 3627 2.7126736111111112e-06
3720 3627 2.7126736111111112e-06
3628 3628 1.0850694444444445e-05
3630 3628 2.7126736111111112e-06
3632 3628 2.7126736111111112e-06
3629 3629 1.0850694444444445e-05
3630 3629 2.7126736111111112e-06
3723 3629 2.7126736111111112e-06
3630 3630 1.0850694444444445e-05
3632 3630 2.7126736111111112e-06
3723 3630 2.7126736111111112e-06
3631 3631 1.0850694444444445e-05
3633 3631 2.7126736111111112e-06
3635 3631 2.7126736111111112e-06
3632 3632 1.0850694444444445e-05
3633 3632 2.7126736111111112e-06
3726 3632 2.7126736111111112e-06
3633 3633 1.0850694444444445e-05
3635 3633 2.7126736111111112e-06
3726 3633 2.7126736111111112e-06
3634 3634 1.0850694444444445e-05
3636 3634 2.7126736111111112e-06
3638 3634 2.7126736111111112e-06
3635 3635 1.0850694444444445e-05
3636 3635 2.7126736111111112e-06
3729 3635 2.7126736111111112e-06
3636 3636 1.0850694444444445e-05
3638 3636 2.7126736111111112e-06
3729 3636 2.7126736111111112e-06
3637 3637 1.0850694444444445e-05
3639 3637 2.7126736111111112e-06
3641 3637 2.7126736111111112e-06
3638 3638 1.0850694444444445e-05
3639 3638 2.7126736111111112e-06
3732 3638 2.7126736111111112e-06
3639 3639 1.0850694444444445e-05
3641 3639 2.7126736111111112e-06
3732 3639 2.7126736111111112e-06
3640 3640 1.0850694444444445e-05
3642 3640 2.7126736111111112e-06
3644 3640 2.7126736111111112e-06
3641 3641 1.0850694444444445e-05
3642 3641 2.7126736111111112e-06
3735 3641 2.7126736111111112e-06
3642 3642 1.0850694444444445e-05
3644 3642 2.7126736111111112e-06
3735 3642 2.7126736111111112e-06
3643 3643 1.0850694444444445e-05
3645 3643 2.7126736111111112e-06
3647 3643 2.7126736111111112e-06
3644 3644 1.0850694444444445e-05
3645 3644 2.7126736111111112e-06
3738 3644 2.7126736111111112e-06
3645 3645 1.0850694444444445e-05
3647 3645 2.7126736111111112e-06
3738 3645 2.7126736111111112e-06
3646 3646 1.0850694444444445e-05
3648 3646 2.7126736111111112e-06
3650 3646 2.7126736111111112e-06
3647 3647 1.0850694444444445e-05
3648 3647 2.7126736111111112e-06
3741 3647 2.7126736111111112e-06
3648 3648 1.0850694444444445e-05
3650 3648 2.7126736111111112e-06
3741 3648 2.7126736111111112e-06
3649 3649 1.0850694444444445e-05
3651 3649 2.7126736111111112e-06
3653 3649 2.7126736111111112e-06
3650 3650 1.0850694444444445e-05
3651 3650 2.7126736111111112e-06
3744 3650 2.7126736111111112e-06
3651 3651 1.0850694444444445e-05
3653 3651 2.7126736111111112e-06
3744 3651 2.7126736111111112e-06
3652 3652 1.0850694444444445e-05
3654 3652 2.7126736111111112e-06
3656 3652 2.7126736111111112e-06
3653 3653 1.0850694444444445e-05
3654 3653 2.7126736111111112e-06
3747 3653 2.7126736111111112e-06
3654 3654 1.0850694444444445e-05
3656 3654 2.7126736111111112e-06
3747 3654 2.7126736111111112e-06
3655 3655 1.0850694444444445e-05
3657 3655 2.7126736111111112e-06
3659 3655 2.7126736111111112e-06
3656 3656 1.0850694444444445e-05
3657 3656 2.7126736111111112e-06
3750 3656 2.7126736111111112e-06
3657 3657 1.0850694444444445e-05
3659 3657 2.7126736111111112e-06
3750 3657 2.7126736111111112e-06
3658 3658 1.0850694444444445e-05
3660 3658 2.7126736111111112e-06
3662 3658 2.7126736111111112e-06
3659 3659 1.0850694444444445e-05
3660 3659 2.7126736111111112e-06
3753 3659 2.7126736111111112e-06
3660 3660 1.0850694444444445e-05
3662 3660 2.7126736111111112e-06
3753 3660 2.7126736111111112e-06
3661 3661 1.0850694444444445e-05
3663 3661 2.7126736111111112e-06
3665 3661 2.7126736111111112e-06
3662 3662 1.0850694444444445e-05
3663 3662 2.7126736111111112e-06
3756 3662 2.7126736111111112e-06
3663 3663 1.0850694444444445e-05
3665 3663 2.7126736111111112e-06
3756 3663 2.7126736111111112e-06
3664 3664 1.0850694444444445e-05
3666 3664 2.7126736111111112e-06
3668 3664 2.7126736111111112e-06
3665 3665 1.0850694444444445e-05
3666 3665 2.7126736111111112e-06
3759 3665 2.7126736111111112e-06
3666 3666 1.0850694444444445e-05
3668 3666 2.7126736111111112e-06
3759 3666 2.7126736111111112e-06
3667 3667 1.0850694444444445e-05
3669 3667 2.7126736111111112e-06
3671 3667 2.7126736111111112e-06
3668 3668 1.0850694444444445e-05
3669 3668 2.7126736111111112e-06
3762 3668 2.7126736111111112e-06
3669 3669 1.0850694444444445e-05
3671 3669 2.7126736111111112e-06
3762 3669 2.7126736111111112e-06
3670 3670 1.0850694444444445e-05
3672 3670 2.7126736111111112e-06
3674 3670 2.7126736111111112e-06
3671 3671 1.0850694444444445e-05
3672 3671 2.7126736111111112e-06
3765 3671 2.7126736111111112e-06
3672 3672 1.0850694444444445e-05
3674 3672 2.7126736111111112e-06
3765 3672 2.7126736111111112e-06
3673 3673 1.0850694444444445e-05
3675 3673 2.7126736111111112e-06
3677 3673 2.7126736111111112e-06
3674 3674 1.0850694444444445e-05
3675 3674 2.7126736111111112e-06
3768 3674 2.7126736111111112e-06
3675 3675 1.0850694444444445e-05
3677 3675 2.7126736111111112e-06
3768 3675 2.7126736111111112e-06
3676 3676 1.0850694444444445e-05
3678 3676 2.7126736111111112e-06
3680 3676 2.7126736111111112e-06
3677 3677 1.0850694444444445e-05
3678 3677 2.7126736111111112e-06
3771 3677 2.7126736111111112e-06
3678 3678 1.0850694444444445e-05
3680 3678 2.7126736111111112e-06
3771 3678 2.7126736111111112e-06
3679 3679 1.0850694444444445e-05
3681 3679 2.7126736111111112e-06
3683 3679 2.7126736111111112e-06
3680 3680 1.0850694444444445e-05
3681 3680 2.7126736111111112e-06
3774 3680 2.7126736111111112e-06
3681 3681 1.0850694444444445e-05
3683 3681 2.7126736111111112e-06
3774 3681 2.7126736111111112e-06
3682 3682 1.0850694444444445e-05
3684 3682 2.7126736111111112e-06
3683 3683 1.0850694444444445e-05
3684 3683 2.7126736111111112e-06
3777 3683 2.7126736111111112e-06
3684 3684 1.0850694444444445e-05
3777 3684 2.7126736111111112e-06
3685 3685 1.0850694444444445e-05
3686 3685 2.7126736111111112e-06
3688 3685 2.7126736111111112e-06
3686 3686 1.0850694444444445e-05
3688 3686 2.7126736111111112e-06
3780 3686 2.7126736111111112e-06
3687 3687 1.0850694444444445e-05
3689 3687 2.7126736111111112e-06
3691 3687 2.7126736111111112e-06
3688 3688 1.0850694444444445e-05
3689 3688 2.7126736111111112e-06
3782 3688 2.7126736111111112e-06
3689 3689 1.0850694444444445e-05
3691 3689 2.7126736111111112e-06
3782 3689 2.7126736111111112e-06
3690 3690 1.0850694444444445e-05
3692 3690 2.7126736111111112e-06
3694 3690 2.7126736111111112e-06
3691 3691 1.0850694444444445e-05
3692 3691 2.7126736111111112e-06
3785 3691 2.7126736111111112e-06
3692 3692 1.0850694444444445e-05
3694 3692 2.7126736111111112e-06
3785 3692 2.7126736111111112e-06
3693 3693 1.0850694444444445e-05
3695 3693 2.7126736111111112e-06
3697 3693 2.7126736111111112e-06
3694 3694 1.0850694444444445e-05
3695 3694 2.7126736111111112e-06
3788 3694 2.7126736111111112e-06
3695 3695 1.0850694444444445e-05
3697 3695 2.7126736111111112e-06
3788 3695 2.7126736111111112e-06
3696 3696 1.0850694444444445e-05
3698 3696 2.7126736111111112e-06
3700 3696 2.7126736111111112e-06
3697 3697 1.0850694444444445e-05
3698 3697 2.7126736111111112e-06
3791 3697 2.7126736111111112e-06
3698 3698 1.0850694444444445e-05
3700 3698 2.7126736111111112e-06
3791 3698 2.7126736111111112e-06
3699 3699 1.0850694444444445e-05
3701 3699 2.7126736111111112e-06
3703 3699 2.7126736111111112e-06
3700 3700 1.0850694444444445e-05
3701 3700 2.7126736111111112e-06
3794 3700 2.7126736111111112e-06
3701 3701 1.0850694444444445e-05
3703 3701 2.7126736111111112e-06
3794 3701 2.7126736111111112e-06
3702 3702 1.0850694444444445e-05
3704 3702 2.7126736111111112e-06
3706 3702 2.7126736111111112e-06
3703 3703 1.0850694444444445e-05
3704 3703 2.7126736111111112e-06
3797 3703 2.7126736111111112e-06
3704 3704 1.0850694444444445e-05
3706 3704 2.7126736111111112e-06
3797 3704 2.7126736111111112e-06
3705 3705 1.0850694444444445e-05
3707 3705 2.7126736111111112e-06
3709 3705 2.7126736111111112e-06
3706 3706 1.0850694444444445e-05
3707 3706 2.7126736111111112e-06
3800 3706 2.7126736111111112e-06
3707 3707 1.0850694444444445e-05
3709 3707 2.7126736111111112e-06
3800 3707 2.7126736111111112e-06
3708 3708 1.0850694444444445e-05
3710 3708 2.7126736111111112e-06
3712 3708 2.7126736111111112e-06
3709 3709 1.0850694444444445e-05
3710 3709 2.7126736111111112e-06
3803 3709 2.7126736111111112e-06
3710 3710 1.0850694444444445e-05
3712 3710 2.7126736111111112e-06
3803 3710 2.7126736111111112e-06
3711 3711 1.0850694444444445e-05
3713 3711 2.7126736111111112e-06
3715 3711 2.7126736111111112e-06
3712 3712 1.0850694444444445e-05
3713 3712 2.7126736111111112e-06
3806 3712 2.7126736111111112e-06
3713 3713 1.0850694444444445e-05
3715 3713 2.7126736111111112e-06
3806 3713 2.7126736111111112e-06
3714 3714 1.0850694444444445e-05
3716 3714 2.7126736111111112e-06
3718 3714 2.7126736111111112e-06
3715 3715 1.0850694444444445e-05
3716 3715 2.7126736111111112e-06
3809 3715 2.7126736111111112e-06
3716 3716 1.0850694444444445e-05
3718 3716 2.7126736111111112e-06
3809 3716 2.7126736111111112e-06
3717 3717 1.0850694444444445e-05
3719 3717 2.7126736111111112e-06
3721 3717 2.7126736111111112e-06
3718 3718 1.0850694444444445e-05
3719 3718 2.7126736111111112e-06
3812 3718 2.7126736111111112e-06
3719 3719 1.0850694444444445e-05
3721 3719 2.7126736111111112e-06
3812 3719 2.7126736111111112e-06
3720 3720 1.0850694444444445e-05
3722 3720 2.7126736111111112e-06
3724 3720 2.7126736111111112e-06
3721 3721 1.0850694444444445e-05
3722 3721 2.7126736111111112e-06
3815 3721 2.7126736111111112e-06
3722 3722 1.0850694444444445e-05
3724 3722 2.7126736111111112e-06
3815 3722 2.7126736111111112e-06
3723 3723 1.0850694444444445e-05
3725 3723 2.7126736111111112e-06
3727 3723 2.7126736111111112e-06
3724 3724 1.0850694444444445e-05
3725 3724 2.7126736111111112e-06
3818 3724 2.7126736111111112e-06
3725 3725 1.0850694444444445e-05
3727 3725 2.7126736111111112e-06
3818 3725 2.7126736111111112e-06
3726 3726 1.0850694444444445e-05
3728 3726 2.7126736111111112e-06
3730 3726 2.7126736111111112e-06
3727 3727 1.0850694444444445e-05
3728 3727 2.7126736111111112e-06
3821 3727 2.7126736111111112e-06
3728 3728 1.0850694444444445e-05
3730 3728 2.7126736111111112e-06
3821 3728 2.7126736111111112e-06
3729 3729 1.0850694444444445e-05
3731 3729 2.7126736111111112e-06
3733 3729 2.7126736111111112e-06
3730 3730 1.0850694444444445e-05
3731 3730 2.7126736111111112e-06
3824 3730 2.7126736111111112e-06
3731 3731 1.0850694444444445e-05
3733 3731 2.7126736111111112e-06
3824 3731 2.7126736111111112e-06
3732 3732 1.0850694444444445e-05
3734 3732 2.7126736111111112e-06
3736 3732 2.7126736111111112e-06
3733 3733 1.0850694444444445e-05
3734 3733 2.7126736111111112e-06
3827 3733 2.7126736111111112e-06
3734 3734 1.0850694444444445e-05
3736 3734 2.7126736111111112e-06
3827 3734 2.7126736111111112e-06
3735 3735 1.0850694444444445e-05
3737 3735 2.7126736111111112e-06
3739 3735 2.7126736111111112e-06
3736 3736 1.0850694444444445e-05
3737 3736 2.7126736111111112e-06
3830 3736 2.7126736111111112e-06
3737 3737 1.0850694444444445e-05
3739 3737 2.7126736111111112e-06
3830 3737 2.7126736111111112e-06
3738 3738 1.0850694444444445e-05
3740 3738 2.7126736111111112e-06
3742 3738 2.7126736111111112e-06
3739 3739 1.0850694444444445e-05
3740 3739 2.7126736111111112e-06
3833 3739 2.7126736111111112e-06
3740 3740 1.0850694444444445e-05
3742 3740 2.7126736111111112e-06
3833 3740 2.7126736111111112e-06
3741 3741 1.0850694444444445e-05
3743 3741 2.7126736111111112e-06
3745 3741 2.7126736111111112e-06
3742 3742 1.0850694444444445e-05
3743 3742 2.7126736111111112e-06
3836 3742 2.7126736111111112e-06
3743 3743 1.0850694444444445e-05
3745 3743 2.7126736111111112e-06
3836 3743 2.7126736111111112e-06
3744 3744 1.0850694444444445e-05
3746 3744 2.7126736111111112e-06
3748 3744 2.7126736111111112e-06
3745 3745 1.0850694444444445e-05
3746 3745 2.7126736111111112e-06
3839 3745 2.7126736111111112e-06
3746 3746 1.0850694444444445e-05
3748 3746 2.7126736111111112e-06
3839 3746 2.7126736111111112e-06
3747 3747 1.0850694444444445e-05
3749 3747 2.7126736111111112e-06
3751 3747 2.7126736111111112e-06
3748 3748 1.0850694444444445e-05
3749 3748 2.7126736111111112e-06
3842 3748 2.7126736111111112e-06
3749 3749 1.0850694444444445e-05
3751 3749 2.7126736111111112e-06
3842 3749 2.7126736111111112e-06
3750 3750 1.0850694444444445e-05
3752 3750 2.7126736111111112e-06
3754 3750 2.7126736111111112e-06
3751 3751 1.0850694444444445e-05
3752 3751 2.7126736111111112e-06
3845 3751 2.7126736111111112e-06
3752 3752 1.0850694444444445e-05
3754 3752 2.7126736111111112e-06
3845 3752 2.7126736111111112e-06
3753 3753 1.0850694444444445e-05
3755 3753 2.7126736111111112e-06
3757 3753 2.7126736111111112e-06
3754 3754 1.0850694444444445e-05
3755 3754 2.7126736111111112e-06
3848 3754 2.7126736111111112e-06
3755 3755 1.0850694444444445e-05
3757 3755 2.7126736111111112e-06
3848 3755 2.7126736111111112e-06
3756 3756 1.0850694444444445e-05
3758 3756 2.7126736111111112e-06
3760 3756 2.7126736111111112e-06
3757 3757 1.0850694444444445e-05
3758 3757 2.7126736111111112e-06
3851 3757 2.7126736111111112e-06
3758 3758 1.0850694444444445e-05
3760 3758 2.7126736111111112e-06
3851 3758 2.7126736111111112e-06
3759 3759 1.0850694444444445e-05
3761 3759 2.7126736111111112e-06
3763 3759 2.7126736111111112e-06
3760 3760 1.0850694444444445e-05
3761 3760 2.7126736111111112e-06
3854 3760 2.7126736111111112e-06
3761 3761 1.0850694444444445e-05
3763 3761 2.7126736111111112e-06
3854 3761 2.7126736111111112e-06
3762 3762 1.0850694444444445e-05
3764 3762 2.7126736111111112e-06
3766 3762 2.7126736111111112e-06
3763 3763 1.0850694444444445e-05
3764 3763 2.7126736111111112e-06
3857 3763 2.7126736111111112e-06
3764 3764 1.0850694444444445e-05
3766 3764 2.7126736111111112e-06
3857 3764 2.7126736111111112e-06
3765 3765 1.0850694444444445e-05
3767 3765 2.7126736111111112e-06
3769 3765 2.7126736111111112e-06
3766 3766 1.0850694444444445e-05
3767 3766 2.7126736111111112e-06
3860 3766 2.7126736111111112e-06
3767 3767 1.0850694444444445e-05
3769 3767 2.7126736111111112e-06
3860 3767 2.7126736111111112e-06
3768 3768 1.0850694444444445e-05
3770 3768 2.7126736111111112e-06
3772 3768 2.7126736111111112e-06
3769 3769 1.0850694444444445e-05
3770 3769 2.7126736111111112e-06
3863 3769 2.7126736111111112e-06
3770 3770 1.0850694444444445e-05
3772 3770 2.7126736111111112e-06
3863 3770 2.7126736111111112e-06
3771 3771 1.0850694444444445e-05
3773 3771 2.7126736111111112e-06
3775 3771 2.7126736111111112e-06
3772 3772 1.0850694444444445e-05
3773 3772 2.7126736111111112e-06
3866 3772 2.7126736111111112e-06
3773 3773 1.0850694444444445e-05
3775 3773 2.7126736111111112e-06
3866 3773 2.7126736111111112e-06
3774 3774 1.0850694444444445e-05
3776 3774 2.7126736111111112e-06
3778 3774 2.7126736111111112e-06
3775 3775 1.0850694444444445e-05
3776 3775 2.7126736111111112e-06
3869 3775 2.7126736111111112e-06
3776 3776 1.0850694444444445e-05
3778 3776 2.7126736111111112e-06
3869 3776 2.7126736111111112e-06
3777 3777 1.0850694444444445e-05
3779 3777 2.7126736111111112e-06
3778 3778 1.0850694444444445e-05
3779 3778 2.7126736111111112e-06
3872 3778 2.7126736111111112e-06
3779 3779 1.0850694444444445e-05
3872 3779 2.7126736111111112e-06
3780 3780 1.0850694444444445e-05
3781 3780 2.7126736111111112e-06
3783 3780 2.7126736111111112e-06
3781 3781 1.0850694444444445e-05
3783 3781 2.7126736111111112e-06
3875 3781 2.7126736111111112e-06
3782 3782 1.0850694444444445e-05
3784 3782 2.7126736111111112e-06
3786 3782 2.7126736111111112e-06
3783 3783 1.0850694444444445e-05
3784 3783 2.7126736111111112e-06
3877 3783 2.7126736111111112e-06
3784 3784 1.0850694444444445e-05
3786 3784 2.7126736111111112e-06
3877 3784 2.7126736111111112e-06
3785 3785 1.0850694444444445e-05
3787 3785 2.7126736111111112e-06
3789 3785 2.7126736111111112e-06
3786 3786 1.0850694444444445e-05
3787 3786 2.7126736111111112e-06
3880 3786 2.7126736111111112e-06
3787 3787 1.0850694444444445e-05
3789 3787 2.7126736111111112e-06
3880 3787 2.7126736111111112e-06
3788 3788 1.0850694444444445e-05
3790 3788 2.7126736111111112e-06
3792 3788 2.7126736111111112e-06
3789 3789 1.0850694444444445e-05
3790 3789 2.7126736111111112e-06
3883 3789 2.7126736111111112e-06
3790 3790 1.0850694444444445e-05
3792 3790 2.7126736111111112e-06
3883 3790 2.7126736111111112e-06
3791 3791 1.0850694444444445e-05
3793 3791 2.7126736111111112e-06
3795 3791 2.7126736111111112e-06
3792 3792 1.0850694444444445e-05
3793 3792 2.7126736111111112e-06
3886 3792 2.7126736111111112e-06
3793 3793 1.0850694444444445e-05
3795 3793 2.7126736111111112e-06
3886 3793 2.7126736111111112e-06
3794 3794 1.0850694444444445e-05
3796 3794 2.7126736111111112e-06
3798 3794 2.7126736111111112e-06
3795 3795 1.0850694444444445e-05
3796 3795 2.7126736111111112e-06
3889 3795 2.7126736111111112e-06
3796 3796 1.0850694444444445e-05
3798 3796 2.7126736111111112e-06
3889 3796 2.7126736111111112e-06
3797 3797 1.0850694444444445e-05
3799 3797 2.7126736111111112e-06
3801 3797 2.7126736111111112e-06
3798 3798 1.0850694444444445e-05
3799 3798 2.7126736111111112e-06
3892 3798 2.7126736111111112e-06
3799 3799 1.0850694444444445e-05
3801 3799 2.7126736111111112e-06
3892 3799 2.7126736111111112e-06
3800 3800 1.0850694444444445e-05
3802 3800 2.7126736111111112e-06
3804 3800 2.7126736111111112e-06
3801 3801 1.0850694444444445e-05
3802 3801 2.7126736111111112e-06
3895 3801 2.7126736111111112e-06
3802 3802 1.0850694444444445e-05
3804 3802 2.7126736111111112e-06
3895 3802 2.7126736111111112e-06
3803 3803 1.0850694444444445e-05
3805 3803 2.7126736111111112e-06
3807 3803 2.7126736111111112e-06
3804 3804 1.0850694444444445e-05
3805 3804 2.7126736111111112e-06
3898 3804 2.7126736111111112e-06
3805 3805 1.0850694444444445e-05
3807 3805 2.7126736111111112e-06
3898 3805 2.7126736111111112e-06
3806 3806 1.0850694444444445e-05
3808 3806 2.7126736111111112e-06
3810 3806 2.7126736111111112e-06
3807 3807 1.0850694444444445e-05
3808 3807 2.7126736111111112e-06
3901 3807 2.7126736111111112e-06
3808 3808 1.0850694444444445e-05
3810 3808 2.7126736111111112e-06
3901 3808 2.7126736111111112e-06
3809 3809 1.0850694444444445e-05
3811 3809 2.7126736111111112e-06
3813 3809 2.7126736111111112e-06
3810 3810 1.0850694444444445e-05
3811 3810 2.7126736111111112e-06
3904 3810 2.7126736111111112e-06
3811 3811 1.0850694444444445e-05
3813 3811 2.7126736111111112e-06
3904 3811 2.7126736111111112e-06
3812 3812 1.0850694444444445e-05
3814 3812 2.7126736111111112e-06
3816 3812 2.7126736111111112e-06
3813 3813 1.0850694444444445e-05
3814 3813 2.7126736111111112e-06
3907 3813 2.7126736111111112e-06
3814 3814 1.0850694444444445e-05
3816 3814 2.7126736111111112e-06
3907 3814 2.7126736111111112e-06
3815 3815 1.0850694444444445e-05
3817 3815 2.7126736111111112e-06
3819 3815 2.7126736111111112e-06
3816 3816 1.0850694444444445e-05
3817 3816 2.7126736111111112e-06
3910 3816 2.7126736111111112e-06
3817 3817 1.0850694444444445e-05
3819 3817 2.7126736111111112e-06
3910 3817 2.7126736111111112e-06
3818 3818 1.0850694444444445e-05
3820 3818 2.7126736111111112e-06
3822 3818 2.7126736111111112e-06
3819 3819 1.0850694444444445e-05
3820 3819 2.7126736111111112e-06
3913 3819 2.7126736111111112e-06
3820 3820 1.0850694444444445e-05
3822 3820 2.7126736111111112e-06
3913 3820 2.7126736111111112e-06
3821 3821 1.0850694444444445e-05
3823 3821 2.7126736111111112e-06
3825 3821 2.7126736111111112e-06
3822 3822 1.0850694444444445e-05
3823 3822 2.7126736111111112e-06
3916 3822 2.7126736111111112e-06
3823 3823 1.0850694444444445e-05
3825 3823 2.7126736111111112e-06
3916 3823 2.7126736111111112e-06
3824 3824 1.0850694444444445e-05
3826 3824 2.7126736111111112e-06
3828 3824 2.7126736111111112e-06
3825 3825 1.0850694444444445e-05
3826 3825 2.7126736111111112e-06
3919 3825 2.7126736111111112e-06
3826 3826 1.0850694444444445e-05
3828 3826 2.7126736111111112e-06
3919 3826 2.7126736111111112e-06
3827 3827 1.0850694444444445e-05
3829 3827 2.7126736111111112e-06
3831 3827 2.7126736111111112e-06
3828 3828 1.0850694444444445e-05
3829 3828 2.7126736111111112e-06
3922 3828 2.7126736111111112e-06
3829 3829 1.0850694444444445e-05
3831 3829 2.7126736111111112e-06
3922 3829 2.7126736111111112e-06
3830 3830 1.0850694444444445e-05
3832 3830 2.7126736111111112e-06
3834 3830 2.7126736111111112e-06
3831 3831 1.0850694444444445e-05
3832 3831 2.7126736111111112e-06
3925 3831 2.7126736111111112e-06
3832 3832 1.0850694444444445e-05
3834 3832 2.7126736111111112e-06
3925 3832 2.7126736111111112e-06
3833 3833 1.0850694444444445e-05
3835 3833 2.7126736111111112e-06
3837 3833 2.7126736111111112e-06
3834 3834 1.0850694444444445e-05
3835 3834 2.7126736111111112e-06
3928 3834 2.7126736111111112e-06
3835 3835 1.0850694444444445e-05
3837 3835 2.7126736111111112e-06
3928 3835 2.7126736111111112e-06
3836 3836 1.0850694444444445e-05
3838 3836 2.7126736111111112e-06
3840 3836 2.7126736111111112e-06
3837 3837 1.0850694444444445e-05
3838 3837 2.7126736111111112e-06
3931 3837 2.7126736111111112e-06
3838 3838 1.0850694444444445e-05
3840 3838 2.7126736111111112e-06
3931 3838 2.7126736111111112e-06
3839 3839 1.0850694444444445e-05
3841 3839 2.7126736111111112e-06
3843 3839 2.7126736111111112e-06
3840 3840 1.0850694444444445e-05
3841 3840 2.7126736111111112e-06
3934 3840 2.7126736111111112e-06
3841 3841 1.0850694444444445e-05
3843 3841 2.7126736111111112e-06
3934 3841 2.7126736111111112e-06
3842 3842 1.0850694444444445e-05
3844 3842 2.7126736111111112e-06
3846 3842 2.7126736111111112e-06
3843 3843 1.0850694444444445e-05
3844 3843 2.7126736111111112e-06
3937 3843 2.7126736111111112e-06
3844 3844 1.0850694444444445e-05
3846 3844 2.7126736111111112e-06
3937 3844 2.7126736111111112e-06
3845 3845 1.0850694444444445e-05
3847 3845 2.7126736111111112e-06
3849 3845 2.7126736111111112e-06
3846 3846 1.0850694444444445e-05
3847 3846 2.7126736111111112e-06
3940 3846 2.7126736111111112e-06
3847 3847 1.0850694444444445e-05
3849 3847 2.7126736111111112e-06
3940 3847 2.7126736111111112e-06
3848 3848 1.0850694444444445e-05
3850 3848 2.7126736111111112e-06
3852 3848 2.7126736111111112e-06
3849 3849 1.0850694444444445e-05
3850 3849 2.7126736111111112e-06
3943 3849 2.7126736111111112e-06
3850 3850 1.0850694444444445e-05
3852 3850 2.7126736111111112e-06
3943 3850 2.7126736111111112e-06
3851 3851 1.0850694444444445e-05
3853 3851 2.7126736111111112e-06
3855 3851 2.7126736111111112e-06
3852 3852 1.0850694444444445e-05
3853 3852 2.7126736111111112e-06
3946 3852 2.7126736111111112e-06
3853 3853 1.0850694444444445e-05
3855 3853 2.7126736111111112e-06
3946 3853 2.7126736111111112e-06
3854 3854 1.0850694444444445e-05
3856 3854 2.7126736111111112e-06
3858 3854 2.7126736111111112e-06
3855 3855 1.0850694444444445e-05
3856 3855 2.7126736111111112e-06
3949 3855 2.7126736111111112e-06
3856 3856 1.0850694444444445e-05
3858 3856 2.7126736111111112e-06
3949 3856 2.7126736111111112e-06
3857 3857 1.0850694444444445e-05
3859 3857 2.7126736111111112e-06
3861 3857 2.7126736111111112e-06
3858 3858 1.0850694444444445e-05
3859 3858 2.7126736111111112e-06
3952 3858 2.7126736111111112e-06
3859 3859 1.0850694444444445e-05
3861 3859 2.7126736111111112e-06
3952 3859 2.7126736111111112e-06
3860 3860 1.0850694444444445e-05
3862 3860 2.7126736111111112e-06
3864 3860 2.7126736111111112e-06
3861 3861 1.0850694444444445e-05
3862 3861 2.7126736111111112e-06
3955 3861 2.7126736111111112e-06
3862 3862 1.0850694444444445e-05
3864 3862 2.7126736111111112e-06
3955 3862 2.7126736111111112e-06
3863 3863 1.0850694444444445e-05
3865 3863 2.7126736111111112e-06
3867 3863 2.7126736111111112e-06
3864 3864 1.0850694444444445e-05
3865 3864 2.7126736111111112e-06
3958 3864 2.7126736111111112e-06
3865 3865 1.0850694444444445e-05
3867 3865 2.7126736111111112e-06
3958 3865 2.7126736111111112e-06
3866 3866 1.0850694444444445e-05
3868 3866 2.7126736111111112e-06
3870 3866 2.7126736111111112e-06
3867 3867 1.0850694444444445e-05
3868 3867 2.7126736111111112e-06
3961 3867 2.7126736111111112e-06
3868 3868 1.0850694444444445e-05
3870 3868 2.7126736111111112e-06
3961 3868 2.7126736111111112e-06
3869 3869 1.0850694444444445e-05
3871 3869 2.7126736111111112e-06
3873 3869 2.7126736111111112e-06
3870 3870 1.0850694444444445e-05
3871 3870 2.7126736111111112e-06
3964 3870 2.7126736111111112e-06
3871 3871 1.0850694444444445e-05
3873 3871 2.7126736111111112e-06
3964 3871 2.7126736111111112e-06
3872 3872 1.0850694444444445e-05
3874 3872 2.7126736111111112e-06
3873 3873 1.0850694444444445e-05
3874 3873 2.7126736111111112e-06
3967 3873 2.7126736111111112e-06
3874 3874 1.0850694444444445e-05
3967 3874 2.7126736111111112e-06
3875 3875 1.0850694444444445e-05
3876 3875 2.7126736111111112e-06
3878 3875 2.7126736111111112e-06
3876 3876 1.0850694444444445e-05
3878 3876 2.7126736111111112e-06
3877 3877 1.0850694444444445e-05
3879 3877 2.7126736111111112e-06
3881 3877 2.7126736111111112e-06
3878 3878 1.0850694444444445e-05
3879 3878 2.7126736111111112e-06
3879 3879 1.0850694444444445e-05
3881 3879 2.7126736111111112e-06
3880 3880 1.0850694444444445e-05
3882 3880 2.7126736111111112e-06
3884 3880 2.7126736111111112e-06
3881 3881 1.0850694444444445e-05
3882 3881 2.7126736111111112e-06
3882 3882 1.0850694444444445e-05
3884 3882 2.7126736111111112e-06
3883 3883 1.0850694444444445e-05
3885 3883 2.7126736111111112e-06
3887 3883 2.7126736111111112e-06
3884 3884 1.0850694444444445e-05
3885 3884 2.7126736111111112e-06
3885 3885 1.0850694444444445e-05
3887 3885 2.7126736111111112e-06
3886 3886 1.0850694444444445e-05
3888 3886 2.7126736111111112e-06
3890 3886 2.7126736111111112e-06
3887 3887 1.0850694444444445e-05
3888 3887 2.7126736111111112e-06
3888 3888 1.0850694444444445e-05
3890 3888 2.7126736111111112e-06
3889 3889 1.0850694444444445e-05
3891 3889 2.7126736111111112e-06
3893 3889 2.7126736111111112e-06
3890 3890 1.0850694444444445e-05
3891 3890 2.7126736111111112e-06
3891 3891 1.0850694444444445e-05
3893 3891 2.7126736111111112e-06
3892 3892 1.0850694444444445e-05
3894 3892 2.7126736111111112e-06
3896 3892 2.7126736111111112e-06
3893 3893 1.0850694444444445e-05
3894 3893 2.7126736111111112e-06
3894 3894 1.0850694444444445e-05
3896 3894 2.7126736111111112e-06
3895 3895 1.0850694444444445e-05
3897 3895 2.7126736111111112e-06
3899 3895 2.7126736111111112e-06
3896 3896 1.0850694444444445e-05
3897 3896 2.7126736111111112e-06
3897 3897 1.0850694444444445e-05
3899 3897 2.7126736111111112e-06
3898 3898 1.0850694444444445e-05
3900 3898 2.7126736111111112e-06
3902 3898 2.7126736111111112e-06
3899 3899 1.0850694444444445e-05
3900 3899 2.7126736111111112e-06
3900 3900 1.0850694444444445e-05
3902 3900 2.7126736111111112e-06
3901 3901 1.0850694444444445e-05
3903 3901 2.7126736111111112e-06
3905 3901 2.7126736111111112e-06
3902 3902 1.0850694444444445e-05
3903 3902 2.7126736111111112e-06
3903 3903 1.0850694444444445e-05
3905 3903 2.7126736111111112e-06
3904 3904 1.0850694444444445e-05
3906 3904 2.7126736111111112e-06
3908 3904 2.7126736111111112e-06
3905 3905 1.0850694444444445e-05
3906 3905 2.7126736111111112e-06
3906 3906 1.0850694444444445e-05
3908 3906 2.7126736111111112e-06
3907 3907 1.0850694444444445e-05
3909 3907 2.7126736111111112e-06
3911 3907 2.7126736111111112e-06
3908 3908 1.0850694444444445e-05
3909 3908 2.7126736111111112e-06
3909 3909 1.0850694444444445e-05
3911 3909 2.7126736111111112e-06
3910 3910 1.0850694444444445e-05
3912 3910 2.7126736111111112e-06
3914 3910 2.7126736111111112e-06
3911 3911 1.0850694444444445e-05
3912 3911 2.7126736111111112e-06
3912 3912 1.0850694444444445e-05
3914 3912 2.7126736111111112e-06
3913 3913 1.0850694444444445e-05
3915 3913 2.7126736111111112e-06
3917 3913 2.7126736111111112e-06
3914 3914 1.0850694444444445e-05
3915 3914 2.7126736111111112e-06
3915 3915 1.0850694444444445e-05
3917 3915 2.7126736111111112e-06
3916 3916 1.0850694444444445e-05
3918 3916 2.7126736111111112e-06
3920 3916 2.7126736111111112e-06
3917 3917 1.0850694444444445e-05
3918 3917 2.7126736111111112e-06
3918 3918 1.0850694444444445e-05
3920 3918 2.7126736111111112e-06
3919 3919 1.0850694444444445e-05
3921 3919 2.7126736111111112e-06
3923 3919 2.7126736111111112e-06
3920 3920 1.0850694444444445e-05
3921 3920 2.7126736111111112e-06
3921 3921 1.0850694444444445e-05
3923 3921 2.7126736111111112e-06
3922 3922 1.0850694444444445e-05
3924 3922 2.7126736111111112e-06
3926 3922 2.7126736111111112e-06
3923 3923 1.0850694444444445e-05
3924 3923 2.7126736111111112e-06
3924 3924 1.0850694444444445e-05
3926 3924 2.7126736111111112e-06
3925 3925 1.0850694444444445e-05
3927 3925 2.7126736111111112e-06
3929 3925 2.7126736111111112e-06
3926 3926 1.0850694444444445e-05
3927 3926 2.7126736111111112e-06
3927 3927 1.0850694444444445e-05
3929 3927 2.7126736111111112e-06
3928 3928 1.0850694444444445e-05
3930 3928 2.7126736111111112e-06
3932 3928 2.7126736111111112e-06
3929 3929 1.0850694444444445e-05
3930 3929 2.7126736111111112e-06
3930 3930 1.0850694444444445e-05
3932 3930 2.7126736111111112e-06
3931 3931 1.0850694444444445e-05
3933 3931 2.7126736111111112e-06
3935 3931 2.7126736111111112e-06
3932 3932 1.0850694444444445e-05
3933 3932 2.7126736111111112e-06
3933 3933 1.0850694444444445e-05
3935 3933 2.7126736111111112e-06
3934 3934 1.0850694444444445e-05
3936 3934 2.7126736111111112e-06
3938 3934 2.7126736111111112e-06
3935 3935 1.0850694444444445e-05
3936 3935 2.7126736111111112e-06
3936 3936 1.0850694444444445e-05
3938 3936 2.7126736111111112e-06
3937 3937 1.0850694444444445e-05
3939 3937 2.7126736111111112e-06
3941 3937 2.7126736111111112e-06
3938 3938 1.0850694444444445e-05
3939 3938 2.7126736111111112e-06
3939 3939 1.0850694444444445e-05
3941 3939 2.7126736111111112e-06
3940 3940 1.0850694444444445e-05
3942 3940 2.7126736111111112e-06
3944 3940 2.7126736111111112e-06
3941 3941 1.0850694444444445e-05
3942 3941 2.7126736111111112e-06
3942 3942 1.0850694444444445e-05
3944 3942 2.7126736111111112e-06
3943 3943 1.0850694444444445e-05
3945 3943 2.7126736111111112e-06
3947 3943 2.7126736111111112e-06
3944 3944 1.0850694444444445e-05
3945 3944 2.7126736111111112e-06
3945 3945 1.0850694444444445e-05
3947 3945 2.7126736111111112e-06
3946 3946 1.0850694444444445e-05
3948 3946 2.7126736111111112e-06
3950 3946 2.7126736111111112e-06
3947 3947 1.0850694444444445e-05
3948 3947 2.7126736111111112e-06
3948 3948 1.0850694444444445e-05
3950 3948 2.7126736111111112e-06
3949 3949 1.0850694444444445e-05
3951 3949 2.7126736111111112e-06
3953 3949 2.7126736111111112e-06
3950 3950 1.0850694444444445e-05
3951 3950 2.7126736111111112e-06
3951 3951 1.0850694444444445e-05
3953 3951 2.7126736111111112e-06
3952 3952 1.0850694444444445e-05
3954 3952 2.7126736111111112e-06
3956 3952 2.7126736111111112e-06
3953 3953 1.0850694444444445e-05
3954 3953 2.7126736111111112e-06
3954 3954 1.0850694444444445e-05
3956 3954 2.7126736111111112e-06
3955 3955 1.0850694444444445e-05
3957 3955 2.7126736111111112e-06
3959 3955 2.7126736111111112e-06
3956 3956 1.0850694444444445e-05
3957 3956 2.7126736111111112e-06
3957 3957 1.0850694444444445e-05
3959 3957 2.7126736111111112e-06
3958 3958 1.0850694444444445e-05
3960 3958 2.7126736111111112e-06
3962 3958 2.7126736111111112e-06
3959 3959 1.0850694444444445e-05
3960 3959 2.7126736111111112e-06
3960 3960 1.0850694444444445e-05
3962 3960 2.7126736111111112e-06
3961 3961 1.0850694444444445e-05
3963 3961 2.7126736111111112e-06
3965 3961 2.7126736111111112e-06
3962 3962 1.0850694444444445e-05
3963 3962 2.7126736111111112e-06
3963 3963 1.0850694444444445e-05
3965 3963 2.7126736111111112e-06
3964 3964 1.0850694444444445e-05
3966 3964 2.7126736111111112e-06
3968 3964 2.7126736111111112e-06
3965 3965 1.0850694444444445e-05
3966 3965 2.7126736111111112e-06
3966 3966 1.0850694444444445e-05
3968 3966 2.7126736111111112e-06
3967 3967 1.0850694444444445e-05
3969 3967 2.7126736111111112e-06
3968 3968 1.0850694444444445e-05
3969 3968 2.7126736111111112e-06
3969 3969 1.0850694444444445e-05
