%%MatrixMarket matrix coordinate real symmetric
% square_p2_n8 stiffness A[int,int], mesh=unit_square_8 p=2, interior-restricted
% lower triangle only (row >= col); mirror for the full matrix
225 225 1093
1 1 2.666666666666667
2 1 -0.33333333333333337
8 1 -0.33333333333333337
50 1 0.16666666666666669
51 1 -0.083333333333333343
52 1 -0.16666666666666669
65 1 -0.083333333333333287
66 1 -0.16666666666666669
67 1 -0.083333333333333343
68 1 -0.083333333333333315
69 1 0.16666666666666669
71 1 -0.083333333333333343
90 1 -0.083333333333333329
2 2 2.666666666666667
3 2 -0.33333333333333337
9 2 -0.33333333333333337
51 2 -0.083333333333333343
52 2 0.16666666666666669
53 2 -0.083333333333333343
54 2 -0.16666666666666669
67 2 -0.083333333333333287
69 2 -0.16666666666666669
70 2 -0.083333333333333343
71 2 -0.083333333333333315
72 2 0.16666666666666669
74 2 -0.083333333333333343
93 2 -0.083333333333333329
3 3 2.666666666666667
4 3 -0.33333333333333337
10 3 -0.33333333333333337
53 3 -0.083333333333333343
54 3 0.16666666666666669
55 3 -0.083333333333333343
56 3 -0.16666666666666669
70 3 -0.083333333333333287
72 3 -0.16666666666666669
73 3 -0.083333333333333343
74 3 -0.083333333333333315
75 3 0.16666666666666669
77 3 -0.083333333333333343
96 3 -0.083333333333333329
4 4 2.666666666666667
5 4 -0.33333333333333337
11 4 -0.33333333333333337
55 4 -0.083333333333333343
56 4 0.16666666666666669
57 4 -0.083333333333333343
58 4 -0.16666666666666669
73 4 -0.083333333333333287
75 4 -0.16666666666666669
76 4 -0.083333333333333343
77 4 -0.083333333333333315
78 4 0.16666666666666669
80 4 -0.083333333333333343
99 4 -0.083333333333333329
5 5 2.666666666666667
6 5 -0.33333333333333337
12 5 -0.33333333333333337
57 5 -0.083333333333333343
58 5 0.16666666666666669
59 5 -0.083333333333333343
60 5 -0.16666666666666669
76 5 -0.083333333333333287
78 5 -0.16666666666666669
79 5 -0.083333333333333343
80 5 -0.083333333333333315
81 5 0.16666666666666669
83 5 -0.083333333333333343
102 5 -0.083333333333333329
6 6 2.666666666666667
7 6 -0.33333333333333337
13 6 -0.33333333333333337
59 6 -0.083333333333333343
60 6 0.16666666666666669
61 6 -0.083333333333333343
62 6 -0.16666666666666669
79 6 -0.083333333333333287
81 6 -0.16666666666666669
82 6 -0.083333333333333343
83 6 -0.083333333333333315
84 6 0.16666666666666669
86 6 -0.083333333333333343
105 6 -0.083333333333333329
7 7 2.666666666666667
14 7 -0.33333333333333337
61 7 -0.083333333333333343
62 7 0.16666666666666669
63 7 -0.083333333333333343
64 7 -0.16666666666666669
82 7 -0.083333333333333287
84 7 -0.16666666666666669
85 7 -0.083333333333333343
86 7 -0.083333333333333315
87 7 0.16666666666666669
108 7 -0.083333333333333329
8 8 2.666666666666667
9 8 -0.33333333333333337
15 8 -0.33333333333333337
65 8 -0.083333333333333343
66 8 0.16666666666666669
68 8 -0.083333333333333343
69 8 -0.16666666666666669
88 8 -0.083333333333333287
89 8 -0.16666666666666669
90 8 -0.083333333333333343
91 8 -0.083333333333333315
92 8 0.16666666666666669
94 8 -0.083333333333333343
113 8 -0.083333333333333329
9 9 2.666666666666667
10 9 -0.33333333333333337
16 9 -0.33333333333333337
67 9 -0.083333333333333343
68 9 -0.083333333333333343
69 9 0.16666666666666669
71 9 -0.083333333333333343
72 9 -0.16666666666666669
90 9 -0.083333333333333287
92 9 -0.16666666666666669
93 9 -0.083333333333333343
94 9 -0.083333333333333315
95 9 0.16666666666666669
97 9 -0.083333333333333343
116 9 -0.083333333333333329
10 10 2.666666666666667
11 10 -0.33333333333333337
17 10 -0.33333333333333337
70 10 -0.083333333333333343
71 10 -0.083333333333333343
72 10 0.16666666666666669
74 10 -0.083333333333333343
75 10 -0.16666666666666669
93 10 -0.083333333333333287
95 10 -0.16666666666666669
96 10 -0.083333333333333343
97 10 -0.083333333333333315
98 10 0.16666666666666669
100 10 -0.083333333333333343
119 10 -0.083333333333333329
11 11 2.666666666666667
12 11 -0.33333333333333337
18 11 -0.33333333333333337
73 11 -0.083333333333333343
74 11 -0.083333333333333343
75 11 0.16666666666666669
77 11 -0.083333333333333343
78 11 -0.16666666666666669
96 11 -0.083333333333333287
98 11 -0.16666666666666669
99 11 -0.083333333333333343
100 11 -0.083333333333333315
101 11 0.16666666666666669
103 11 -0.083333333333333343
122 11 -0.083333333333333329
12 12 2.666666666666667
13 12 -0.33333333333333337
19 12 -0.33333333333333337
76 12 -0.083333333333333343
77 12 -0.083333333333333343
78 12 0.16666666666666669
80 12 -0.083333333333333343
81 12 -0.16666666666666669
99 12 -0.083333333333333287
101 12 -0.16666666666666669
102 12 -0.083333333333333343
103 12 -0.083333333333333315
104 12 0.16666666666666669
106 12 -0.083333333333333343
125 12 -0.083333333333333329
13 13 2.666666666666667
14 13 -0.33333333333333337
20 13 -0.33333333333333337
79 13 -0.083333333333333343
80 13 -0.083333333333333343
81 13 0.16666666666666669
83 13 -0.083333333333333343
84 13 -0.16666666666666669
102 13 -0.083333333333333287
104 13 -0.16666666666666669
105 13 -0.083333333333333343
106 13 -0.083333333333333315
107 13 0.16666666666666669
109 13 -0.083333333333333343
128 13 -0.083333333333333329
14 14 2.666666666666667
21 14 -0.33333333333333337
82 14 -0.083333333333333343
83 14 -0.083333333333333343
84 14 0.16666666666666669
86 14 -0.083333333333333343
87 14 -0.16666666666666669
105 14 -0.083333333333333287
107 14 -0.16666666666666669
108 14 -0.083333333333333343
109 14 -0.083333333333333315
110 14 0.16666666666666669
131 14 -0.083333333333333329
15 15 2.666666666666667
16 15 -0.33333333333333337
22 15 -0.33333333333333337
88 15 -0.083333333333333343
89 15 0.16666666666666669
91 15 -0.083333333333333343
92 15 -0.16666666666666669
111 15 -0.083333333333333287
112 15 -0.16666666666666669
113 15 -0.083333333333333343
114 15 -0.083333333333333315
115 15 0.16666666666666669
117 15 -0.083333333333333343
136 15 -0.083333333333333329
16 16 2.666666666666667
17 16 -0.33333333333333337
23 16 -0.33333333333333337
90 16 -0.083333333333333343
91 16 -0.083333333333333343
92 16 0.16666666666666669
94 16 -0.083333333333333343
95 16 -0.16666666666666669
113 16 -0.083333333333333287
115 16 -0.16666666666666669
116 16 -0.083333333333333343
117 16 -0.083333333333333315
118 16 0.16666666666666669
120 16 -0.083333333333333343
139 16 -0.083333333333333329
17 17 2.666666666666667
18 17 -0.33333333333333337
24 17 -0.33333333333333337
93 17 -0.083333333333333343
94 17 -0.083333333333333343
95 17 0.16666666666666669
97 17 -0.083333333333333343
98 17 -0.16666666666666669
116 17 -0.083333333333333287
118 17 -0.16666666666666669
119 17 -0.083333333333333343
120 17 -0.083333333333333315
121 17 0.16666666666666669
123 17 -0.083333333333333343
142 17 -0.083333333333333329
18 18 2.666666666666667
19 18 -0.33333333333333337
25 18 -0.33333333333333337
96 18 -0.083333333333333343
97 18 -0.083333333333333343
98 18 0.16666666666666669
100 18 -0.083333333333333343
101 18 -0.16666666666666669
119 18 -0.083333333333333287
121 18 -0.16666666666666669
122 18 -0.083333333333333343
123 18 -0.083333333333333315
124 18 0.16666666666666669
126 18 -0.083333333333333343
145 18 -0.083333333333333329
19 19 2.666666666666667
20 19 -0.33333333333333337
26 19 -0.33333333333333337
99 19 -0.083333333333333343
100 19 -0.083333333333333343
101 19 0.16666666666666669
103 19 -0.083333333333333343
104 19 -0.16666666666666669
122 19 -0.083333333333333287
124 19 -0.16666666666666669
125 19 -0.083333333333333343
126 19 -0.083333333333333315
127 19 0.16666666666666669
129 19 -0.083333333333333343
148 19 -0.083333333333333329
20 20 2.666666666666667
21 20 -0.33333333333333337
27 20 -0.33333333333333337
102 20 -0.083333333333333343
103 20 -0.083333333333333343
104 20 0.16666666666666669
106 20 -0.083333333333333343
107 20 -0.16666666666666669
125 20 -0.083333333333333287
127 20 -0.16666666666666669
128 20 -0.083333333333333343
129 20 -0.083333333333333315
130 20 0.16666666666666669
132 20 -0.083333333333333343
151 20 -0.083333333333333329
21 21 2.666666666666667
28 21 -0.33333333333333337
105 21 -0.083333333333333343
106 21 -0.083333333333333343
107 21 0.16666666666666669
109 21 -0.083333333333333343
110 21 -0.16666666666666669
128 21 -0.083333333333333287
130 21 -0.16666666666666669
131 21 -0.083333333333333343
132 21 -0.083333333333333315
133 21 0.16666666666666669
154 21 -0.083333333333333329
22 22 2.666666666666667
23 22 -0.33333333333333337
29 22 -0.33333333333333337
111 22 -0.083333333333333343
112 22 0.16666666666666669
114 22 -0.083333333333333343
115 22 -0.16666666666666669
134 22 -0.083333333333333287
135 22 -0.16666666666666669
136 22 -0.083333333333333343
137 22 -0.083333333333333315
138 22 0.16666666666666669
140 22 -0.083333333333333343
159 22 -0.083333333333333329
23 23 2.666666666666667
24 23 -0.33333333333333337
30 23 -0.33333333333333337
113 23 -0.083333333333333343
114 23 -0.083333333333333343
115 23 0.16666666666666669
117 23 -0.083333333333333343
118 23 -0.16666666666666669
136 23 -0.083333333333333287
138 23 -0.16666666666666669
139 23 -0.083333333333333343
140 23 -0.083333333333333315
141 23 0.16666666666666669
143 23 -0.083333333333333343
162 23 -0.083333333333333329
24 24 2.666666666666667
25 24 -0.33333333333333337
31 24 -0.33333333333333337
116 24 -0.083333333333333343
117 24 -0.083333333333333343
118 24 0.16666666666666669
120 24 -0.083333333333333343
121 24 -0.16666666666666669
139 24 -0.083333333333333287
141 24 -0.16666666666666669
142 24 -0.083333333333333343
143 24 -0.083333333333333315
144 24 0.16666666666666669
146 24 -0.083333333333333343
165 24 -0.083333333333333329
25 25 2.666666666666667
26 25 -0.33333333333333337
32 25 -0.33333333333333337
119 25 -0.083333333333333343
120 25 -0.083333333333333343
121 25 0.16666666666666669
123 25 -0.083333333333333343
124 25 -0.16666666666666669
142 25 -0.083333333333333287
144 25 -0.16666666666666669
145 25 -0.083333333333333343
146 25 -0.083333333333333315
147 25 0.16666666666666669
149 25 -0.083333333333333343
168 25 -0.083333333333333329
26 26 2.666666666666667
27 26 -0.33333333333333337
33 26 -0.33333333333333337
122 26 -0.083333333333333343
123 26 -0.083333333333333343
124 26 0.16666666666666669
126 26 -0.083333333333333343
127 26 -0.16666666666666669
145 26 -0.083333333333333287
147 26 -0.16666666666666669
148 26 -0.083333333333333343
149 26 -0.083333333333333315
150 26 0.16666666666666669
152 26 -0.083333333333333343
171 26 -0.083333333333333329
27 27 2.666666666666667
28 27 -0.33333333333333337
34 27 -0.33333333333333337
125 27 -0.083333333333333343
126 27 -0.083333333333333343
127 27 0.16666666666666669
129 27 -0.083333333333333343
130 27 -0.16666666666666669
148 27 -0.083333333333333287
150 27 -0.16666666666666669
151 27 -0.083333333333333343
152 27 -0.083333333333333315
153 27 0.16666666666666669
155 27 -0.083333333333333343
174 27 -0.083333333333333329
28 28 2.666666666666667
35 28 -0.33333333333333337
128 28 -0.083333333333333343
129 28 -0.083333333333333343
130 28 0.16666666666666669
132 28 -0.083333333333333343
133 28 -0.16666666666666669
151 28 -0.083333333333333287
153 28 -0.16666666666666669
154 28 -0.083333333333333343
155 28 -0.083333333333333315
156 28 0.16666666666666669
177 28 -0.083333333333333329
29 29 2.666666666666667
30 29 -0.33333333333333337
36 29 -0.33333333333333337
134 29 -0.083333333333333343
135 29 0.16666666666666669
137 29 -0.083333333333333343
138 29 -0.16666666666666669
157 29 -0.083333333333333287
158 29 -0.16666666666666669
159 29 -0.083333333333333343
160 29 -0.083333333333333315
161 29 0.16666666666666669
163 29 -0.083333333333333343
182 29 -0.083333333333333329
30 30 2.666666666666667
31 30 -0.33333333333333337
37 30 -0.33333333333333337
136 30 -0.083333333333333343
137 30 -0.083333333333333343
138 30 0.16666666666666669
140 30 -0.083333333333333343
141 30 -0.16666666666666669
159 30 -0.083333333333333287
161 30 -0.16666666666666669
162 30 -0.083333333333333343
163 30 -0.083333333333333315
164 30 0.16666666666666669
166 30 -0.083333333333333343
185 30 -0.083333333333333329
31 31 2.666666666666667
32 31 -0.33333333333333337
38 31 -0.33333333333333337
139 31 -0.083333333333333343
140 31 -0.083333333333333343
141 31 0.16666666666666669
143 31 -0.083333333333333343
144 31 -0.16666666666666669
162 31 -0.083333333333333287
164 31 -0.16666666666666669
165 31 -0.083333333333333343
166 31 -0.083333333333333315
167 31 0.16666666666666669
169 31 -0.083333333333333343
188 31 -0.083333333333333329
32 32 2.666666666666667
33 32 -0.33333333333333337
39 32 -0.33333333333333337
142 32 -0.083333333333333343
143 32 -0.083333333333333343
144 32 0.16666666666666669
146 32 -0.083333333333333343
147 32 -0.16666666666666669
165 32 -0.083333333333333287
167 32 -0.16666666666666669
168 32 -0.083333333333333343
169 32 -0.083333333333333315
170 32 0.16666666666666669
172 32 -0.083333333333333343
191 32 -0.083333333333333329
33 33 2.666666666666667
34 33 -0.33333333333333337
40 33 -0.33333333333333337
145 33 -0.083333333333333343
146 33 -0.083333333333333343
147 33 0.16666666666666669
149 33 -0.083333333333333343
150 33 -0.16666666666666669
168 33 -0.083333333333333287
170 33 -0.16666666666666669
171 33 -0.083333333333333343
172 33 -0.083333333333333315
173 33 0.16666666666666669
175 33 -0.083333333333333343
194 33 -0.083333333333333329
34 34 2.666666666666667
35 34 -0.33333333333333337
41 34 -0.33333333333333337
148 34 -0.083333333333333343
149 34 -0.083333333333333343
150 34 0.16666666666666669
152 34 -0.083333333333333343
153 34 -0.16666666666666669
171 34 -0.083333333333333287
173 34 -0.16666666666666669
174 34 -0.083333333333333343
175 34 -0.083333333333333315
176 34 0.16666666666666669
178 34 -0.083333333333333343
197 34 -0.083333333333333329
35 35 2.666666666666667
42 35 -0.33333333333333337
151 35 -0.083333333333333343
152 35 -0.083333333333333343
153 35 0.16666666666666669
155 35 -0.083333333333333343
156 35 -0.16666666666666669
174 35 -0.083333333333333287
176 35 -0.16666666666666669
177 35 -0.083333333333333343
178 35 -0.083333333333333315
179 35 0.16666666666666669
200 35 -0.083333333333333329
36 36 2.666666666666667
37 36 -0.33333333333333337
43 36 -0.33333333333333337
157 36 -0.083333333333333343
158 36 0.16666666666666669
160 36 -0.083333333333333343
161 36 -0.16666666666666669
180 36 -0.083333333333333287
181 36 -0.16666666666666669
182 36 -0.083333333333333343
183 36 -0.083333333333333315
184 36 0.16666666666666669
186 36 -0.083333333333333343
205 36 -0.083333333333333329
37 37 2.666666666666667
38 37 -0.33333333333333337
44 37 -0.33333333333333337
159 37 -0.083333333333333343
160 37 -0.083333333333333343
161 37 0.16666666666666669
163 37 -0.083333333333333343
164 37 -0.16666666666666669
182 37 -0.083333333333333287
184 37 -0.16666666666666669
185 37 -0.083333333333333343
186 37 -0.083333333333333315
187 37 0.16666666666666669
189 37 -0.083333333333333343
208 37 -0.083333333333333329
38 38 2.666666666666667
39 38 -0.33333333333333337
45 38 -0.33333333333333337
162 38 -0.083333333333333343
163 38 -0.083333333333333343
164 38 0.16666666666666669
166 38 -0.083333333333333343
167 38 -0.16666666666666669
185 38 -0.083333333333333287
187 38 -0.16666666666666669
188 38 -0.083333333333333343
189 38 -0.083333333333333315
190 38 0.16666666666666669
192 38 -0.083333333333333343
211 38 -0.083333333333333329
39 39 2.666666666666667
40 39 -0.33333333333333337
46 39 -0.33333333333333337
165 39 -0.083333333333333343
166 39 -0.083333333333333343
167 39 0.16666666666666669
169 39 -0.083333333333333343
170 39 -0.16666666666666669
188 39 -0.083333333333333287
190 39 -0.16666666666666669
191 39 -0.083333333333333343
192 39 -0.083333333333333315
193 39 0.16666666666666669
195 39 -0.083333333333333343
214 39 -0.083333333333333329
40 40 2.666666666666667
41 40 -0.33333333333333337
47 40 -0.33333333333333337
168 40 -0.083333333333333343
169 40 -0.083333333333333343
170 40 0.16666666666666669
172 40 -0.083333333333333343
173 40 -0.16666666666666669
191 40 -0.083333333333333287
193 40 -0.16666666666666669
194 40 -0.083333333333333343
195 40 -0.083333333333333315
196 40 0.16666666666666669
198 40 -0.083333333333333343
217 40 -0.083333333333333329
41 41 2.666666666666667
42 41 -0.33333333333333337
48 41 -0.33333333333333337
171 41 -0.083333333333333343
172 41 -0.083333333333333343
173 41 0.16666666666666669
175 41 -0.083333333333333343
176 41 -0.16666666666666669
194 41 -0.083333333333333287
196 41 -0.16666666666666669
197 41 -0.083333333333333343
198 41 -0.083333333333333315
199 41 0.16666666666666669
201 41 -0.083333333333333343
220 41 -0.083333333333333329
42 42 2.666666666666667
49 42 -0.33333333333333337
174 42 -0.083333333333333343
175 42 -0.083333333333333343
176 42 0.16666666666666669
178 42 -0.083333333333333343
179 42 -0.16666666666666669
197 42 -0.083333333333333287
199 42 -0.16666666666666669
200 42 -0.083333333333333343
201 42 -0.083333333333333315
202 42 0.16666666666666669
223 42 -0.083333333333333329
43 43 2.666666666666667
44 43 -0.33333333333333337
180 43 -0.083333333333333343
181 43 0.16666666666666669
183 43 -0.083333333333333343
184 43 -0.16666666666666669
203 43 -0.083333333333333287
204 43 -0.16666666666666669
205 43 -0.083333333333333343
206 43 -0.083333333333333315
207 43 0.16666666666666669
209 43 -0.083333333333333343
44 44 2.666666666666667
45 44 -0.33333333333333337
182 44 -0.083333333333333343
183 44 -0.083333333333333343
184 44 0.16666666666666669
186 44 -0.083333333333333343
187 44 -0.16666666666666669
205 44 -0.083333333333333287
207 44 -0.16666666666666669
208 44 -0.083333333333333343
209 44 -0.083333333333333315
210 44 0.16666666666666669
212 44 -0.083333333333333343
45 45 2.666666666666667
46 45 -0.33333333333333337
185 45 -0.083333333333333343
186 45 -0.083333333333333343
187 45 0.16666666666666669
189 45 -0.083333333333333343
190 45 -0.16666666666666669
208 45 -0.083333333333333287
210 45 -0.16666666666666669
211 45 -0.083333333333333343
212 45 -0.083333333333333315
213 45 0.16666666666666669
215 45 -0.083333333333333343
46 46 2.666666666666667
47 46 -0.33333333333333337
188 46 -0.083333333333333343
189 46 -0.083333333333333343
190 46 0.16666666666666669
192 46 -0.083333333333333343
193 46 -0.16666666666666669
211 46 -0.083333333333333287
213 46 -0.16666666666666669
214 46 -0.083333333333333343
215 46 -0.083333333333333315
216 46 0.16666666666666669
218 46 -0.083333333333333343
47 47 2.666666666666667
48 47 -0.33333333333333337
191 47 -0.083333333333333343
192 47 -0.083333333333333343
193 47 0.16666666666666669
195 47 -0.083333333333333343
196 47 -0.16666666666666669
214 47 -0.083333333333333287
216 47 -0.16666666666666669
217 47 -0.083333333333333343
218 47 -0.083333333333333315
219 47 0.16666666666666669
221 47 -0.083333333333333343
48 48 2.666666666666667
49 48 -0.33333333333333337
194 48 -0.083333333333333343
195 48 -0.083333333333333343
196 48 0.16666666666666669
198 48 -0.083333333333333343
199 48 -0.16666666666666669
217 48 -0.083333333333333287
219 48 -0.16666666666666669
220 48 -0.083333333333333343
221 48 -0.083333333333333315
222 48 0.16666666666666669
224 48 -0.083333333333333343
49 49 2.666666666666667
197 49 -0.083333333333333343
198 49 -0.083333333333333343
199 49 0.16666666666666669
201 49 -0.083333333333333343
202 49 -0.16666666666666669
220 49 -0.083333333333333287
222 49 -0.16666666666666669
223 49 -0.083333333333333343
224 49 -0.083333333333333315
225 49 0.16666666666666669
50 50 0.33333333333333337
51 50 -0.083333333333333343
65 50 -0.083333333333333329
51 51 0.33333333333333337
52 51 -0.083333333333333343
52 52 0.33333333333333337
53 52 -0.083333333333333343
67 52 -0.083333333333333329
53 53 0.33333333333333337
54 53 -0.083333333333333343
54 54 0.33333333333333337
55 54 -0.083333333333333343
70 54 -0.083333333333333329
55 55 0.33333333333333337
56 55 -0.083333333333333343
56 56 0.33333333333333337
57 56 -0.083333333333333343
73 56 -0.083333333333333329
57 57 0.33333333333333337
58 57 -0.083333333333333343
58 58 0.33333333333333337
59 58 -0.083333333333333343
76 58 -0.083333333333333329
59 59 0.33333333333333337
60 59 -0.083333333333333343
60 60 0.33333333333333337
61 60 -0.083333333333333343
79 60 -0.083333333333333329
61 61 0.33333333333333337
62 61 -0.083333333333333343
62 62 0.33333333333333337
63 62 -0.083333333333333343
82 62 -0.083333333333333329
63 63 0.33333333333333337
64 63 -0.083333333333333343
64 64 0.33333333333333337
85 64 -0.083333333333333329
65 65 0.33333333333333337
66 65 -0.083333333333333343
66 66 0.33333333333333337
68 66 -0.083333333333333343
88 66 -0.083333333333333329
67 67 0.33333333333333337
69 67 -0.083333333333333343
68 68 0.33333333333333337
69 68 -0.083333333333333343
69 69 0.33333333333333337
71 69 -0.083333333333333343
90 69 -0.083333333333333329
70 70 0.33333333333333337
72 70 -0.083333333333333343
71 71 0.33333333333333337
72 71 -0.083333333333333343
72 72 0.33333333333333337
74 72 -0.083333333333333343
93 72 -0.083333333333333329
73 73 0.33333333333333337
75 73 -0.083333333333333343
74 74 0.33333333333333337
75 74 -0.083333333333333343
75 75 0.33333333333333337
77 75 -0.083333333333333343
96 75 -0.083333333333333329
76 76 0.33333333333333337
78 76 -0.083333333333333343
77 77 0.33333333333333337
78 77 -0.083333333333333343
78 78 0.33333333333333337
80 78 -0.083333333333333343
99 78 -0.083333333333333329
79 79 0.33333333333333337
81 79 -0.083333333333333343
80 80 0.33333333333333337
81 80 -0.083333333333333343
81 81 0.33333333333333337
83 81 -0.083333333333333343
102 81 -0.083333333333333329
82 82 0.33333333333333337
84 82 -0.083333333333333343
83 83 0.33333333333333337
84 83 -0.083333333333333343
84 84 0.33333333333333337
86 84 -0.083333333333333343
105 84 -0.083333333333333329
85 85 0.33333333333333337
87 85 -0.083333333333333343
86 86 0.33333333333333337
87 86 -0.083333333333333343
87 87 0.33333333333333337
108 87 -0.083333333333333329
88 88 0.33333333333333337
89 88 -0.083333333333333343
89 89 0.33333333333333337
91 89 -0.083333333333333343
111 89 -0.083333333333333329
90 90 0.33333333333333337
92 90 -0.083333333333333343
91 91 0.33333333333333337
92 91 -0.083333333333333343
92 92 0.33333333333333337
94 92 -0.083333333333333343
113 92 -0.083333333333333329
93 93 0.33333333333333337
95 93 -0.083333333333333343
94 94 0.33333333333333337
95 94 -0.083333333333333343
95 95 0.33333333333333337
97 95 -0.083333333333333343
116 95 -0.083333333333333329
96 96 0.33333333333333337
98 96 -0.083333333333333343
97 97 0.33333333333333337
98 97 -0.083333333333333343
98 98 0.33333333333333337
100 98 -0.083333333333333343
119 98 -0.083333333333333329
99 99 0.33333333333333337
101 99 -0.083333333333333343
100 100 0.33333333333333337
101 100 -0.083333333333333343
101 101 0.33333333333333337
103 101 -0.083333333333333343
122 101 -0.083333333333333329
102 102 0.33333333333333337
104 102 -0.083333333333333343
103 103 0.33333333333333337
104 103 -0.083333333333333343
104 104 0.33333333333333337
106 104 -0.083333333333333343
125 104 -0.083333333333333329
105 105 0.33333333333333337
107 105 -0.083333333333333343
106 106 0.33333333333333337
107 106 -0.083333333333333343
107 107 0.33333333333333337
109 107 -0.083333333333333343
128 107 -0.083333333333333329
108 108 0.33333333333333337
110 108 -0.083333333333333343
109 109 0.33333333333333337
110 109 -0.083333333333333343
110 110 0.33333333333333337
131 110 -0.083333333333333329
111 111 0.33333333333333337
112 111 -0.083333333333333343
112 112 0.33333333333333337
114 112 -0.083333333333333343
134 112 -0.083333333333333329
113 113 0.33333333333333337
115 113 -0.083333333333333343
114 114 0.33333333333333337
115 114 -0.083333333333333343
115 115 0.33333333333333337
117 115 -0.083333333333333343
136 115 -0.083333333333333329
116 116 0.33333333333333337
118 116 -0.083333333333333343
117 117 0.33333333333333337
118 117 -0.083333333333333343
118 118 0.33333333333333337
120 118 -0.083333333333333343
139 118 -0.083333333333333329
119 119 0.33333333333333337
121 119 -0.083333333333333343
120 120 0.33333333333333337
121 120 -0.083333333333333343
121 121 0.33333333333333337
123 121 -0.083333333333333343
142 121 -0.083333333333333329
122 122 0.33333333333333337
124 122 -0.083333333333333343
123 123 0.33333333333333337
124 123 -0.083333333333333343
124 124 0.33333333333333337
126 124 -0.083333333333333343
145 124 -0.083333333333333329
125 125 0.33333333333333337
127 125 -0.083333333333333343
126 126 0.33333333333333337
127 126 -0.083333333333333343
127 127 0.33333333333333337
129 127 -0.083333333333333343
148 127 -0.083333333333333329
128 128 0.33333333333333337
130 128 -0.083333333333333343
129 129 0.33333333333333337
130 129 -0.083333333333333343
130 130 0.33333333333333337
132 130 -0.083333333333333343
151 130 -0.083333333333333329
131 131 0.33333333333333337
133 131 -0.083333333333333343
132 132 0.33333333333333337
133 132 -0.083333333333333343
133 133 0.33333333333333337
154 133 -0.083333333333333329
134 134 0.33333333333333337
135 134 -0.083333333333333343
135 135 0.33333333333333337
137 135 -0.083333333333333343
157 135 -0.083333333333333329
136 136 0.33333333333333337
138 136 -0.083333333333333343
137 137 0.33333333333333337
138 137 -0.083333333333333343
138 138 0.33333333333333337
140 138 -0.083333333333333343
159 138 -0.083333333333333329
139 139 0.33333333333333337
141 139 -0.083333333333333343
140 140 0.33333333333333337
141 140 -0.083333333333333343
141 141 0.33333333333333337
143 141 -0.083333333333333343
162 141 -0.083333333333333329
142 142 0.33333333333333337
144 142 -0.083333333333333343
143 143 0.33333333333333337
144 143 -0.083333333333333343
144 144 0.33333333333333337
146 144 -0.083333333333333343
165 144 -0.083333333333333329
145 145 0.33333333333333337
147 145 -0.083333333333333343
146 146 0.33333333333333337
147 146 -0.083333333333333343
147 147 0.33333333333333337
149 147 -0.083333333333333343
168 147 -0.083333333333333329
148 148 0.33333333333333337
150 148 -0.083333333333333343
149 149 0.33333333333333337
150 149 -0.083333333333333343
150 150 0.33333333333333337
152 150 -0.083333333333333343
171 150 -0.083333333333333329
151 151 0.33333333333333337
153 151 -0.083333333333333343
152 152 0.33333333333333337
153 152 -0.083333333333333343
153 153 0.33333333333333337
155 153 -0.083333333333333343
174 153 -0.083333333333333329
154 154 0.33333333333333337
156 154 -0.083333333333333343
155 155 0.33333333333333337
156 155 -0.083333333333333343
156 156 0.33333333333333337
177 156 -0.083333333333333329
157 157 0.33333333333333337
158 157 -0.083333333333333343
158 158 0.33333333333333337
160 158 -0.083333333333333343
180 158 -0.083333333333333329
159 159 0.33333333333333337
161 159 -0.083333333333333343
160 160 0.33333333333333337
161 160 -0.083333333333333343
161 161 0.33333333333333337
163 161 -0.083333333333333343
182 161 -0.083333333333333329
162 162 0.33333333333333337
164 162 -0.083333333333333343
163 163 0.33333333333333337
164 163 -0.083333333333333343
164 164 0.33333333333333337
166 164 -0.083333333333333343
185 164 -0.083333333333333329
165 165 0.33333333333333337
167 165 -0.083333333333333343
166 166 0.33333333333333337
167 166 -0.083333333333333343
167 167 0.33333333333333337
169 167 -0.083333333333333343
188 167 -0.083333333333333329
168 168 0.33333333333333337
170 168 -0.083333333333333343
169 169 0.33333333333333337
170 169 -0.083333333333333343
170 170 0.33333333333333337
172 170 -0.083333333333333343
191 170 -0.083333333333333329
171 171 0.33333333333333337
173 171 -0.083333333333333343
172 172 0.33333333333333337
173 172 -0.083333333333333343
173 173 0.33333333333333337
175 173 -0.083333333333333343
194 173 -0.083333333333333329
174 174 0.33333333333333337
176 174 -0.083333333333333343
175 175 0.33333333333333337
176 175 -0.083333333333333343
176 176 0.33333333333333337
178 176 -0.083333333333333343
197 176 -0.083333333333333329
177 177 0.33333333333333337
179 177 -0.083333333333333343
178 178 0.33333333333333337
179 178 -0.083333333333333343
179 179 0.33333333333333337
200 179 -0.083333333333333329
180 180 0.33333333333333337
181 180 -0.083333333333333343
181 181 0.33333333333333337
183 181 -0.083333333333333343
203 181 -0.083333333333333329
182 182 0.33333333333333337
184 182 -0.083333333333333343
183 183 0.33333333333333337
184 183 -0.083333333333333343
184 184 0.33333333333333337
186 184 -0.083333333333333343
205 184 -0.083333333333333329
185 185 0.33333333333333337
187 185 -0.083333333333333343
186 186 0.33333333333333337
187 186 -0.083333333333333343
187 187 0.33333333333333337
189 187 -0.083333333333333343
208 187 -0.083333333333333329
188 188 0.33333333333333337
190 188 -0.083333333333333343
189 189 0.33333333333333337
190 189 -0.083333333333333343
190 190 0.33333333333333337
192 190 -0.083333333333333343
211 190 -0.083333333333333329
191 191 0.33333333333333337
193 191 -0.083333333333333343
192 192 0.33333333333333337
193 192 -0.083333333333333343
193 193 0.33333333333333337
195 193 -0.083333333333333343
214 193 -0.083333333333333329
194 194 0.33333333333333337
196 194 -0.083333333333333343
195 195 0.33333333333333337
196 195 -0.083333333333333343
196 196 0.33333333333333337
198 196 -0.083333333333333343
217 196 -0.083333333333333329
197 197 0.33333333333333337
199 197 -0.083333333333333343
198 198 0.33333333333333337
199 198 -0.083333333333333343
199 199 0.33333333333333337
201 199 -0.083333333333333343
220 199 -0.083333333333333329
200 200 0.33333333333333337
202 200 -0.083333333333333343
201 201 0.33333333333333337
202 201 -0.083333333333333343
202 202 0.33333333333333337
223 202 -0.083333333333333329
203 203 0.33333333333333337
204 203 -0.083333333333333343
204 204 0.33333333333333337
206 204 -0.083333333333333343
205 205 0.33333333333333337
207 205 -0.083333333333333343
206 206 0.33333333333333337
207 206 -0.083333333333333343
207 207 0.33333333333333337
209 207 -0.083333333333333343
208 208 0.33333333333333337
210 208 -0.083333333333333343
209 209 0.33333333333333337
210 209 -0.083333333333333343
210 210 0.33333333333333337
212 210 -0.083333333333333343
211 211 0.33333333333333337
213 211 -0.083333333333333343
212 212 0.33333333333333337
213 212 -0.083333333333333343
213 213 0.33333333333333337
215 213 -0.083333333333333343
214 214 0.33333333333333337
216 214 -0.083333333333333343
215 215 0.33333333333333337
216 215 -0.083333333333333343
216 216 0.33333333333333337
218 216 -0.083333333333333343
217 217 0.33333333333333337
219 217 -0.083333333333333343
218 218 0.33333333333333337
219 218 -0.083333333333333343
219 219 0.33333333333333337
221 219 -0.083333333333333343
220 220 0.33333333333333337
222 220 -0.083333333333333343
221 221 0.33333333333333337
222 221 -0.083333333333333343
222 222 0.33333333333333337
224 222 -0.083333333333333343
223 223 0.33333333333333337
225 223 -0.083333333333333343
224 224 0.33333333333333337
225 224 -0.083333333333333343
225 225 0.33333333333333337
