%%MatrixMarket matrix coordinate real symmetric
% square_p1_n8 mass M[int,int], mesh=unit_square_8 p=1, interior-restricted
% lower triangle only (row >= col); mirror for the full matrix
49 49 169
1 1 0.0078124999999999991
2 1 0.0013020833333333333
8 1 0.0013020833333333333
9 1 0.0013020833333333333
2 2 0.0078124999999999991
3 2 0.0013020833333333333
9 2 0.0013020833333333333
10 2 0.0013020833333333333
3 3 0.0078124999999999991
4 3 0.0013020833333333333
10 3 0.0013020833333333333
11 3 0.0013020833333333333
4 4 0.0078124999999999991
5 4 0.0013020833333333333
11 4 0.0013020833333333333
12 4 0.0013020833333333333
5 5 0.0078124999999999991
6 5 0.0013020833333333333
12 5 0.0013020833333333333
13 5 0.0013020833333333333
6 6 0.0078124999999999991
7 6 0.0013020833333333333
13 6 0.0013020833333333333
14 6 0.0013020833333333333
7 7 0.0078124999999999991
14 7 0.0013020833333333333
8 8 0.0078124999999999991
9 8 0.0013020833333333333
15 8 0.0013020833333333333
16 8 0.0013020833333333333
9 9 0.0078124999999999991
10 9 0.0013020833333333333
16 9 0.0013020833333333333
17 9 0.0013020833333333333
10 10 0.0078124999999999991
11 10 0.0013020833333333333
17 10 0.0013020833333333333
18 10 0.0013020833333333333
11 11 0.0078124999999999991
12 11 0.0013020833333333333
18 11 0.0013020833333333333
19 11 0.0013020833333333333
12 12 0.0078124999999999991
13 12 0.0013020833333333333
19 12 0.0013020833333333333
20 12 0.0013020833333333333
13 13 0.0078124999999999991
14 13 0.0013020833333333333
20 13 0.0013020833333333333
21 13 0.0013020833333333333
14 14 0.0078124999999999991
21 14 0.0013020833333333333
15 15 0.0078124999999999991
16 15 0.0013020833333333333
22 15 0.0013020833333333333
23 15 0.0013020833333333333
16 16 0.0078124999999999991
17 16 0.0013020833333333333
23 16 0.0013020833333333333
24 16 0.0013020833333333333
17 17 0.0078124999999999991
18 17 0.0013020833333333333
24 17 0.0013020833333333333
25 17 0.0013020833333333333
18 18 0.0078124999999999991
19 18 0.0013020833333333333
25 18 0.0013020833333333333
26 18 0.0013020833333333333
19 19 0.0078124999999999991
20 19 0.0013020833333333333
26 19 0.0013020833333333333
27 19 0.0013020833333333333
20 20 0.0078124999999999991
21 20 0.0013020833333333333
27 20 0.0013020833333333333
28 20 0.0013020833333333333
21 21 0.0078124999999999991
28 21 0.0013020833333333333
22 22 0.0078124999999999991
23 22 0.0013020833333333333
29 22 0.0013020833333333333
30 22 0.0013020833333333333
23 23 0.0078124999999999991
24 23 0.0013020833333333333
30 23 0.0013020833333333333
31 23 0.0013020833333333333
24 24 0.0078124999999999991
25 24 0.0013020833333333333
31 24 0.0013020833333333333
32 24 0.0013020833333333333
25 25 0.0078124999999999991
26 25 0.0013020833333333333
32 25 0.0013020833333333333
33 25 0.0013020833333333333
26 26 0.0078124999999999991
27 26 0.0013020833333333333
33 26 0.0013020833333333333
34 26 0.0013020833333333333
27 27 0.0078124999999999991
28 27 0.0013020833333333333
34 27 0.0013020833333333333
35 27 0.0013020833333333333
28 28 0.0078124999999999991
35 28 0.0013020833333333333
29 29 0.0078124999999999991
30 29 0.0013020833333333333
36 29 0.0013020833333333333
37 29 0.0013020833333333333
30 30 0.0078124999999999991
31 30 0.0013020833333333333
37 30 0.0013020833333333333
38 30 0.0013020833333333333
31 31 0.0078124999999999991
32 31 0.0013020833333333333
38 31 0.0013020833333333333
39 31 0.0013020833333333333
32 32 0.0078124999999999991
33 32 0.0013020833333333333
39 32 0.0013020833333333333
40 32 0.0013020833333333333
33 33 0.0078124999999999991
34 33 0.0013020833333333333
40 33 0.0013020833333333333
41 33 0.0013020833333333333
34 34 0.0078124999999999991
35 34 0.0013020833333333333
41 34 0.0013020833333333333
42 34 0.0013020833333333333
35 35 0.0078124999999999991
42 35 0.0013020833333333333
36 36 0.0078124999999999991
37 36 0.0013020833333333333
43 36 0.0013020833333333333
44 36 0.0013020833333333333
37 37 0.0078124999999999991
38 37 0.0013020833333333333
44 37 0.0013020833333333333
45 37 0.0013020833333333333
38 38 0.0078124999999999991
39 38 0.0013020833333333333
45 38 0.0013020833333333333
46 38 0.0013020833333333333
39 39 0.0078124999999999991
40 39 0.0013020833333333333
46 39 0.0013020833333333333
47 39 0.0013020833333333333
40 40 0.0078124999999999991
41 40 0.0013020833333333333
47 40 0.0013020833333333333
48 40 0.0013020833333333333
41 41 0.0078124999999999991
42 41 0.0013020833333333333
48 41 0.0013020833333333333
49 41 0.0013020833333333333
42 42 0.0078124999999999991
49 42 0.0013020833333333333
43 43 0.0078124999999999991
44 43 0.0013020833333333333
44 44 0.0078124999999999991
45 44 0.0013020833333333333
45 45 0.0078124999999999991
46 45 0.0013020833333333333
46 46 0.0078124999999999991
47 46 0.0013020833333333333
47 47 0.0078124999999999991
48 47 0.0013020833333333333
48 48 0.0078124999999999991
49 48 0.0013020833333333333
49 49 0.0078124999999999991
