%%MatrixMarket matrix coordinate real symmetric
% square_p2_n8 mass M[int,int], mesh=unit_square_8 p=2, interior-restricted
% lower triangle only (row >= col); mirror for the full matrix
225 225 1227
1 1 0.0031249999999999997
2 1 0.00017361111111111112
8 1 0.00017361111111111112
9 1 0.00017361111111111112
50 1 0.00026041666666666666
51 1 0.00026041666666666666
52 1 4.3402777777777779e-05
65 1 0.00026041666666666666
66 1 4.3402777777777779e-05
67 1 0.00026041666666666666
68 1 0.00026041666666666666
69 1 0.00026041666666666666
71 1 4.3402777777777779e-05
90 1 4.3402777777777779e-05
2 2 0.0031249999999999997
3 2 0.00017361111111111112
9 2 0.00017361111111111112
10 2 0.00017361111111111112
51 2 4.3402777777777779e-05
52 2 0.00026041666666666666
53 2 0.00026041666666666666
54 2 4.3402777777777779e-05
67 2 0.00026041666666666666
69 2 4.3402777777777779e-05
70 2 0.00026041666666666666
71 2 0.00026041666666666666
72 2 0.00026041666666666666
74 2 4.3402777777777779e-05
93 2 4.3402777777777779e-05
3 3 0.0031249999999999997
4 3 0.00017361111111111112
10 3 0.00017361111111111112
11 3 0.00017361111111111112
53 3 4.3402777777777779e-05
54 3 0.00026041666666666666
55 3 0.00026041666666666666
56 3 4.3402777777777779e-05
70 3 0.00026041666666666666
72 3 4.3402777777777779e-05
73 3 0.00026041666666666666
74 3 0.00026041666666666666
75 3 0.00026041666666666666
77 3 4.3402777777777779e-05
96 3 4.3402777777777779e-05
4 4 0.0031249999999999997
5 4 0.00017361111111111112
11 4 0.00017361111111111112
12 4 0.00017361111111111112
55 4 4.3402777777777779e-05
56 4 0.00026041666666666666
57 4 0.00026041666666666666
58 4 4.3402777777777779e-05
73 4 0.00026041666666666666
75 4 4.3402777777777779e-05
76 4 0.00026041666666666666
77 4 0.00026041666666666666
78 4 0.00026041666666666666
80 4 4.3402777777777779e-05
99 4 4.3402777777777779e-05
5 5 0.0031249999999999997
6 5 0.00017361111111111112
12 5 0.00017361111111111112
13 5 0.00017361111111111112
57 5 4.3402777777777779e-05
58 5 0.00026041666666666666
59 5 0.00026041666666666666
60 5 4.3402777777777779e-05
76 5 0.00026041666666666666
78 5 4.3402777777777779e-05
79 5 0.00026041666666666666
80 5 0.00026041666666666666
81 5 0.00026041666666666666
83 5 4.3402777777777779e-05
102 5 4.3402777777777779e-05
6 6 0.0031249999999999997
7 6 0.00017361111111111112
13 6 0.00017361111111111112
14 6 0.00017361111111111112
59 6 4.3402777777777779e-05
60 6 0.00026041666666666666
61 6 0.00026041666666666666
62 6 4.3402777777777779e-05
79 6 0.00026041666666666666
81 6 4.3402777777777779e-05
82 6 0.00026041666666666666
83 6 0.00026041666666666666
84 6 0.00026041666666666666
86 6 4.3402777777777779e-05
105 6 4.3402777777777779e-05
7 7 0.0031249999999999997
14 7 0.00017361111111111112
61 7 4.3402777777777779e-05
62 7 0.00026041666666666666
63 7 0.00026041666666666666
64 7 4.3402777777777779e-05
82 7 0.00026041666666666666
84 7 4.3402777777777779e-05
85 7 0.00026041666666666666
86 7 0.00026041666666666666
87 7 0.00026041666666666666
108 7 4.3402777777777779e-05
8 8 0.0031249999999999997
9 8 0.00017361111111111112
15 8 0.00017361111111111112
16 8 0.00017361111111111112
65 8 4.3402777777777779e-05
66 8 0.00026041666666666666
68 8 0.00026041666666666666
69 8 4.3402777777777779e-05
88 8 0.00026041666666666666
89 8 4.3402777777777779e-05
90 8 0.00026041666666666666
91 8 0.00026041666666666666
92 8 0.00026041666666666666
94 8 4.3402777777777779e-05
113 8 4.3402777777777779e-05
9 9 0.0031249999999999997
10 9 0.00017361111111111112
16 9 0.00017361111111111112
17 9 0.00017361111111111112
67 9 4.3402777777777779e-05
68 9 4.3402777777777779e-05
69 9 0.00026041666666666666
71 9 0.00026041666666666666
72 9 4.3402777777777779e-05
90 9 0.00026041666666666666
92 9 4.3402777777777779e-05
93 9 0.00026041666666666666
94 9 0.00026041666666666666
95 9 0.00026041666666666666
97 9 4.3402777777777779e-05
116 9 4.3402777777777779e-05
10 10 0.0031249999999999997
11 10 0.00017361111111111112
17 10 0.00017361111111111112
18 10 0.00017361111111111112
70 10 4.3402777777777779e-05
71 10 4.3402777777777779e-05
72 10 0.00026041666666666666
74 10 0.00026041666666666666
75 10 4.3402777777777779e-05
93 10 0.00026041666666666666
95 10 4.3402777777777779e-05
96 10 0.00026041666666666666
97 10 0.00026041666666666666
98 10 0.00026041666666666666
100 10 4.3402777777777779e-05
119 10 4.3402777777777779e-05
11 11 0.0031249999999999997
12 11 0.00017361111111111112
18 11 0.00017361111111111112
19 11 0.00017361111111111112
73 11 4.3402777777777779e-05
74 11 4.3402777777777779e-05
75 11 0.00026041666666666666
77 11 0.00026041666666666666
78 11 4.3402777777777779e-05
96 11 0.00026041666666666666
98 11 4.3402777777777779e-05
99 11 0.00026041666666666666
100 11 0.00026041666666666666
101 11 0.00026041666666666666
103 11 4.3402777777777779e-05
122 11 4.3402777777777779e-05
12 12 0.0031249999999999997
13 12 0.00017361111111111112
19 12 0.00017361111111111112
20 12 0.00017361111111111112
76 12 4.3402777777777779e-05
77 12 4.3402777777777779e-05
78 12 0.00026041666666666666
80 12 0.00026041666666666666
81 12 4.3402777777777779e-05
99 12 0.00026041666666666666
101 12 4.3402777777777779e-05
102 12 0.00026041666666666666
103 12 0.00026041666666666666
104 12 0.00026041666666666666
106 12 4.3402777777777779e-05
125 12 4.3402777777777779e-05
13 13 0.0031249999999999997
14 13 0.00017361111111111112
20 13 0.00017361111111111112
21 13 0.00017361111111111112
79 13 4.3402777777777779e-05
80 13 4.3402777777777779e-05
81 13 0.00026041666666666666
83 13 0.00026041666666666666
84 13 4.3402777777777779e-05
102 13 0.00026041666666666666
104 13 4.3402777777777779e-05
105 13 0.00026041666666666666
106 13 0.00026041666666666666
107 13 0.00026041666666666666
109 13 4.3402777777777779e-05
128 13 4.3402777777777779e-05
14 14 0.0031249999999999997
21 14 0.00017361111111111112
82 14 4.3402777777777779e-05
83 14 4.3402777777777779e-05
84 14 0.00026041666666666666
86 14 0.00026041666666666666
87 14 4.3402777777777779e-05
105 14 0.00026041666666666666
107 14 4.3402777777777779e-05
108 14 0.00026041666666666666
109 14 0.00026041666666666666
110 14 0.00026041666666666666
131 14 4.3402777777777779e-05
15 15 0.0031249999999999997
16 15 0.00017361111111111112
22 15 0.00017361111111111112
23 15 0.00017361111111111112
88 15 4.3402777777777779e-05
89 15 0.00026041666666666666
91 15 0.00026041666666666666
92 15 4.3402777777777779e-05
111 15 0.00026041666666666666
112 15 4.3402777777777779e-05
113 15 0.00026041666666666666
114 15 0.00026041666666666666
115 15 0.00026041666666666666
117 15 4.3402777777777779e-05
136 15 4.3402777777777779e-05
16 16 0.0031249999999999997
17 16 0.00017361111111111112
23 16 0.00017361111111111112
24 16 0.00017361111111111112
90 16 4.3402777777777779e-05
91 16 4.3402777777777779e-05
92 16 0.00026041666666666666
94 16 0.00026041666666666666
95 16 4.3402777777777779e-05
113 16 0.00026041666666666666
115 16 4.3402777777777779e-05
116 16 0.00026041666666666666
117 16 0.00026041666666666666
118 16 0.00026041666666666666
120 16 4.3402777777777779e-05
139 16 4.3402777777777779e-05
17 17 0.0031249999999999997
18 17 0.00017361111111111112
24 17 0.00017361111111111112
25 17 0.00017361111111111112
93 17 4.3402777777777779e-05
94 17 4.3402777777777779e-05
95 17 0.00026041666666666666
97 17 0.00026041666666666666
98 17 4.3402777777777779e-05
116 17 0.00026041666666666666
118 17 4.3402777777777779e-05
119 17 0.00026041666666666666
120 17 0.00026041666666666666
121 17 0.00026041666666666666
123 17 4.3402777777777779e-05
142 17 4.3402777777777779e-05
18 18 0.0031249999999999997
19 18 0.00017361111111111112
25 18 0.00017361111111111112
26 18 0.00017361111111111112
96 18 4.3402777777777779e-05
97 18 4.3402777777777779e-05
98 18 0.00026041666666666666
100 18 0.00026041666666666666
101 18 4.3402777777777779e-05
119 18 0.00026041666666666666
121 18 4.3402777777777779e-05
122 18 0.00026041666666666666
123 18 0.00026041666666666666
124 18 0.00026041666666666666
126 18 4.3402777777777779e-05
145 18 4.3402777777777779e-05
19 19 0.0031249999999999997
20 19 0.00017361111111111112
26 19 0.00017361111111111112
27 19 0.00017361111111111112
99 19 4.3402777777777779e-05
100 19 4.3402777777777779e-05
101 19 0.00026041666666666666
103 19 0.00026041666666666666
104 19 4.3402777777777779e-05
122 19 0.00026041666666666666
124 19 4.3402777777777779e-05
125 19 0.00026041666666666666
126 19 0.00026041666666666666
127 19 0.00026041666666666666
129 19 4.3402777777777779e-05
148 19 4.3402777777777779e-05
20 20 0.0031249999999999997
21 20 0.00017361111111111112
27 20 0.00017361111111111112
28 20 0.00017361111111111112
102 20 4.3402777777777779e-05
103 20 4.3402777777777779e-05
104 20 0.00026041666666666666
106 20 0.00026041666666666666
107 20 4.3402777777777779e-05
125 20 0.00026041666666666666
127 20 4.3402777777777779e-05
128 20 0.00026041666666666666
129 20 0.00026041666666666666
130 20 0.00026041666666666666
132 20 4.3402777777777779e-05
151 20 4.3402777777777779e-05
21 21 0.0031249999999999997
28 21 0.00017361111111111112
105 21 4.3402777777777779e-05
106 21 4.3402777777777779e-05
107 21 0.00026041666666666666
109 21 0.00026041666666666666
110 21 4.3402777777777779e-05
128 21 0.00026041666666666666
130 21 4.3402777777777779e-05
131 21 0.00026041666666666666
132 21 0.00026041666666666666
133 21 0.00026041666666666666
154 21 4.3402777777777779e-05
22 22 0.0031249999999999997
23 22 0.00017361111111111112
29 22 0.00017361111111111112
30 22 0.00017361111111111112
111 22 4.3402777777777779e-05
112 22 0.00026041666666666666
114 22 0.00026041666666666666
115 22 4.3402777777777779e-05
134 22 0.00026041666666666666
135 22 4.3402777777777779e-05
136 22 0.00026041666666666666
137 22 0.00026041666666666666
138 22 0.00026041666666666666
140 22 4.3402777777777779e-05
159 22 4.3402777777777779e-05
23 23 0.0031249999999999997
24 23 0.00017361111111111112
30 23 0.00017361111111111112
31 23 0.00017361111111111112
113 23 4.3402777777777779e-05
114 23 4.3402777777777779e-05
115 23 0.00026041666666666666
117 23 0.00026041666666666666
118 23 4.3402777777777779e-05
136 23 0.00026041666666666666
138 23 4.3402777777777779e-05
139 23 0.00026041666666666666
140 23 0.00026041666666666666
141 23 0.00026041666666666666
143 23 4.3402777777777779e-05
162 23 4.3402777777777779e-05
24 24 0.0031249999999999997
25 24 0.00017361111111111112
31 24 0.00017361111111111112
32 24 0.00017361111111111112
116 24 4.3402777777777779e-05
117 24 4.3402777777777779e-05
118 24 0.00026041666666666666
120 24 0.00026041666666666666
121 24 4.3402777777777779e-05
139 24 0.00026041666666666666
141 24 4.3402777777777779e-05
142 24 0.00026041666666666666
143 24 0.00026041666666666666
144 24 0.00026041666666666666
146 24 4.3402777777777779e-05
165 24 4.3402777777777779e-05
25 25 0.0031249999999999997
26 25 0.00017361111111111112
32 25 0.00017361111111111112
33 25 0.00017361111111111112
119 25 4.3402777777777779e-05
120 25 4.3402777777777779e-05
121 25 0.00026041666666666666
123 25 0.00026041666666666666
124 25 4.3402777777777779e-05
142 25 0.00026041666666666666
144 25 4.3402777777777779e-05
145 25 0.00026041666666666666
146 25 0.00026041666666666666
147 25 0.00026041666666666666
149 25 4.3402777777777779e-05
168 25 4.3402777777777779e-05
26 26 0.0031249999999999997
27 26 0.00017361111111111112
33 26 0.00017361111111111112
34 26 0.00017361111111111112
122 26 4.3402777777777779e-05
123 26 4.3402777777777779e-05
124 26 0.00026041666666666666
126 26 0.00026041666666666666
127 26 4.3402777777777779e-05
145 26 0.00026041666666666666
147 26 4.3402777777777779e-05
148 26 0.00026041666666666666
149 26 0.00026041666666666666
150 26 0.00026041666666666666
152 26 4.3402777777777779e-05
171 26 4.3402777777777779e-05
27 27 0.0031249999999999997
28 27 0.00017361111111111112
34 27 0.00017361111111111112
35 27 0.00017361111111111112
125 27 4.3402777777777779e-05
126 27 4.3402777777777779e-05
127 27 0.00026041666666666666
129 27 0.00026041666666666666
130 27 4.3402777777777779e-05
148 27 0.00026041666666666666
150 27 4.3402777777777779e-05
151 27 0.00026041666666666666
152 27 0.00026041666666666666
153 27 0.00026041666666666666
155 27 4.3402777777777779e-05
174 27 4.3402777777777779e-05
28 28 0.0031249999999999997
35 28 0.00017361111111111112
128 28 4.3402777777777779e-05
129 28 4.3402777777777779e-05
130 28 0.00026041666666666666
132 28 0.00026041666666666666
133 28 4.3402777777777779e-05
151 28 0.00026041666666666666
153 28 4.3402777777777779e-05
154 28 0.00026041666666666666
155 28 0.00026041666666666666
156 28 0.00026041666666666666
177 28 4.3402777777777779e-05
29 29 0.0031249999999999997
30 29 0.00017361111111111112
36 29 0.00017361111111111112
37 29 0.00017361111111111112
134 29 4.3402777777777779e-05
135 29 0.00026041666666666666
137 29 0.00026041666666666666
138 29 4.3402777777777779e-05
157 29 0.00026041666666666666
158 29 4.3402777777777779e-05
159 29 0.00026041666666666666
160 29 0.00026041666666666666
161 29 0.00026041666666666666
163 29 4.3402777777777779e-05
182 29 4.3402777777777779e-05
30 30 0.0031249999999999997
31 30 0.00017361111111111112
37 30 0.00017361111111111112
38 30 0.00017361111111111112
136 30 4.3402777777777779e-05
137 30 4.3402777777777779e-05
138 30 0.00026041666666666666
140 30 0.00026041666666666666
141 30 4.3402777777777779e-05
159 30 0.00026041666666666666
161 30 4.3402777777777779e-05
162 30 0.00026041666666666666
163 30 0.00026041666666666666
164 30 0.00026041666666666666
166 30 4.3402777777777779e-05
185 30 4.3402777777777779e-05
31 31 0.0031249999999999997
32 31 0.00017361111111111112
38 31 0.00017361111111111112
39 31 0.00017361111111111112
139 31 4.3402777777777779e-05
140 31 4.3402777777777779e-05
141 31 0.00026041666666666666
143 31 0.00026041666666666666
144 31 4.3402777777777779e-05
162 31 0.00026041666666666666
164 31 4.3402777777777779e-05
165 31 0.00026041666666666666
166 31 0.00026041666666666666
167 31 0.00026041666666666666
169 31 4.3402777777777779e-05
188 31 4.3402777777777779e-05
32 32 0.0031249999999999997
33 32 0.00017361111111111112
39 32 0.00017361111111111112
40 32 0.00017361111111111112
142 32 4.3402777777777779e-05
143 32 4.3402777777777779e-05
144 32 0.00026041666666666666
146 32 0.00026041666666666666
147 32 4.3402777777777779e-05
165 32 0.00026041666666666666
167 32 4.3402777777777779e-05
168 32 0.00026041666666666666
169 32 0.00026041666666666666
170 32 0.00026041666666666666
172 32 4.3402777777777779e-05
191 32 4.3402777777777779e-05
33 33 0.0031249999999999997
34 33 0.00017361111111111112
40 33 0.00017361111111111112
41 33 0.00017361111111111112
145 33 4.3402777777777779e-05
146 33 4.3402777777777779e-05
147 33 0.00026041666666666666
149 33 0.00026041666666666666
150 33 4.3402777777777779e-05
168 33 0.00026041666666666666
170 33 4.3402777777777779e-05
171 33 0.00026041666666666666
172 33 0.00026041666666666666
173 33 0.00026041666666666666
175 33 4.3402777777777779e-05
194 33 4.3402777777777779e-05
34 34 0.0031249999999999997
35 34 0.00017361111111111112
41 34 0.00017361111111111112
42 34 0.00017361111111111112
148 34 4.3402777777777779e-05
149 34 4.3402777777777779e-05
150 34 0.00026041666666666666
152 34 0.00026041666666666666
153 34 4.3402777777777779e-05
171 34 0.00026041666666666666
173 34 4.3402777777777779e-05
174 34 0.00026041666666666666
175 34 0.00026041666666666666
176 34 0.00026041666666666666
178 34 4.3402777777777779e-05
197 34 4.3402777777777779e-05
35 35 0.0031249999999999997
42 35 0.00017361111111111112
151 35 4.3402777777777779e-05
152 35 4.3402777777777779e-05
153 35 0.00026041666666666666
155 35 0.00026041666666666666
156 35 4.3402777777777779e-05
174 35 0.00026041666666666666
176 35 4.3402777777777779e-05
177 35 0.00026041666666666666
178 35 0.00026041666666666666
179 35 0.00026041666666666666
200 35 4.3402777777777779e-05
36 36 0.0031249999999999997
37 36 0.00017361111111111112
43 36 0.00017361111111111112
44 36 0.00017361111111111112
157 36 4.3402777777777779e-05
158 36 0.00026041666666666666
160 36 0.00026041666666666666
161 36 4.3402777777777779e-05
180 36 0.00026041666666666666
181 36 4.3402777777777779e-05
182 36 0.00026041666666666666
183 36 0.00026041666666666666
184 36 0.00026041666666666666
186 36 4.3402777777777779e-05
205 36 4.3402777777777779e-05
37 37 0.0031249999999999997
38 37 0.00017361111111111112
44 37 0.00017361111111111112
45 37 0.00017361111111111112
159 37 4.3402777777777779e-05
160 37 4.3402777777777779e-05
161 37 0.00026041666666666666
163 37 0.00026041666666666666
164 37 4.3402777777777779e-05
182 37 0.00026041666666666666
184 37 4.3402777777777779e-05
185 37 0.00026041666666666666
186 37 0.00026041666666666666
187 37 0.00026041666666666666
189 37 4.3402777777777779e-05
208 37 4.3402777777777779e-05
38 38 0.0031249999999999997
39 38 0.00017361111111111112
45 38 0.00017361111111111112
46 38 0.00017361111111111112
162 38 4.3402777777777779e-05
163 38 4.3402777777777779e-05
164 38 0.00026041666666666666
166 38 0.00026041666666666666
167 38 4.3402777777777779e-05
185 38 0.00026041666666666666
187 38 4.3402777777777779e-05
188 38 0.00026041666666666666
189 38 0.00026041666666666666
190 38 0.00026041666666666666
192 38 4.3402777777777779e-05
211 38 4.3402777777777779e-05
39 39 0.0031249999999999997
40 39 0.00017361111111111112
46 39 0.00017361111111111112
47 39 0.00017361111111111112
165 39 4.3402777777777779e-05
166 39 4.3402777777777779e-05
167 39 0.00026041666666666666
169 39 0.00026041666666666666
170 39 4.3402777777777779e-05
188 39 0.00026041666666666666
190 39 4.3402777777777779e-05
191 39 0.00026041666666666666
192 39 0.00026041666666666666
193 39 0.00026041666666666666
195 39 4.3402777777777779e-05
214 39 4.3402777777777779e-05
40 40 0.0031249999999999997
41 40 0.00017361111111111112
47 40 0.00017361111111111112
48 40 0.00017361111111111112
168 40 4.3402777777777779e-05
169 40 4.3402777777777779e-05
170 40 0.00026041666666666666
172 40 0.00026041666666666666
173 40 4.3402777777777779e-05
191 40 0.00026041666666666666
193 40 4.3402777777777779e-05
194 40 0.00026041666666666666
195 40 0.00026041666666666666
196 40 0.00026041666666666666
198 40 4.3402777777777779e-05
217 40 4.3402777777777779e-05
41 41 0.0031249999999999997
42 41 0.00017361111111111112
48 41 0.00017361111111111112
49 41 0.00017361111111111112
171 41 4.3402777777777779e-05
172 41 4.3402777777777779e-05
173 41 0.00026041666666666666
175 41 0.00026041666666666666
176 41 4.3402777777777779e-05
194 41 0.00026041666666666666
196 41 4.3402777777777779e-05
197 41 0.00026041666666666666
198 41 0.00026041666666666666
199 41 0.00026041666666666666
201 41 4.3402777777777779e-05
220 41 4.3402777777777779e-05
42 42 0.0031249999999999997
49 42 0.00017361111111111112
174 42 4.3402777777777779e-05
175 42 4.3402777777777779e-05
176 42 0.00026041666666666666
178 42 0.00026041666666666666
179 42 4.3402777777777779e-05
197 42 0.00026041666666666666
199 42 4.3402777777777779e-05
200 42 0.00026041666666666666
201 42 0.00026041666666666666
202 42 0.00026041666666666666
223 42 4.3402777777777779e-05
43 43 0.0031249999999999997
44 43 0.00017361111111111112
180 43 4.3402777777777779e-05
181 43 0.00026041666666666666
183 43 0.00026041666666666666
184 43 4.3402777777777779e-05
203 43 0.00026041666666666666
204 43 4.3402777777777779e-05
205 43 0.00026041666666666666
206 43 0.00026041666666666666
207 43 0.00026041666666666666
209 43 4.3402777777777779e-05
44 44 0.0031249999999999997
45 44 0.00017361111111111112
182 44 4.3402777777777779e-05
183 44 4.3402777777777779e-05
184 44 0.00026041666666666666
186 44 0.00026041666666666666
187 44 4.3402777777777779e-05
205 44 0.00026041666666666666
207 44 4.3402777777777779e-05
208 44 0.00026041666666666666
209 44 0.00026041666666666666
210 44 0.00026041666666666666
212 44 4.3402777777777779e-05
45 45 0.0031249999999999997
46 45 0.00017361111111111112
185 45 4.3402777777777779e-05
186 45 4.3402777777777779e-05
187 45 0.00026041666666666666
189 45 0.00026041666666666666
190 45 4.3402777777777779e-05
208 45 0.00026041666666666666
210 45 4.3402777777777779e-05
211 45 0.00026041666666666666
212 45 0.00026041666666666666
213 45 0.00026041666666666666
215 45 4.3402777777777779e-05
46 46 0.0031249999999999997
47 46 0.00017361111111111112
188 46 4.3402777777777779e-05
189 46 4.3402777777777779e-05
190 46 0.00026041666666666666
192 46 0.00026041666666666666
193 46 4.3402777777777779e-05
211 46 0.00026041666666666666
213 46 4.3402777777777779e-05
214 46 0.00026041666666666666
215 46 0.00026041666666666666
216 46 0.00026041666666666666
218 46 4.3402777777777779e-05
47 47 0.0031249999999999997
48 47 0.00017361111111111112
191 47 4.3402777777777779e-05
192 47 4.3402777777777779e-05
193 47 0.00026041666666666666
195 47 0.00026041666666666666
196 47 4.3402777777777779e-05
214 47 0.00026041666666666666
216 47 4.3402777777777779e-05
217 47 0.00026041666666666666
218 47 0.00026041666666666666
219 47 0.00026041666666666666
221 47 4.3402777777777779e-05
48 48 0.0031249999999999997
49 48 0.00017361111111111112
194 48 4.3402777777777779e-05
195 48 4.3402777777777779e-05
196 48 0.00026041666666666666
198 48 0.00026041666666666666
199 48 4.3402777777777779e-05
217 48 0.00026041666666666666
219 48 4.3402777777777779e-05
220 48 0.00026041666666666666
221 48 0.00026041666666666666
222 48 0.00026041666666666666
224 48 4.3402777777777779e-05
49 49 0.0031249999999999997
197 49 4.3402777777777779e-05
198 49 4.3402777777777779e-05
199 49 0.00026041666666666666
201 49 0.00026041666666666666
202 49 4.3402777777777779e-05
220 49 0.00026041666666666666
222 49 4.3402777777777779e-05
223 49 0.00026041666666666666
224 49 0.00026041666666666666
225 49 0.00026041666666666666
50 50 0.00017361111111111112
51 50 4.3402777777777779e-05
65 50 4.3402777777777779e-05
51 51 0.00017361111111111112
52 51 4.3402777777777779e-05
67 51 4.3402777777777779e-05
52 52 0.00017361111111111112
53 52 4.3402777777777779e-05
67 52 4.3402777777777779e-05
53 53 0.00017361111111111112
54 53 4.3402777777777779e-05
70 53 4.3402777777777779e-05
54 54 0.00017361111111111112
55 54 4.3402777777777779e-05
70 54 4.3402777777777779e-05
55 55 0.00017361111111111112
56 55 4.3402777777777779e-05
73 55 4.3402777777777779e-05
56 56 0.00017361111111111112
57 56 4.3402777777777779e-05
73 56 4.3402777777777779e-05
57 57 0.00017361111111111112
58 57 4.3402777777777779e-05
76 57 4.3402777777777779e-05
58 58 0.00017361111111111112
59 58 4.3402777777777779e-05
76 58 4.3402777777777779e-05
59 59 0.00017361111111111112
60 59 4.3402777777777779e-05
79 59 4.3402777777777779e-05
60 60 0.00017361111111111112
61 60 4.3402777777777779e-05
79 60 4.3402777777777779e-05
61 61 0.00017361111111111112
62 61 4.3402777777777779e-05
82 61 4.3402777777777779e-05
62 62 0.00017361111111111112
63 62 4.3402777777777779e-05
82 62 4.3402777777777779e-05
63 63 0.00017361111111111112
64 63 4.3402777777777779e-05
85 63 4.3402777777777779e-05
64 64 0.00017361111111111112
85 64 4.3402777777777779e-05
65 65 0.00017361111111111112
66 65 4.3402777777777779e-05
68 65 4.3402777777777779e-05
66 66 0.00017361111111111112
68 66 4.3402777777777779e-05
88 66 4.3402777777777779e-05
67 67 0.00017361111111111112
69 67 4.3402777777777779e-05
71 67 4.3402777777777779e-05
68 68 0.00017361111111111112
69 68 4.3402777777777779e-05
90 68 4.3402777777777779e-05
69 69 0.00017361111111111112
71 69 4.3402777777777779e-05
90 69 4.3402777777777779e-05
70 70 0.00017361111111111112
72 70 4.3402777777777779e-05
74 70 4.3402777777777779e-05
71 71 0.00017361111111111112
72 71 4.3402777777777779e-05
93 71 4.3402777777777779e-05
72 72 0.00017361111111111112
74 72 4.3402777777777779e-05
93 72 4.3402777777777779e-05
73 73 0.00017361111111111112
75 73 4.3402777777777779e-05
77 73 4.3402777777777779e-05
74 74 0.00017361111111111112
75 74 4.3402777777777779e-05
96 74 4.3402777777777779e-05
75 75 0.00017361111111111112
77 75 4.3402777777777779e-05
96 75 4.3402777777777779e-05
76 76 0.00017361111111111112
78 76 4.3402777777777779e-05
80 76 4.3402777777777779e-05
77 77 0.00017361111111111112
78 77 4.3402777777777779e-05
99 77 4.3402777777777779e-05
78 78 0.00017361111111111112
80 78 4.3402777777777779e-05
99 78 4.3402777777777779e-05
79 79 0.00017361111111111112
81 79 4.3402777777777779e-05
83 79 4.3402777777777779e-05
80 80 0.00017361111111111112
81 80 4.3402777777777779e-05
102 80 4.3402777777777779e-05
81 81 0.00017361111111111112
83 81 4.3402777777777779e-05
102 81 4.3402777777777779e-05
82 82 0.00017361111111111112
84 82 4.3402777777777779e-05
86 82 4.3402777777777779e-05
83 83 0.00017361111111111112
84 83 4.3402777777777779e-05
105 83 4.3402777777777779e-05
84 84 0.00017361111111111112
86 84 4.3402777777777779e-05
105 84 4.3402777777777779e-05
85 85 0.00017361111111111112
87 85 4.3402777777777779e-05
86 86 0.00017361111111111112
87 86 4.3402777777777779e-05
108 86 4.3402777777777779e-05
87 87 0.00017361111111111112
108 87 4.3402777777777779e-05
88 88 0.00017361111111111112
89 88 4.3402777777777779e-05
91 88 4.3402777777777779e-05
89 89 0.00017361111111111112
91 89 4.3402777777777779e-05
111 89 4.3402777777777779e-05
90 90 0.00017361111111111112
92 90 4.3402777777777779e-05
94 90 4.3402777777777779e-05
91 91 0.00017361111111111112
92 91 4.3402777777777779e-05
113 91 4.3402777777777779e-05
92 92 0.00017361111111111112
94 92 4.3402777777777779e-05
113 92 4.3402777777777779e-05
93 93 0.00017361111111111112
95 93 4.3402777777777779e-05
97 93 4.3402777777777779e-05
94 94 0.00017361111111111112
95 94 4.3402777777777779e-05
116 94 4.3402777777777779e-05
95 95 0.00017361111111111112
97 95 4.3402777777777779e-05
116 95 4.3402777777777779e-05
96 96 0.00017361111111111112
98 96 4.3402777777777779e-05
100 96 4.3402777777777779e-05
97 97 0.00017361111111111112
98 97 4.3402777777777779e-05
119 97 4.3402777777777779e-05
98 98 0.00017361111111111112
100 98 4.3402777777777779e-05
119 98 4.3402777777777779e-05
99 99 0.00017361111111111112
101 99 4.3402777777777779e-05
103 99 4.3402777777777779e-05
100 100 0.00017361111111111112
101 100 4.3402777777777779e-05
122 100 4.3402777777777779e-05
101 101 0.00017361111111111112
103 101 4.3402777777777779e-05
122 101 4.3402777777777779e-05
102 102 0.00017361111111111112
104 102 4.3402777777777779e-05
106 102 4.3402777777777779e-05
103 103 0.00017361111111111112
104 103 4.3402777777777779e-05
125 103 4.3402777777777779e-05
104 104 0.00017361111111111112
106 104 4.3402777777777779e-05
125 104 4.3402777777777779e-05
105 105 0.00017361111111111112
107 105 4.3402777777777779e-05
109 105 4.3402777777777779e-05
106 106 0.00017361111111111112
107 106 4.3402777777777779e-05
128 106 4.3402777777777779e-05
107 107 0.00017361111111111112
109 107 4.3402777777777779e-05
128 107 4.3402777777777779e-05
108 108 0.00017361111111111112
110 108 4.3402777777777779e-05
109 109 0.00017361111111111112
110 109 4.3402777777777779e-05
131 109 4.3402777777777779e-05
110 110 0.00017361111111111112
131 110 4.3402777777777779e-05
111 111 0.00017361111111111112
112 111 4.3402777777777779e-05
114 111 4.3402777777777779e-05
112 112 0.00017361111111111112
114 112 4.3402777777777779e-05
134 112 4.3402777777777779e-05
113 113 0.00017361111111111112
115 113 4.3402777777777779e-05
117 113 4.3402777777777779e-05
114 114 0.00017361111111111112
115 114 4.3402777777777779e-05
136 114 4.3402777777777779e-05
115 115 0.00017361111111111112
117 115 4.3402777777777779e-05
136 115 4.3402777777777779e-05
116 116 0.00017361111111111112
118 116 4.3402777777777779e-05
120 116 4.3402777777777779e-05
117 117 0.00017361111111111112
118 117 4.3402777777777779e-05
139 117 4.3402777777777779e-05
118 118 0.00017361111111111112
120 118 4.3402777777777779e-05
139 118 4.3402777777777779e-05
119 119 0.00017361111111111112
121 119 4.3402777777777779e-05
123 119 4.3402777777777779e-05
120 120 0.00017361111111111112
121 120 4.3402777777777779e-05
142 120 4.3402777777777779e-05
121 121 0.00017361111111111112
123 121 4.3402777777777779e-05
142 121 4.3402777777777779e-05
122 122 0.00017361111111111112
124 122 4.3402777777777779e-05
126 122 4.3402777777777779e-05
123 123 0.00017361111111111112
124 123 4.3402777777777779e-05
145 123 4.3402777777777779e-05
124 124 0.00017361111111111112
126 124 4.3402777777777779e-05
145 124 4.3402777777777779e-05
125 125 0.00017361111111111112
127 125 4.3402777777777779e-05
129 125 4.3402777777777779e-05
126 126 0.00017361111111111112
127 126 4.3402777777777779e-05
148 126 4.3402777777777779e-05
127 127 0.00017361111111111112
129 127 4.3402777777777779e-05
148 127 4.3402777777777779e-05
128 128 0.00017361111111111112
130 128 4.3402777777777779e-05
132 128 4.3402777777777779e-05
129 129 0.00017361111111111112
130 129 4.3402777777777779e-05
151 129 4.3402777777777779e-05
130 130 0.00017361111111111112
132 130 4.3402777777777779e-05
151 130 4.3402777777777779e-05
131 131 0.00017361111111111112
133 131 4.3402777777777779e-05
132 132 0.00017361111111111112
133 132 4.3402777777777779e-05
154 132 4.3402777777777779e-05
133 133 0.00017361111111111112
154 133 4.3402777777777779e-05
134 134 0.00017361111111111112
135 134 4.3402777777777779e-05
137 134 4.3402777777777779e-05
135 135 0.00017361111111111112
137 135 4.3402777777777779e-05
157 135 4.3402777777777779e-05
136 136 0.00017361111111111112
138 136 4.3402777777777779e-05
140 136 4.3402777777777779e-05
137 137 0.00017361111111111112
138 137 4.3402777777777779e-05
159 137 4.3402777777777779e-05
138 138 0.00017361111111111112
140 138 4.3402777777777779e-05
159 138 4.3402777777777779e-05
139 139 0.00017361111111111112
141 139 4.3402777777777779e-05
143 139 4.3402777777777779e-05
140 140 0.00017361111111111112
141 140 4.3402777777777779e-05
162 140 4.3402777777777779e-05
141 141 0.00017361111111111112
143 141 4.3402777777777779e-05
162 141 4.3402777777777779e-05
142 142 0.00017361111111111112
144 142 4.3402777777777779e-05
146 142 4.3402777777777779e-05
143 143 0.00017361111111111112
144 143 4.3402777777777779e-05
165 143 4.3402777777777779e-05
144 144 0.00017361111111111112
146 144 4.3402777777777779e-05
165 144 4.3402777777777779e-05
145 145 0.00017361111111111112
147 145 4.3402777777777779e-05
149 145 4.3402777777777779e-05
146 146 0.00017361111111111112
147 146 4.3402777777777779e-05
168 146 4.3402777777777779e-05
147 147 0.00017361111111111112
149 147 4.3402777777777779e-05
168 147 4.3402777777777779e-05
148 148 0.00017361111111111112
150 148 4.3402777777777779e-05
152 148 4.3402777777777779e-05
149 149 0.00017361111111111112
150 149 4.3402777777777779e-05
171 149 4.3402777777777779e-05
150 150 0.00017361111111111112
152 150 4.3402777777777779e-05
171 150 4.3402777777777779e-05
151 151 0.00017361111111111112
153 151 4.3402777777777779e-05
155 151 4.3402777777777779e-05
152 152 0.00017361111111111112
153 152 4.3402777777777779e-05
174 152 4.3402777777777779e-05
153 153 0.00017361111111111112
155 153 4.3402777777777779e-05
174 153 4.3402777777777779e-05
154 154 0.00017361111111111112
156 154 4.3402777777777779e-05
155 155 0.00017361111111111112
156 155 4.3402777777777779e-05
177 155 4.3402777777777779e-05
156 156 0.00017361111111111112
177 156 4.3402777777777779e-05
157 157 0.00017361111111111112
158 157 4.3402777777777779e-05
160 157 4.3402777777777779e-05
158 158 0.00017361111111111112
160 158 4.3402777777777779e-05
180 158 4.3402777777777779e-05
159 159 0.00017361111111111112
161 159 4.3402777777777779e-05
163 159 4.3402777777777779e-05
160 160 0.00017361111111111112
161 160 4.3402777777777779e-05
182 160 4.3402777777777779e-05
161 161 0.00017361111111111112
163 161 4.3402777777777779e-05
182 161 4.3402777777777779e-05
162 162 0.00017361111111111112
164 162 4.3402777777777779e-05
166 162 4.3402777777777779e-05
163 163 0.00017361111111111112
164 163 4.3402777777777779e-05
185 163 4.3402777777777779e-05
164 164 0.00017361111111111112
166 164 4.3402777777777779e-05
185 164 4.3402777777777779e-05
165 165 0.00017361111111111112
167 165 4.3402777777777779e-05
169 165 4.3402777777777779e-05
166 166 0.00017361111111111112
167 166 4.3402777777777779e-05
188 166 4.3402777777777779e-05
167 167 0.00017361111111111112
169 167 4.3402777777777779e-05
188 167 4.3402777777777779e-05
168 168 0.00017361111111111112
170 168 4.3402777777777779e-05
172 168 4.3402777777777779e-05
169 169 0.00017361111111111112
170 169 4.3402777777777779e-05
191 169 4.3402777777777779e-05
170 170 0.00017361111111111112
172 170 4.3402777777777779e-05
191 170 4.3402777777777779e-05
171 171 0.00017361111111111112
173 171 4.3402777777777779e-05
175 171 4.3402777777777779e-05
172 172 0.00017361111111111112
173 172 4.3402777777777779e-05
194 172 4.3402777777777779e-05
173 173 0.00017361111111111112
175 173 4.3402777777777779e-05
194 173 4.3402777777777779e-05
174 174 0.00017361111111111112
176 174 4.3402777777777779e-05
178 174 4.3402777777777779e-05
175 175 0.00017361111111111112
176 175 4.3402777777777779e-05
197 175 4.3402777777777779e-05
176 176 0.00017361111111111112
178 176 4.3402777777777779e-05
197 176 4.3402777777777779e-05
177 177 0.00017361111111111112
179 177 4.3402777777777779e-05
178 178 0.00017361111111111112
179 178 4.3402777777777779e-05
200 178 4.3402777777777779e-05
179 179 0.00017361111111111112
200 179 4.3402777777777779e-05
180 180 0.00017361111111111112
181 180 4.3402777777777779e-05
183 180 4.3402777777777779e-05
181 181 0.00017361111111111112
183 181 4.3402777777777779e-05
203 181 4.3402777777777779e-05
182 182 0.00017361111111111112
184 182 4.3402777777777779e-05
186 182 4.3402777777777779e-05
183 183 0.00017361111111111112
184 183 4.3402777777777779e-05
205 183 4.3402777777777779e-05
184 184 0.00017361111111111112
186 184 4.3402777777777779e-05
205 184 4.3402777777777779e-05
185 185 0.00017361111111111112
187 185 4.3402777777777779e-05
189 185 4.3402777777777779e-05
186 186 0.00017361111111111112
187 186 4.3402777777777779e-05
208 186 4.3402777777777779e-05
187 187 0.00017361111111111112
189 187 4.3402777777777779e-05
208 187 4.3402777777777779e-05
188 188 0.00017361111111111112
190 188 4.3402777777777779e-05
192 188 4.3402777777777779e-05
189 189 0.00017361111111111112
190 189 4.3402777777777779e-05
211 189 4.3402777777777779e-05
190 190 0.00017361111111111112
192 190 4.3402777777777779e-05
211 190 4.3402777777777779e-05
191 191 0.00017361111111111112
193 191 4.3402777777777779e-05
195 191 4.3402777777777779e-05
192 192 0.00017361111111111112
193 192 4.3402777777777779e-05
214 192 4.3402777777777779e-05
193 193 0.00017361111111111112
195 193 4.3402777777777779e-05
214 193 4.3402777777777779e-05
194 194 0.00017361111111111112
196 194 4.3402777777777779e-05
198 194 4.3402777777777779e-05
195 195 0.00017361111111111112
196 195 4.3402777777777779e-05
217 195 4.3402777777777779e-05
196 196 0.00017361111111111112
198 196 4.3402777777777779e-05
217 196 4.3402777777777779e-05
197 197 0.00017361111111111112
199 197 4.3402777777777779e-05
201 197 4.3402777777777779e-05
198 198 0.00017361111111111112
199 198 4.3402777777777779e-05
220 198 4.3402777777777779e-05
199 199 0.00017361111111111112
201 199 4.3402777777777779e-05
220 199 4.3402777777777779e-05
200 200 0.00017361111111111112
202 200 4.3402777777777779e-05
201 201 0.00017361111111111112
202 201 4.3402777777777779e-05
223 201 4.3402777777777779e-05
202 202 0.00017361111111111112
223 202 4.3402777777777779e-05
203 203 0.00017361111111111112
204 203 4.3402777777777779e-05
206 203 4.3402777777777779e-05
204 204 0.00017361111111111112
206 204 4.3402777777777779e-05
205 205 0.00017361111111111112
207 205 4.3402777777777779e-05
209 205 4.3402777777777779e-05
206 206 0.00017361111111111112
207 206 4.3402777777777779e-05
207 207 0.00017361111111111112
209 207 4.3402777777777779e-05
208 208 0.00017361111111111112
210 208 4.3402777777777779e-05
212 208 4.3402777777777779e-05
209 209 0.00017361111111111112
210 209 4.3402777777777779e-05
210 210 0.00017361111111111112
212 210 4.3402777777777779e-05
211 211 0.00017361111111111112
213 211 4.3402777777777779e-05
215 211 4.3402777777777779e-05
212 212 0.00017361111111111112
213 212 4.3402777777777779e-05
213 213 0.00017361111111111112
215 213 4.3402777777777779e-05
214 214 0.00017361111111111112
216 214 4.3402777777777779e-05
218 214 4.3402777777777779e-05
215 215 0.00017361111111111112
216 215 4.3402777777777779e-05
216 216 0.00017361111111111112
218 216 4.3402777777777779e-05
217 217 0.00017361111111111112
219 217 4.3402777777777779e-05
221 217 4.3402777777777779e-05
218 218 0.00017361111111111112
219 218 4.3402777777777779e-05
219 219 0.00017361111111111112
221 219 4.3402777777777779e-05
220 220 0.00017361111111111112
222 220 4.3402777777777779e-05
224 220 4.3402777777777779e-05
221 221 0.00017361111111111112
222 221 4.3402777777777779e-05
222 222 0.00017361111111111112
224 222 4.3402777777777779e-05
223 223 0.00017361111111111112
225 223 4.3402777777777779e-05
224 224 0.00017361111111111112
225 224 4.3402777777777779e-05
225 225 0.00017361111111111112
