%%MatrixMarket matrix coordinate real symmetric
% square_p1_n8 stiffness A[int,int], mesh=unit_square_8 p=1, interior-restricted
% lower triangle only (row >= col); mirror for the full matrix
49 49 133
1 1 4
2 1 -1
8 1 -1
2 2 4
3 2 -1
9 2 -1
3 3 4
4 3 -1
10 3 -1
4 4 4
5 4 -1
11 4 -1
5 5 4
6 5 -1
12 5 -1
6 6 4
7 6 -1
13 6 -1
7 7 4
14 7 -1
8 8 4
9 8 -1
15 8 -1
9 9 4
10 9 -1
16 9 -1
10 10 4
11 10 -1
17 10 -1
11 11 4
12 11 -1
18 11 -1
12 12 4
13 12 -1
19 12 -1
13 13 4
14 13 -1
20 13 -1
14 14 4
21 14 -1
15 15 4
16 15 -1
22 15 -1
16 16 4
17 16 -1
23 16 -1
17 17 4
18 17 -1
24 17 -1
18 18 4
19 18 -1
25 18 -1
19 19 4
20 19 -1
26 19 -1
20 20 4
21 20 -1
27 20 -1
21 21 4
28 21 -1
22 22 4
23 22 -1
29 22 -1
23 23 4
24 23 -1
30 23 -1
24 24 4
25 24 -1
31 24 -1
25 25 4
26 25 -1
32 25 -1
26 26 4
27 26 -1
33 26 -1
27 27 4
28 27 -1
34 27 -1
28 28 4
35 28 -1
29 29 4
30 29 -1
36 29 -1
30 30 4
31 30 -1
37 30 -1
31 31 4
32 31 -1
38 31 -1
32 32 4
33 32 -1
39 32 -1
33 33 4
34 33 -1
40 33 -1
34 34 4
35 34 -1
41 34 -1
35 35 4
42 35 -1
36 36 4
37 36 -1
43 36 -1
37 37 4
38 37 -1
44 37 -1
38 38 4
39 38 -1
45 38 -1
39 39 4
40 39 -1
46 39 -1
40 40 4
41 40 -1
47 40 -1
41 41 4
42 41 -1
48 41 -1
42 42 4
49 42 -1
43 43 4
44 43 -1
44 44 4
45 44 -1
45 45 4
46 45 -1
46 46 4
47 46 -1
47 47 4
48 47 -1
48 48 4
49 48 -1
49 49 4
