%%MatrixMarket matrix coordinate real symmetric
% square_p2_n32 stiffness A[int,int], mesh=unit_square_32 p=2, interior-restricted
% lower triangle only (row >= col); mirror for the full matrix
3969 3969 21205
1 1 2.666666666666667
2 1 -0.33333333333333337
32 1 -0.33333333333333337
962 1 0.16666666666666669
963 1 -0.083333333333333343
964 1 -0.16666666666666669
1025 1 -0.083333333333333287
1026 1 -0.16666666666666669
1027 1 -0.083333333333333343
1028 1 -0.083333333333333315
1029 1 0.16666666666666669
1031 1 -0.083333333333333343
1122 1 -0.083333333333333329
2 2 2.666666666666667
3 2 -0.33333333333333337
33 2 -0.33333333333333337
963 2 -0.083333333333333343
964 2 0.16666666666666669
965 2 -0.083333333333333343
966 2 -0.16666666666666669
1027 2 -0.083333333333333287
1029 2 -0.16666666666666669
1030 2 -0.083333333333333343
1031 2 -0.083333333333333315
1032 2 0.16666666666666669
1034 2 -0.083333333333333343
1125 2 -0.083333333333333329
3 3 2.666666666666667
4 3 -0.33333333333333337
34 3 -0.33333333333333337
965 3 -0.083333333333333343
966 3 0.16666666666666669
967 3 -0.083333333333333343
968 3 -0.16666666666666669
1030 3 -0.083333333333333287
1032 3 -0.16666666666666669
1033 3 -0.083333333333333343
1034 3 -0.083333333333333315
1035 3 0.16666666666666669
1037 3 -0.083333333333333343
1128 3 -0.083333333333333329
4 4 2.666666666666667
5 4 -0.33333333333333337
35 4 -0.33333333333333337
967 4 -0.083333333333333343
968 4 0.16666666666666669
969 4 -0.083333333333333343
970 4 -0.16666666666666669
1033 4 -0.083333333333333287
1035 4 -0.16666666666666669
1036 4 -0.083333333333333343
1037 4 -0.083333333333333315
1038 4 0.16666666666666669
1040 4 -0.083333333333333343
1131 4 -0.083333333333333329
5 5 2.666666666666667
6 5 -0.33333333333333337
36 5 -0.33333333333333337
969 5 -0.083333333333333343
970 5 0.16666666666666669
971 5 -0.083333333333333343
972 5 -0.16666666666666669
1036 5 -0.083333333333333287
1038 5 -0.16666666666666669
1039 5 -0.083333333333333343
1040 5 -0.083333333333333315
1041 5 0.16666666666666669
1043 5 -0.083333333333333343
1134 5 -0.083333333333333329
6 6 2.666666666666667
7 6 -0.33333333333333337
37 6 -0.33333333333333337
971 6 -0.083333333333333343
972 6 0.16666666666666669
973 6 -0.083333333333333343
974 6 -0.16666666666666669
1039 6 -0.083333333333333287
1041 6 -0.16666666666666669
1042 6 -0.083333333333333343
1043 6 -0.083333333333333315
1044 6 0.16666666666666669
1046 6 -0.083333333333333343
1137 6 -0.083333333333333329
7 7 2.666666666666667
8 7 -0.33333333333333337
38 7 -0.33333333333333337
973 7 -0.083333333333333343
974 7 0.16666666666666669
975 7 -0.083333333333333343
976 7 -0.16666666666666669
1042 7 -0.083333333333333287
1044 7 -0.16666666666666669
1045 7 -0.083333333333333343
1046 7 -0.083333333333333315
1047 7 0.16666666666666669
1049 7 -0.083333333333333343
1140 7 -0.083333333333333329
8 8 2.666666666666667
9 8 -0.33333333333333337
39 8 -0.33333333333333337
975 8 -0.083333333333333343
976 8 0.16666666666666669
977 8 -0.083333333333333343
978 8 -0.16666666666666669
1045 8 -0.083333333333333287
1047 8 -0.16666666666666669
1048 8 -0.083333333333333343
1049 8 -0.083333333333333315
1050 8 0.16666666666666669
1052 8 -0.083333333333333343
1143 8 -0.083333333333333329
9 9 2.666666666666667
10 9 -0.33333333333333337
40 9 -0.33333333333333337
977 9 -0.083333333333333343
978 9 0.16666666666666669
979 9 -0.083333333333333343
980 9 -0.16666666666666669
1048 9 -0.083333333333333287
1050 9 -0.16666666666666669
1051 9 -0.083333333333333343
1052 9 -0.083333333333333315
1053 9 0.16666666666666669
1055 9 -0.083333333333333343
1146 9 -0.083333333333333329
10 10 2.666666666666667
11 10 -0.33333333333333337
41 10 -0.33333333333333337
979 10 -0.083333333333333343
980 10 0.16666666666666669
981 10 -0.083333333333333343
982 10 -0.16666666666666669
1051 10 -0.083333333333333287
1053 10 -0.16666666666666669
1054 10 -0.083333333333333343
1055 10 -0.083333333333333315
1056 10 0.16666666666666669
1058 10 -0.083333333333333343
1149 10 -0.083333333333333329
11 11 2.666666666666667
12 11 -0.33333333333333337
42 11 -0.33333333333333337
981 11 -0.083333333333333343
982 11 0.16666666666666669
983 11 -0.083333333333333343
984 11 -0.16666666666666669
1054 11 -0.083333333333333287
1056 11 -0.16666666666666669
1057 11 -0.083333333333333343
1058 11 -0.083333333333333315
1059 11 0.16666666666666669
1061 11 -0.083333333333333343
1152 11 -0.083333333333333329
12 12 2.666666666666667
13 12 -0.33333333333333337
43 12 -0.33333333333333337
983 12 -0.083333333333333343
984 12 0.16666666666666669
985 12 -0.083333333333333343
986 12 -0.16666666666666669
1057 12 -0.083333333333333287
1059 12 -0.16666666666666669
1060 12 -0.083333333333333343
1061 12 -0.083333333333333315
1062 12 0.16666666666666669
1064 12 -0.083333333333333343
1155 12 -0.083333333333333329
13 13 2.666666666666667
14 13 -0.33333333333333337
44 13 -0.33333333333333337
985 13 -0.083333333333333343
986 13 0.16666666666666669
987 13 -0.083333333333333343
988 13 -0.16666666666666669
1060 13 -0.083333333333333287
1062 13 -0.16666666666666669
1063 13 -0.083333333333333343
1064 13 -0.083333333333333315
1065 13 0.16666666666666669
1067 13 -0.083333333333333343
1158 13 -0.083333333333333329
14 14 2.666666666666667
15 14 -0.33333333333333337
45 14 -0.33333333333333337
987 14 -0.083333333333333343
988 14 0.16666666666666669
989 14 -0.083333333333333343
990 14 -0.16666666666666669
1063 14 -0.083333333333333287
1065 14 -0.16666666666666669
1066 14 -0.083333333333333343
1067 14 -0.083333333333333315
1068 14 0.16666666666666669
1070 14 -0.083333333333333343
1161 14 -0.083333333333333329
15 15 2.666666666666667
16 15 -0.33333333333333337
46 15 -0.33333333333333337
989 15 -0.083333333333333343
990 15 0.16666666666666669
991 15 -0.083333333333333343
992 15 -0.16666666666666669
1066 15 -0.083333333333333287
1068 15 -0.16666666666666669
1069 15 -0.083333333333333343
1070 15 -0.083333333333333315
1071 15 0.16666666666666669
1073 15 -0.083333333333333343
1164 15 -0.083333333333333329
16 16 2.666666666666667
17 16 -0.33333333333333337
47 16 -0.33333333333333337
991 16 -0.083333333333333343
992 16 0.16666666666666669
993 16 -0.083333333333333343
994 16 -0.16666666666666669
1069 16 -0.083333333333333287
1071 16 -0.16666666666666669
1072 16 -0.083333333333333343
1073 16 -0.083333333333333315
1074 16 0.16666666666666669
1076 16 -0.083333333333333343
1167 16 -0.083333333333333329
17 17 2.666666666666667
18 17 -0.33333333333333337
48 17 -0.33333333333333337
993 17 -0.083333333333333343
994 17 0.16666666666666669
995 17 -0.083333333333333343
996 17 -0.16666666666666669
1072 17 -0.083333333333333287
1074 17 -0.16666666666666669
1075 17 -0.083333333333333343
1076 17 -0.083333333333333315
1077 17 0.16666666666666669
1079 17 -0.083333333333333343
1170 17 -0.083333333333333329
18 18 2.666666666666667
19 18 -0.33333333333333337
49 18 -0.33333333333333337
995 18 -0.083333333333333343
996 18 0.16666666666666669
997 18 -0.083333333333333343
998 18 -0.16666666666666669
1075 18 -0.083333333333333287
1077 18 -0.16666666666666669
1078 18 -0.083333333333333343
1079 18 -0.083333333333333315
1080 18 0.16666666666666669
1082 18 -0.083333333333333343
1173 18 -0.083333333333333329
19 19 2.666666666666667
20 19 -0.33333333333333337
50 19 -0.33333333333333337
997 19 -0.083333333333333343
998 19 0.16666666666666669
999 19 -0.083333333333333343
1000 19 -0.16666666666666669
1078 19 -0.083333333333333287
1080 19 -0.16666666666666669
1081 19 -0.083333333333333343
1082 19 -0.083333333333333315
1083 19 0.16666666666666669
1085 19 -0.083333333333333343
1176 19 -0.083333333333333329
20 20 2.666666666666667
21 20 -0.33333333333333337
51 20 -0.33333333333333337
999 20 -0.083333333333333343
1000 20 0.16666666666666669
1001 20 -0.083333333333333343
1002 20 -0.16666666666666669
1081 20 -0.083333333333333287
1083 20 -0.16666666666666669
1084 20 -0.083333333333333343
1085 20 -0.083333333333333315
1086 20 0.16666666666666669
1088 20 -0.083333333333333343
1179 20 -0.083333333333333329
21 21 2.666666666666667
22 21 -0.33333333333333337
52 21 -0.33333333333333337
1001 21 -0.083333333333333343
1002 21 0.16666666666666669
1003 21 -0.083333333333333343
1004 21 -0.16666666666666669
1084 21 -0.083333333333333287
1086 21 -0.16666666666666669
1087 21 -0.083333333333333343
1088 21 -0.083333333333333315
1089 21 0.16666666666666669
1091 21 -0.083333333333333343
1182 21 -0.083333333333333329
22 22 2.666666666666667
23 22 -0.33333333333333337
53 22 -0.33333333333333337
1003 22 -0.083333333333333343
1004 22 0.16666666666666669
1005 22 -0.083333333333333343
1006 22 -0.16666666666666669
1087 22 -0.083333333333333287
1089 22 -0.16666666666666669
1090 22 -0.083333333333333343
1091 22 -0.083333333333333315
1092 22 0.16666666666666669
1094 22 -0.083333333333333343
1185 22 -0.083333333333333329
23 23 2.666666666666667
24 23 -0.33333333333333337
54 23 -0.33333333333333337
1005 23 -0.083333333333333343
1006 23 0.16666666666666669
1007 23 -0.083333333333333343
1008 23 -0.16666666666666669
1090 23 -0.083333333333333287
1092 23 -0.16666666666666669
1093 23 -0.083333333333333343
1094 23 -0.083333333333333315
1095 23 0.16666666666666669
1097 23 -0.083333333333333343
1188 23 -0.083333333333333329
24 24 2.666666666666667
25 24 -0.33333333333333337
55 24 -0.33333333333333337
1007 24 -0.083333333333333343
1008 24 0.16666666666666669
1009 24 -0.083333333333333343
1010 24 -0.16666666666666669
1093 24 -0.083333333333333287
1095 24 -0.16666666666666669
1096 24 -0.083333333333333343
1097 24 -0.083333333333333315
1098 24 0.16666666666666669
1100 24 -0.083333333333333343
1191 24 -0.083333333333333329
25 25 2.666666666666667
26 25 -0.33333333333333337
56 25 -0.33333333333333337
1009 25 -0.083333333333333343
1010 25 0.16666666666666669
1011 25 -0.083333333333333343
1012 25 -0.16666666666666669
1096 25 -0.083333333333333287
1098 25 -0.16666666666666669
1099 25 -0.083333333333333343
1100 25 -0.083333333333333315
1101 25 0.16666666666666669
1103 25 -0.083333333333333343
1194 25 -0.083333333333333329
26 26 2.666666666666667
27 26 -0.33333333333333337
57 26 -0.33333333333333337
1011 26 -0.083333333333333343
1012 26 0.16666666666666669
1013 26 -0.083333333333333343
1014 26 -0.16666666666666669
1099 26 -0.083333333333333287
1101 26 -0.16666666666666669
1102 26 -0.083333333333333343
1103 26 -0.083333333333333315
1104 26 0.16666666666666669
1106 26 -0.083333333333333343
1197 26 -0.083333333333333329
27 27 2.666666666666667
28 27 -0.33333333333333337
58 27 -0.33333333333333337
1013 27 -0.083333333333333343
1014 27 0.16666666666666669
1015 27 -0.083333333333333343
1016 27 -0.16666666666666669
1102 27 -0.083333333333333287
1104 27 -0.16666666666666669
1105 27 -0.083333333333333343
1106 27 -0.083333333333333315
1107 27 0.16666666666666669
1109 27 -0.083333333333333343
1200 27 -0.083333333333333329
28 28 2.666666666666667
29 28 -0.33333333333333337
59 28 -0.33333333333333337
1015 28 -0.083333333333333343
1016 28 0.16666666666666669
1017 28 -0.083333333333333343
1018 28 -0.16666666666666669
1105 28 -0.083333333333333287
1107 28 -0.16666666666666669
1108 28 -0.083333333333333343
1109 28 -0.083333333333333315
1110 28 0.16666666666666669
1112 28 -0.083333333333333343
1203 28 -0.083333333333333329
29 29 2.666666666666667
30 29 -0.33333333333333337
60 29 -0.33333333333333337
1017 29 -0.083333333333333343
1018 29 0.16666666666666669
1019 29 -0.083333333333333343
1020 29 -0.16666666666666669
1108 29 -0.083333333333333287
1110 29 -0.16666666666666669
1111 29 -0.083333333333333343
1112 29 -0.083333333333333315
1113 29 0.16666666666666669
1115 29 -0.083333333333333343
1206 29 -0.083333333333333329
30 30 2.666666666666667
31 30 -0.33333333333333337
61 30 -0.33333333333333337
1019 30 -0.083333333333333343
1020 30 0.16666666666666669
1021 30 -0.083333333333333343
1022 30 -0.16666666666666669
1111 30 -0.083333333333333287
1113 30 -0.16666666666666669
1114 30 -0.083333333333333343
1115 30 -0.083333333333333315
1116 30 0.16666666666666669
1118 30 -0.083333333333333343
1209 30 -0.083333333333333329
31 31 2.666666666666667
62 31 -0.33333333333333337
1021 31 -0.083333333333333343
1022 31 0.16666666666666669
1023 31 -0.083333333333333343
1024 31 -0.16666666666666669
1114 31 -0.083333333333333287
1116 31 -0.16666666666666669
1117 31 -0.083333333333333343
1118 31 -0.083333333333333315
1119 31 0.16666666666666669
1212 31 -0.083333333333333329
32 32 2.666666666666667
33 32 -0.33333333333333337
63 32 -0.33333333333333337
1025 32 -0.083333333333333343
1026 32 0.16666666666666669
1028 32 -0.083333333333333343
1029 32 -0.16666666666666669
1120 32 -0.083333333333333287
1121 32 -0.16666666666666669
1122 32 -0.083333333333333343
1123 32 -0.083333333333333315
1124 32 0.16666666666666669
1126 32 -0.083333333333333343
1217 32 -0.083333333333333329
33 33 2.666666666666667
34 33 -0.33333333333333337
64 33 -0.33333333333333337
1027 33 -0.083333333333333343
1028 33 -0.083333333333333343
1029 33 0.16666666666666669
1031 33 -0.083333333333333343
1032 33 -0.16666666666666669
1122 33 -0.083333333333333287
1124 33 -0.16666666666666669
1125 33 -0.083333333333333343
1126 33 -0.083333333333333315
1127 33 0.16666666666666669
1129 33 -0.083333333333333343
1220 33 -0.083333333333333329
34 34 2.666666666666667
35 34 -0.33333333333333337
65 34 -0.33333333333333337
1030 34 -0.083333333333333343
1031 34 -0.083333333333333343
1032 34 0.16666666666666669
1034 34 -0.083333333333333343
1035 34 -0.16666666666666669
1125 34 -0.083333333333333287
1127 34 -0.16666666666666669
1128 34 -0.083333333333333343
1129 34 -0.083333333333333315
1130 34 0.16666666666666669
1132 34 -0.083333333333333343
1223 34 -0.083333333333333329
35 35 2.666666666666667
36 35 -0.33333333333333337
66 35 -0.33333333333333337
1033 35 -0.083333333333333343
1034 35 -0.083333333333333343
1035 35 0.16666666666666669
1037 35 -0.083333333333333343
1038 35 -0.16666666666666669
1128 35 -0.083333333333333287
1130 35 -0.16666666666666669
1131 35 -0.083333333333333343
1132 35 -0.083333333333333315
1133 35 0.16666666666666669
1135 35 -0.083333333333333343
1226 35 -0.083333333333333329
36 36 2.666666666666667
37 36 -0.33333333333333337
67 36 -0.33333333333333337
1036 36 -0.083333333333333343
1037 36 -0.083333333333333343
1038 36 0.16666666666666669
1040 36 -0.083333333333333343
1041 36 -0.16666666666666669
1131 36 -0.083333333333333287
1133 36 -0.16666666666666669
1134 36 -0.083333333333333343
1135 36 -0.083333333333333315
1136 36 0.16666666666666669
1138 36 -0.083333333333333343
1229 36 -0.083333333333333329
37 37 2.666666666666667
38 37 -0.33333333333333337
68 37 -0.33333333333333337
1039 37 -0.083333333333333343
1040 37 -0.083333333333333343
1041 37 0.16666666666666669
1043 37 -0.083333333333333343
1044 37 -0.16666666666666669
1134 37 -0.083333333333333287
1136 37 -0.16666666666666669
1137 37 -0.083333333333333343
1138 37 -0.083333333333333315
1139 37 0.16666666666666669
1141 37 -0.083333333333333343
1232 37 -0.083333333333333329
38 38 2.666666666666667
39 38 -0.33333333333333337
69 38 -0.33333333333333337
1042 38 -0.083333333333333343
1043 38 -0.083333333333333343
1044 38 0.16666666666666669
1046 38 -0.083333333333333343
1047 38 -0.16666666666666669
1137 38 -0.083333333333333287
1139 38 -0.16666666666666669
1140 38 -0.083333333333333343
1141 38 -0.083333333333333315
1142 38 0.16666666666666669
1144 38 -0.083333333333333343
1235 38 -0.083333333333333329
39 39 2.666666666666667
40 39 -0.33333333333333337
70 39 -0.33333333333333337
1045 39 -0.083333333333333343
1046 39 -0.083333333333333343
1047 39 0.16666666666666669
1049 39 -0.083333333333333343
1050 39 -0.16666666666666669
1140 39 -0.083333333333333287
1142 39 -0.16666666666666669
1143 39 -0.083333333333333343
1144 39 -0.083333333333333315
1145 39 0.16666666666666669
1147 39 -0.083333333333333343
1238 39 -0.083333333333333329
40 40 2.666666666666667
41 40 -0.33333333333333337
71 40 -0.33333333333333337
1048 40 -0.083333333333333343
1049 40 -0.083333333333333343
1050 40 0.16666666666666669
1052 40 -0.083333333333333343
1053 40 -0.16666666666666669
1143 40 -0.083333333333333287
1145 40 -0.16666666666666669
1146 40 -0.083333333333333343
1147 40 -0.083333333333333315
1148 40 0.16666666666666669
1150 40 -0.083333333333333343
1241 40 -0.083333333333333329
41 41 2.666666666666667
42 41 -0.33333333333333337
72 41 -0.33333333333333337
1051 41 -0.083333333333333343
1052 41 -0.083333333333333343
1053 41 0.16666666666666669
1055 41 -0.083333333333333343
1056 41 -0.16666666666666669
1146 41 -0.083333333333333287
1148 41 -0.16666666666666669
1149 41 -0.083333333333333343
1150 41 -0.083333333333333315
1151 41 0.16666666666666669
1153 41 -0.083333333333333343
1244 41 -0.083333333333333329
42 42 2.666666666666667
43 42 -0.33333333333333337
73 42 -0.33333333333333337
1054 42 -0.083333333333333343
1055 42 -0.083333333333333343
1056 42 0.16666666666666669
1058 42 -0.083333333333333343
1059 42 -0.16666666666666669
1149 42 -0.083333333333333287
1151 42 -0.16666666666666669
1152 42 -0.083333333333333343
1153 42 -0.083333333333333315
1154 42 0.16666666666666669
1156 42 -0.083333333333333343
1247 42 -0.083333333333333329
43 43 2.666666666666667
44 43 -0.33333333333333337
74 43 -0.33333333333333337
1057 43 -0.083333333333333343
1058 43 -0.083333333333333343
1059 43 0.16666666666666669
1061 43 -0.083333333333333343
1062 43 -0.16666666666666669
1152 43 -0.083333333333333287
1154 43 -0.16666666666666669
1155 43 -0.083333333333333343
1156 43 -0.083333333333333315
1157 43 0.16666666666666669
1159 43 -0.083333333333333343
1250 43 -0.083333333333333329
44 44 2.666666666666667
45 44 -0.33333333333333337
75 44 -0.33333333333333337
1060 44 -0.083333333333333343
1061 44 -0.083333333333333343
1062 44 0.16666666666666669
1064 44 -0.083333333333333343
1065 44 -0.16666666666666669
1155 44 -0.083333333333333287
1157 44 -0.16666666666666669
1158 44 -0.083333333333333343
1159 44 -0.083333333333333315
1160 44 0.16666666666666669
1162 44 -0.083333333333333343
1253 44 -0.083333333333333329
45 45 2.666666666666667
46 45 -0.33333333333333337
76 45 -0.33333333333333337
1063 45 -0.083333333333333343
1064 45 -0.083333333333333343
1065 45 0.16666666666666669
1067 45 -0.083333333333333343
1068 45 -0.16666666666666669
1158 45 -0.083333333333333287
1160 45 -0.16666666666666669
1161 45 -0.083333333333333343
1162 45 -0.083333333333333315
1163 45 0.16666666666666669
1165 45 -0.083333333333333343
1256 45 -0.083333333333333329
46 46 2.666666666666667
47 46 -0.33333333333333337
77 46 -0.33333333333333337
1066 46 -0.083333333333333343
1067 46 -0.083333333333333343
1068 46 0.16666666666666669
1070 46 -0.083333333333333343
1071 46 -0.16666666666666669
1161 46 -0.083333333333333287
1163 46 -0.16666666666666669
1164 46 -0.083333333333333343
1165 46 -0.083333333333333315
1166 46 0.16666666666666669
1168 46 -0.083333333333333343
1259 46 -0.083333333333333329
47 47 2.666666666666667
48 47 -0.33333333333333337
78 47 -0.33333333333333337
1069 47 -0.083333333333333343
1070 47 -0.083333333333333343
1071 47 0.16666666666666669
1073 47 -0.083333333333333343
1074 47 -0.16666666666666669
1164 47 -0.083333333333333287
1166 47 -0.16666666666666669
1167 47 -0.083333333333333343
1168 47 -0.083333333333333315
1169 47 0.16666666666666669
1171 47 -0.083333333333333343
1262 47 -0.083333333333333329
48 48 2.666666666666667
49 48 -0.33333333333333337
79 48 -0.33333333333333337
1072 48 -0.083333333333333343
1073 48 -0.083333333333333343
1074 48 0.16666666666666669
1076 48 -0.083333333333333343
1077 48 -0.16666666666666669
1167 48 -0.083333333333333287
1169 48 -0.16666666666666669
1170 48 -0.083333333333333343
1171 48 -0.083333333333333315
1172 48 0.16666666666666669
1174 48 -0.083333333333333343
1265 48 -0.083333333333333329
49 49 2.666666666666667
50 49 -0.33333333333333337
80 49 -0.33333333333333337
1075 49 -0.083333333333333343
1076 49 -0.083333333333333343
1077 49 0.16666666666666669
1079 49 -0.083333333333333343
1080 49 -0.16666666666666669
1170 49 -0.083333333333333287
1172 49 -0.16666666666666669
1173 49 -0.083333333333333343
1174 49 -0.083333333333333315
1175 49 0.16666666666666669
1177 49 -0.083333333333333343
1268 49 -0.083333333333333329
50 50 2.666666666666667
51 50 -0.33333333333333337
81 50 -0.33333333333333337
1078 50 -0.083333333333333343
1079 50 -0.083333333333333343
1080 50 0.16666666666666669
1082 50 -0.083333333333333343
1083 50 -0.16666666666666669
1173 50 -0.083333333333333287
1175 50 -0.16666666666666669
1176 50 -0.083333333333333343
1177 50 -0.083333333333333315
1178 50 0.16666666666666669
1180 50 -0.083333333333333343
1271 50 -0.083333333333333329
51 51 2.666666666666667
52 51 -0.33333333333333337
82 51 -0.33333333333333337
1081 51 -0.083333333333333343
1082 51 -0.083333333333333343
1083 51 0.16666666666666669
1085 51 -0.083333333333333343
1086 51 -0.16666666666666669
1176 51 -0.083333333333333287
1178 51 -0.16666666666666669
1179 51 -0.083333333333333343
1180 51 -0.083333333333333315
1181 51 0.16666666666666669
1183 51 -0.083333333333333343
1274 51 -0.083333333333333329
52 52 2.666666666666667
53 52 -0.33333333333333337
83 52 -0.33333333333333337
1084 52 -0.083333333333333343
1085 52 -0.083333333333333343
1086 52 0.16666666666666669
1088 52 -0.083333333333333343
1089 52 -0.16666666666666669
1179 52 -0.083333333333333287
1181 52 -0.16666666666666669
1182 52 -0.083333333333333343
1183 52 -0.083333333333333315
1184 52 0.16666666666666669
1186 52 -0.083333333333333343
1277 52 -0.083333333333333329
53 53 2.666666666666667
54 53 -0.33333333333333337
84 53 -0.33333333333333337
1087 53 -0.083333333333333343
1088 53 -0.083333333333333343
1089 53 0.16666666666666669
1091 53 -0.083333333333333343
1092 53 -0.16666666666666669
1182 53 -0.083333333333333287
1184 53 -0.16666666666666669
1185 53 -0.083333333333333343
1186 53 -0.083333333333333315
1187 53 0.16666666666666669
1189 53 -0.083333333333333343
1280 53 -0.083333333333333329
54 54 2.666666666666667
55 54 -0.33333333333333337
85 54 -0.33333333333333337
1090 54 -0.083333333333333343
1091 54 -0.083333333333333343
1092 54 0.16666666666666669
1094 54 -0.083333333333333343
1095 54 -0.16666666666666669
1185 54 -0.083333333333333287
1187 54 -0.16666666666666669
1188 54 -0.083333333333333343
1189 54 -0.083333333333333315
1190 54 0.16666666666666669
1192 54 -0.083333333333333343
1283 54 -0.083333333333333329
55 55 2.666666666666667
56 55 -0.33333333333333337
86 55 -0.33333333333333337
1093 55 -0.083333333333333343
1094 55 -0.083333333333333343
1095 55 0.16666666666666669
1097 55 -0.083333333333333343
1098 55 -0.16666666666666669
1188 55 -0.083333333333333287
1190 55 -0.16666666666666669
1191 55 -0.083333333333333343
1192 55 -0.083333333333333315
1193 55 0.16666666666666669
1195 55 -0.083333333333333343
1286 55 -0.083333333333333329
56 56 2.666666666666667
57 56 -0.33333333333333337
87 56 -0.33333333333333337
1096 56 -0.083333333333333343
1097 56 -0.083333333333333343
1098 56 0.16666666666666669
1100 56 -0.083333333333333343
1101 56 -0.16666666666666669
1191 56 -0.083333333333333287
1193 56 -0.16666666666666669
1194 56 -0.083333333333333343
1195 56 -0.083333333333333315
1196 56 0.16666666666666669
1198 56 -0.083333333333333343
1289 56 -0.083333333333333329
57 57 2.666666666666667
58 57 -0.33333333333333337
88 57 -0.33333333333333337
1099 57 -0.083333333333333343
1100 57 -0.083333333333333343
1101 57 0.16666666666666669
1103 57 -0.083333333333333343
1104 57 -0.16666666666666669
1194 57 -0.083333333333333287
1196 57 -0.16666666666666669
1197 57 -0.083333333333333343
1198 57 -0.083333333333333315
1199 57 0.16666666666666669
1201 57 -0.083333333333333343
1292 57 -0.083333333333333329
58 58 2.666666666666667
59 58 -0.33333333333333337
89 58 -0.33333333333333337
1102 58 -0.083333333333333343
1103 58 -0.083333333333333343
1104 58 0.16666666666666669
1106 58 -0.083333333333333343
1107 58 -0.16666666666666669
1197 58 -0.083333333333333287
1199 58 -0.16666666666666669
1200 58 -0.083333333333333343
1201 58 -0.083333333333333315
1202 58 0.16666666666666669
1204 58 -0.083333333333333343
1295 58 -0.083333333333333329
59 59 2.666666666666667
60 59 -0.33333333333333337
90 59 -0.33333333333333337
1105 59 -0.083333333333333343
1106 59 -0.083333333333333343
1107 59 0.16666666666666669
1109 59 -0.083333333333333343
1110 59 -0.16666666666666669
1200 59 -0.083333333333333287
1202 59 -0.16666666666666669
1203 59 -0.083333333333333343
1204 59 -0.083333333333333315
1205 59 0.16666666666666669
1207 59 -0.083333333333333343
1298 59 -0.083333333333333329
60 60 2.666666666666667
61 60 -0.33333333333333337
91 60 -0.33333333333333337
1108 60 -0.083333333333333343
1109 60 -0.083333333333333343
1110 60 0.16666666666666669
1112 60 -0.083333333333333343
1113 60 -0.16666666666666669
1203 60 -0.083333333333333287
1205 60 -0.16666666666666669
1206 60 -0.083333333333333343
1207 60 -0.083333333333333315
1208 60 0.16666666666666669
1210 60 -0.083333333333333343
1301 60 -0.083333333333333329
61 61 2.666666666666667
62 61 -0.33333333333333337
92 61 -0.33333333333333337
1111 61 -0.083333333333333343
1112 61 -0.083333333333333343
1113 61 0.16666666666666669
1115 61 -0.083333333333333343
1116 61 -0.16666666666666669
1206 61 -0.083333333333333287
1208 61 -0.16666666666666669
1209 61 -0.083333333333333343
1210 61 -0.083333333333333315
1211 61 0.16666666666666669
1213 61 -0.083333333333333343
1304 61 -0.083333333333333329
62 62 2.666666666666667
93 62 -0.33333333333333337
1114 62 -0.083333333333333343
1115 62 -0.083333333333333343
1116 62 0.16666666666666669
1118 62 -0.083333333333333343
1119 62 -0.16666666666666669
1209 62 -0.083333333333333287
1211 62 -0.16666666666666669
1212 62 -0.083333333333333343
1213 62 -0.083333333333333315
1214 62 0.16666666666666669
1307 62 -0.083333333333333329
63 63 2.666666666666667
64 63 -0.33333333333333337
94 63 -0.33333333333333337
1120 63 -0.083333333333333343
1121 63 0.16666666666666669
1123 63 -0.083333333333333343
1124 63 -0.16666666666666669
1215 63 -0.083333333333333287
1216 63 -0.16666666666666669
1217 63 -0.083333333333333343
1218 63 -0.083333333333333315
1219 63 0.16666666666666669
1221 63 -0.083333333333333343
1312 63 -0.083333333333333329
64 64 2.666666666666667
65 64 -0.33333333333333337
95 64 -0.33333333333333337
1122 64 -0.083333333333333343
1123 64 -0.083333333333333343
1124 64 0.16666666666666669
1126 64 -0.083333333333333343
1127 64 -0.16666666666666669
1217 64 -0.083333333333333287
1219 64 -0.16666666666666669
1220 64 -0.083333333333333343
1221 64 -0.083333333333333315
1222 64 0.16666666666666669
1224 64 -0.083333333333333343
1315 64 -0.083333333333333329
65 65 2.666666666666667
66 65 -0.33333333333333337
96 65 -0.33333333333333337
1125 65 -0.083333333333333343
1126 65 -0.083333333333333343
1127 65 0.16666666666666669
1129 65 -0.083333333333333343
1130 65 -0.16666666666666669
1220 65 -0.083333333333333287
1222 65 -0.16666666666666669
1223 65 -0.083333333333333343
1224 65 -0.083333333333333315
1225 65 0.16666666666666669
1227 65 -0.083333333333333343
1318 65 -0.083333333333333329
66 66 2.666666666666667
67 66 -0.33333333333333337
97 66 -0.33333333333333337
1128 66 -0.083333333333333343
1129 66 -0.083333333333333343
1130 66 0.16666666666666669
1132 66 -0.083333333333333343
1133 66 -0.16666666666666669
1223 66 -0.083333333333333287
1225 66 -0.16666666666666669
1226 66 -0.083333333333333343
1227 66 -0.083333333333333315
1228 66 0.16666666666666669
1230 66 -0.083333333333333343
1321 66 -0.083333333333333329
67 67 2.666666666666667
68 67 -0.33333333333333337
98 67 -0.33333333333333337
1131 67 -0.083333333333333343
1132 67 -0.083333333333333343
1133 67 0.16666666666666669
1135 67 -0.083333333333333343
1136 67 -0.16666666666666669
1226 67 -0.083333333333333287
1228 67 -0.16666666666666669
1229 67 -0.083333333333333343
1230 67 -0.083333333333333315
1231 67 0.16666666666666669
1233 67 -0.083333333333333343
1324 67 -0.083333333333333329
68 68 2.666666666666667
69 68 -0.33333333333333337
99 68 -0.33333333333333337
1134 68 -0.083333333333333343
1135 68 -0.083333333333333343
1136 68 0.16666666666666669
1138 68 -0.083333333333333343
1139 68 -0.16666666666666669
1229 68 -0.083333333333333287
1231 68 -0.16666666666666669
1232 68 -0.083333333333333343
1233 68 -0.083333333333333315
1234 68 0.16666666666666669
1236 68 -0.083333333333333343
1327 68 -0.083333333333333329
69 69 2.666666666666667
70 69 -0.33333333333333337
100 69 -0.33333333333333337
1137 69 -0.083333333333333343
1138 69 -0.083333333333333343
1139 69 0.16666666666666669
1141 69 -0.083333333333333343
1142 69 -0.16666666666666669
1232 69 -0.083333333333333287
1234 69 -0.16666666666666669
1235 69 -0.083333333333333343
1236 69 -0.083333333333333315
1237 69 0.16666666666666669
1239 69 -0.083333333333333343
1330 69 -0.083333333333333329
70 70 2.666666666666667
71 70 -0.33333333333333337
101 70 -0.33333333333333337
1140 70 -0.083333333333333343
1141 70 -0.083333333333333343
1142 70 0.16666666666666669
1144 70 -0.083333333333333343
1145 70 -0.16666666666666669
1235 70 -0.083333333333333287
1237 70 -0.16666666666666669
1238 70 -0.083333333333333343
1239 70 -0.083333333333333315
1240 70 0.16666666666666669
1242 70 -0.083333333333333343
1333 70 -0.083333333333333329
71 71 2.666666666666667
72 71 -0.33333333333333337
102 71 -0.33333333333333337
1143 71 -0.083333333333333343
1144 71 -0.083333333333333343
1145 71 0.16666666666666669
1147 71 -0.083333333333333343
1148 71 -0.16666666666666669
1238 71 -0.083333333333333287
1240 71 -0.16666666666666669
1241 71 -0.083333333333333343
1242 71 -0.083333333333333315
1243 71 0.16666666666666669
1245 71 -0.083333333333333343
1336 71 -0.083333333333333329
72 72 2.666666666666667
73 72 -0.33333333333333337
103 72 -0.33333333333333337
1146 72 -0.083333333333333343
1147 72 -0.083333333333333343
1148 72 0.16666666666666669
1150 72 -0.083333333333333343
1151 72 -0.16666666666666669
1241 72 -0.083333333333333287
1243 72 -0.16666666666666669
1244 72 -0.083333333333333343
1245 72 -0.083333333333333315
1246 72 0.16666666666666669
1248 72 -0.083333333333333343
1339 72 -0.083333333333333329
73 73 2.666666666666667
74 73 -0.33333333333333337
104 73 -0.33333333333333337
1149 73 -0.083333333333333343
1150 73 -0.083333333333333343
1151 73 0.16666666666666669
1153 73 -0.083333333333333343
1154 73 -0.16666666666666669
1244 73 -0.083333333333333287
1246 73 -0.16666666666666669
1247 73 -0.083333333333333343
1248 73 -0.083333333333333315
1249 73 0.16666666666666669
1251 73 -0.083333333333333343
1342 73 -0.083333333333333329
74 74 2.666666666666667
75 74 -0.33333333333333337
105 74 -0.33333333333333337
1152 74 -0.083333333333333343
1153 74 -0.083333333333333343
1154 74 0.16666666666666669
1156 74 -0.083333333333333343
1157 74 -0.16666666666666669
1247 74 -0.083333333333333287
1249 74 -0.16666666666666669
1250 74 -0.083333333333333343
1251 74 -0.083333333333333315
1252 74 0.16666666666666669
1254 74 -0.083333333333333343
1345 74 -0.083333333333333329
75 75 2.666666666666667
76 75 -0.33333333333333337
106 75 -0.33333333333333337
1155 75 -0.083333333333333343
1156 75 -0.083333333333333343
1157 75 0.16666666666666669
1159 75 -0.083333333333333343
1160 75 -0.16666666666666669
1250 75 -0.083333333333333287
1252 75 -0.16666666666666669
1253 75 -0.083333333333333343
1254 75 -0.083333333333333315
1255 75 0.16666666666666669
1257 75 -0.083333333333333343
1348 75 -0.083333333333333329
76 76 2.666666666666667
77 76 -0.33333333333333337
107 76 -0.33333333333333337
1158 76 -0.083333333333333343
1159 76 -0.083333333333333343
1160 76 0.16666666666666669
1162 76 -0.083333333333333343
1163 76 -0.16666666666666669
1253 76 -0.083333333333333287
1255 76 -0.16666666666666669
1256 76 -0.083333333333333343
1257 76 -0.083333333333333315
1258 76 0.16666666666666669
1260 76 -0.083333333333333343
1351 76 -0.083333333333333329
77 77 2.666666666666667
78 77 -0.33333333333333337
108 77 -0.33333333333333337
1161 77 -0.083333333333333343
1162 77 -0.083333333333333343
1163 77 0.16666666666666669
1165 77 -0.083333333333333343
1166 77 -0.16666666666666669
1256 77 -0.083333333333333287
1258 77 -0.16666666666666669
1259 77 -0.083333333333333343
1260 77 -0.083333333333333315
1261 77 0.16666666666666669
1263 77 -0.083333333333333343
1354 77 -0.083333333333333329
78 78 2.666666666666667
79 78 -0.33333333333333337
109 78 -0.33333333333333337
1164 78 -0.083333333333333343
1165 78 -0.083333333333333343
1166 78 0.16666666666666669
1168 78 -0.083333333333333343
1169 78 -0.16666666666666669
1259 78 -0.083333333333333287
1261 78 -0.16666666666666669
1262 78 -0.083333333333333343
1263 78 -0.083333333333333315
1264 78 0.16666666666666669
1266 78 -0.083333333333333343
1357 78 -0.083333333333333329
79 79 2.666666666666667
80 79 -0.33333333333333337
110 79 -0.33333333333333337
1167 79 -0.083333333333333343
1168 79 -0.083333333333333343
1169 79 0.16666666666666669
1171 79 -0.083333333333333343
1172 79 -0.16666666666666669
1262 79 -0.083333333333333287
1264 79 -0.16666666666666669
1265 79 -0.083333333333333343
1266 79 -0.083333333333333315
1267 79 0.16666666666666669
1269 79 -0.083333333333333343
1360 79 -0.083333333333333329
80 80 2.666666666666667
81 80 -0.33333333333333337
111 80 -0.33333333333333337
1170 80 -0.083333333333333343
1171 80 -0.083333333333333343
1172 80 0.16666666666666669
1174 80 -0.083333333333333343
1175 80 -0.16666666666666669
1265 80 -0.083333333333333287
1267 80 -0.16666666666666669
1268 80 -0.083333333333333343
1269 80 -0.083333333333333315
1270 80 0.16666666666666669
1272 80 -0.083333333333333343
1363 80 -0.083333333333333329
81 81 2.666666666666667
82 81 -0.33333333333333337
112 81 -0.33333333333333337
1173 81 -0.083333333333333343
1174 81 -0.083333333333333343
1175 81 0.16666666666666669
1177 81 -0.083333333333333343
1178 81 -0.16666666666666669
1268 81 -0.083333333333333287
1270 81 -0.16666666666666669
1271 81 -0.083333333333333343
1272 81 -0.083333333333333315
1273 81 0.16666666666666669
1275 81 -0.083333333333333343
1366 81 -0.083333333333333329
82 82 2.666666666666667
83 82 -0.33333333333333337
113 82 -0.33333333333333337
1176 82 -0.083333333333333343
1177 82 -0.083333333333333343
1178 82 0.16666666666666669
1180 82 -0.083333333333333343
1181 82 -0.16666666666666669
1271 82 -0.083333333333333287
1273 82 -0.16666666666666669
1274 82 -0.083333333333333343
1275 82 -0.083333333333333315
1276 82 0.16666666666666669
1278 82 -0.083333333333333343
1369 82 -0.083333333333333329
83 83 2.666666666666667
84 83 -0.33333333333333337
114 83 -0.33333333333333337
1179 83 -0.083333333333333343
1180 83 -0.083333333333333343
1181 83 0.16666666666666669
1183 83 -0.083333333333333343
1184 83 -0.16666666666666669
1274 83 -0.083333333333333287
1276 83 -0.16666666666666669
1277 83 -0.083333333333333343
1278 83 -0.083333333333333315
1279 83 0.16666666666666669
1281 83 -0.083333333333333343
1372 83 -0.083333333333333329
84 84 2.666666666666667
85 84 -0.33333333333333337
115 84 -0.33333333333333337
1182 84 -0.083333333333333343
1183 84 -0.083333333333333343
1184 84 0.16666666666666669
1186 84 -0.083333333333333343
1187 84 -0.16666666666666669
1277 84 -0.083333333333333287
1279 84 -0.16666666666666669
1280 84 -0.083333333333333343
1281 84 -0.083333333333333315
1282 84 0.16666666666666669
1284 84 -0.083333333333333343
1375 84 -0.083333333333333329
85 85 2.666666666666667
86 85 -0.33333333333333337
116 85 -0.33333333333333337
1185 85 -0.083333333333333343
1186 85 -0.083333333333333343
1187 85 0.16666666666666669
1189 85 -0.083333333333333343
1190 85 -0.16666666666666669
1280 85 -0.083333333333333287
1282 85 -0.16666666666666669
1283 85 -0.083333333333333343
1284 85 -0.083333333333333315
1285 85 0.16666666666666669
1287 85 -0.083333333333333343
1378 85 -0.083333333333333329
86 86 2.666666666666667
87 86 -0.33333333333333337
117 86 -0.33333333333333337
1188 86 -0.083333333333333343
1189 86 -0.083333333333333343
1190 86 0.16666666666666669
1192 86 -0.083333333333333343
1193 86 -0.16666666666666669
1283 86 -0.083333333333333287
1285 86 -0.16666666666666669
1286 86 -0.083333333333333343
1287 86 -0.083333333333333315
1288 86 0.16666666666666669
1290 86 -0.083333333333333343
1381 86 -0.083333333333333329
87 87 2.666666666666667
88 87 -0.33333333333333337
118 87 -0.33333333333333337
1191 87 -0.083333333333333343
1192 87 -0.083333333333333343
1193 87 0.16666666666666669
1195 87 -0.083333333333333343
1196 87 -0.16666666666666669
1286 87 -0.083333333333333287
1288 87 -0.16666666666666669
1289 87 -0.083333333333333343
1290 87 -0.083333333333333315
1291 87 0.16666666666666669
1293 87 -0.083333333333333343
1384 87 -0.083333333333333329
88 88 2.666666666666667
89 88 -0.33333333333333337
119 88 -0.33333333333333337
1194 88 -0.083333333333333343
1195 88 -0.083333333333333343
1196 88 0.16666666666666669
1198 88 -0.083333333333333343
1199 88 -0.16666666666666669
1289 88 -0.083333333333333287
1291 88 -0.16666666666666669
1292 88 -0.083333333333333343
1293 88 -0.083333333333333315
1294 88 0.16666666666666669
1296 88 -0.083333333333333343
1387 88 -0.083333333333333329
89 89 2.666666666666667
90 89 -0.33333333333333337
120 89 -0.33333333333333337
1197 89 -0.083333333333333343
1198 89 -0.083333333333333343
1199 89 0.16666666666666669
1201 89 -0.083333333333333343
1202 89 -0.16666666666666669
1292 89 -0.083333333333333287
1294 89 -0.16666666666666669
1295 89 -0.083333333333333343
1296 89 -0.083333333333333315
1297 89 0.16666666666666669
1299 89 -0.083333333333333343
1390 89 -0.083333333333333329
90 90 2.666666666666667
91 90 -0.33333333333333337
121 90 -0.33333333333333337
1200 90 -0.083333333333333343
1201 90 -0.083333333333333343
1202 90 0.16666666666666669
1204 90 -0.083333333333333343
1205 90 -0.16666666666666669
1295 90 -0.083333333333333287
1297 90 -0.16666666666666669
1298 90 -0.083333333333333343
1299 90 -0.083333333333333315
1300 90 0.16666666666666669
1302 90 -0.083333333333333343
1393 90 -0.083333333333333329
91 91 2.666666666666667
92 91 -0.33333333333333337
122 91 -0.33333333333333337
1203 91 -0.083333333333333343
1204 91 -0.083333333333333343
1205 91 0.16666666666666669
1207 91 -0.083333333333333343
1208 91 -0.16666666666666669
1298 91 -0.083333333333333287
1300 91 -0.16666666666666669
1301 91 -0.083333333333333343
1302 91 -0.083333333333333315
1303 91 0.16666666666666669
1305 91 -0.083333333333333343
1396 91 -0.083333333333333329
92 92 2.666666666666667
93 92 -0.33333333333333337
123 92 -0.33333333333333337
1206 92 -0.083333333333333343
1207 92 -0.083333333333333343
1208 92 0.16666666666666669
1210 92 -0.083333333333333343
1211 92 -0.16666666666666669
1301 92 -0.083333333333333287
1303 92 -0.16666666666666669
1304 92 -0.083333333333333343
1305 92 -0.083333333333333315
1306 92 0.16666666666666669
1308 92 -0.083333333333333343
1399 92 -0.083333333333333329
93 93 2.666666666666667
124 93 -0.33333333333333337
1209 93 -0.083333333333333343
1210 93 -0.083333333333333343
1211 93 0.16666666666666669
1213 93 -0.083333333333333343
1214 93 -0.16666666666666669
1304 93 -0.083333333333333287
1306 93 -0.16666666666666669
1307 93 -0.083333333333333343
1308 93 -0.083333333333333315
1309 93 0.16666666666666669
1402 93 -0.083333333333333329
94 94 2.666666666666667
95 94 -0.33333333333333337
125 94 -0.33333333333333337
1215 94 -0.083333333333333343
1216 94 0.16666666666666669
1218 94 -0.083333333333333343
1219 94 -0.16666666666666669
1310 94 -0.083333333333333287
1311 94 -0.16666666666666669
1312 94 -0.083333333333333343
1313 94 -0.083333333333333315
1314 94 0.16666666666666669
1316 94 -0.083333333333333343
1407 94 -0.083333333333333329
95 95 2.666666666666667
96 95 -0.33333333333333337
126 95 -0.33333333333333337
1217 95 -0.083333333333333343
1218 95 -0.083333333333333343
1219 95 0.16666666666666669
1221 95 -0.083333333333333343
1222 95 -0.16666666666666669
1312 95 -0.083333333333333287
1314 95 -0.16666666666666669
1315 95 -0.083333333333333343
1316 95 -0.083333333333333315
1317 95 0.16666666666666669
1319 95 -0.083333333333333343
1410 95 -0.083333333333333329
96 96 2.666666666666667
97 96 -0.33333333333333337
127 96 -0.33333333333333337
1220 96 -0.083333333333333343
1221 96 -0.083333333333333343
1222 96 0.16666666666666669
1224 96 -0.083333333333333343
1225 96 -0.16666666666666669
1315 96 -0.083333333333333287
1317 96 -0.16666666666666669
1318 96 -0.083333333333333343
1319 96 -0.083333333333333315
1320 96 0.16666666666666669
1322 96 -0.083333333333333343
1413 96 -0.083333333333333329
97 97 2.666666666666667
98 97 -0.33333333333333337
128 97 -0.33333333333333337
1223 97 -0.083333333333333343
1224 97 -0.083333333333333343
1225 97 0.16666666666666669
1227 97 -0.083333333333333343
1228 97 -0.16666666666666669
1318 97 -0.083333333333333287
1320 97 -0.16666666666666669
1321 97 -0.083333333333333343
1322 97 -0.083333333333333315
1323 97 0.16666666666666669
1325 97 -0.083333333333333343
1416 97 -0.083333333333333329
98 98 2.666666666666667
99 98 -0.33333333333333337
129 98 -0.33333333333333337
1226 98 -0.083333333333333343
1227 98 -0.083333333333333343
1228 98 0.16666666666666669
1230 98 -0.083333333333333343
1231 98 -0.16666666666666669
1321 98 -0.083333333333333287
1323 98 -0.16666666666666669
1324 98 -0.083333333333333343
1325 98 -0.083333333333333315
1326 98 0.16666666666666669
1328 98 -0.083333333333333343
1419 98 -0.083333333333333329
99 99 2.666666666666667
100 99 -0.33333333333333337
130 99 -0.33333333333333337
1229 99 -0.083333333333333343
1230 99 -0.083333333333333343
1231 99 0.16666666666666669
1233 99 -0.083333333333333343
1234 99 -0.16666666666666669
1324 99 -0.083333333333333287
1326 99 -0.16666666666666669
1327 99 -0.083333333333333343
1328 99 -0.083333333333333315
1329 99 0.16666666666666669
1331 99 -0.083333333333333343
1422 99 -0.083333333333333329
100 100 2.666666666666667
101 100 -0.33333333333333337
131 100 -0.33333333333333337
1232 100 -0.083333333333333343
1233 100 -0.083333333333333343
1234 100 0.16666666666666669
1236 100 -0.083333333333333343
1237 100 -0.16666666666666669
1327 100 -0.083333333333333287
1329 100 -0.16666666666666669
1330 100 -0.083333333333333343
1331 100 -0.083333333333333315
1332 100 0.16666666666666669
1334 100 -0.083333333333333343
1425 100 -0.083333333333333329
101 101 2.666666666666667
102 101 -0.33333333333333337
132 101 -0.33333333333333337
1235 101 -0.083333333333333343
1236 101 -0.083333333333333343
1237 101 0.16666666666666669
1239 101 -0.083333333333333343
1240 101 -0.16666666666666669
1330 101 -0.083333333333333287
1332 101 -0.16666666666666669
1333 101 -0.083333333333333343
1334 101 -0.083333333333333315
1335 101 0.16666666666666669
1337 101 -0.083333333333333343
1428 101 -0.083333333333333329
102 102 2.666666666666667
103 102 -0.33333333333333337
133 102 -0.33333333333333337
1238 102 -0.083333333333333343
1239 102 -0.083333333333333343
1240 102 0.16666666666666669
1242 102 -0.083333333333333343
1243 102 -0.16666666666666669
1333 102 -0.083333333333333287
1335 102 -0.16666666666666669
1336 102 -0.083333333333333343
1337 102 -0.083333333333333315
1338 102 0.16666666666666669
1340 102 -0.083333333333333343
1431 102 -0.083333333333333329
103 103 2.666666666666667
104 103 -0.33333333333333337
134 103 -0.33333333333333337
1241 103 -0.083333333333333343
1242 103 -0.083333333333333343
1243 103 0.16666666666666669
1245 103 -0.083333333333333343
1246 103 -0.16666666666666669
1336 103 -0.083333333333333287
1338 103 -0.16666666666666669
1339 103 -0.083333333333333343
1340 103 -0.083333333333333315
1341 103 0.16666666666666669
1343 103 -0.083333333333333343
1434 103 -0.083333333333333329
104 104 2.666666666666667
105 104 -0.33333333333333337
135 104 -0.33333333333333337
1244 104 -0.083333333333333343
1245 104 -0.083333333333333343
1246 104 0.16666666666666669
1248 104 -0.083333333333333343
1249 104 -0.16666666666666669
1339 104 -0.083333333333333287
1341 104 -0.16666666666666669
1342 104 -0.083333333333333343
1343 104 -0.083333333333333315
1344 104 0.16666666666666669
1346 104 -0.083333333333333343
1437 104 -0.083333333333333329
105 105 2.666666666666667
106 105 -0.33333333333333337
136 105 -0.33333333333333337
1247 105 -0.083333333333333343
1248 105 -0.083333333333333343
1249 105 0.16666666666666669
1251 105 -0.083333333333333343
1252 105 -0.16666666666666669
1342 105 -0.083333333333333287
1344 105 -0.16666666666666669
1345 105 -0.083333333333333343
1346 105 -0.083333333333333315
1347 105 0.16666666666666669
1349 105 -0.083333333333333343
1440 105 -0.083333333333333329
106 106 2.666666666666667
107 106 -0.33333333333333337
137 106 -0.33333333333333337
1250 106 -0.083333333333333343
1251 106 -0.083333333333333343
1252 106 0.16666666666666669
1254 106 -0.083333333333333343
1255 106 -0.16666666666666669
1345 106 -0.083333333333333287
1347 106 -0.16666666666666669
1348 106 -0.083333333333333343
1349 106 -0.083333333333333315
1350 106 0.16666666666666669
1352 106 -0.083333333333333343
1443 106 -0.083333333333333329
107 107 2.666666666666667
108 107 -0.33333333333333337
138 107 -0.33333333333333337
1253 107 -0.083333333333333343
1254 107 -0.083333333333333343
1255 107 0.16666666666666669
1257 107 -0.083333333333333343
1258 107 -0.16666666666666669
1348 107 -0.083333333333333287
1350 107 -0.16666666666666669
1351 107 -0.083333333333333343
1352 107 -0.083333333333333315
1353 107 0.16666666666666669
1355 107 -0.083333333333333343
1446 107 -0.083333333333333329
108 108 2.666666666666667
109 108 -0.33333333333333337
139 108 -0.33333333333333337
1256 108 -0.083333333333333343
1257 108 -0.083333333333333343
1258 108 0.16666666666666669
1260 108 -0.083333333333333343
1261 108 -0.16666666666666669
1351 108 -0.083333333333333287
1353 108 -0.16666666666666669
1354 108 -0.083333333333333343
1355 108 -0.083333333333333315
1356 108 0.16666666666666669
1358 108 -0.083333333333333343
1449 108 -0.083333333333333329
109 109 2.666666666666667
110 109 -0.33333333333333337
140 109 -0.33333333333333337
1259 109 -0.083333333333333343
1260 109 -0.083333333333333343
1261 109 0.16666666666666669
1263 109 -0.083333333333333343
1264 109 -0.16666666666666669
1354 109 -0.083333333333333287
1356 109 -0.16666666666666669
1357 109 -0.083333333333333343
1358 109 -0.083333333333333315
1359 109 0.16666666666666669
1361 109 -0.083333333333333343
1452 109 -0.083333333333333329
110 110 2.666666666666667
111 110 -0.33333333333333337
141 110 -0.33333333333333337
1262 110 -0.083333333333333343
1263 110 -0.083333333333333343
1264 110 0.16666666666666669
1266 110 -0.083333333333333343
1267 110 -0.16666666666666669
1357 110 -0.083333333333333287
1359 110 -0.16666666666666669
1360 110 -0.083333333333333343
1361 110 -0.083333333333333315
1362 110 0.16666666666666669
1364 110 -0.083333333333333343
1455 110 -0.083333333333333329
111 111 2.666666666666667
112 111 -0.33333333333333337
142 111 -0.33333333333333337
1265 111 -0.083333333333333343
1266 111 -0.083333333333333343
1267 111 0.16666666666666669
1269 111 -0.083333333333333343
1270 111 -0.16666666666666669
1360 111 -0.083333333333333287
1362 111 -0.16666666666666669
1363 111 -0.083333333333333343
1364 111 -0.083333333333333315
1365 111 0.16666666666666669
1367 111 -0.083333333333333343
1458 111 -0.083333333333333329
112 112 2.666666666666667
113 112 -0.33333333333333337
143 112 -0.33333333333333337
1268 112 -0.083333333333333343
1269 112 -0.083333333333333343
1270 112 0.16666666666666669
1272 112 -0.083333333333333343
1273 112 -0.16666666666666669
1363 112 -0.083333333333333287
1365 112 -0.16666666666666669
1366 112 -0.083333333333333343
1367 112 -0.083333333333333315
1368 112 0.16666666666666669
1370 112 -0.083333333333333343
1461 112 -0.083333333333333329
113 113 2.666666666666667
114 113 -0.33333333333333337
144 113 -0.33333333333333337
1271 113 -0.083333333333333343
1272 113 -0.083333333333333343
1273 113 0.16666666666666669
1275 113 -0.083333333333333343
1276 113 -0.16666666666666669
1366 113 -0.083333333333333287
1368 113 -0.16666666666666669
1369 113 -0.083333333333333343
1370 113 -0.083333333333333315
1371 113 0.16666666666666669
1373 113 -0.083333333333333343
1464 113 -0.083333333333333329
114 114 2.666666666666667
115 114 -0.33333333333333337
145 114 -0.33333333333333337
1274 114 -0.083333333333333343
1275 114 -0.083333333333333343
1276 114 0.16666666666666669
1278 114 -0.083333333333333343
1279 114 -0.16666666666666669
1369 114 -0.083333333333333287
1371 114 -0.16666666666666669
1372 114 -0.083333333333333343
1373 114 -0.083333333333333315
1374 114 0.16666666666666669
1376 114 -0.083333333333333343
1467 114 -0.083333333333333329
115 115 2.666666666666667
116 115 -0.33333333333333337
146 115 -0.33333333333333337
1277 115 -0.083333333333333343
1278 115 -0.083333333333333343
1279 115 0.16666666666666669
1281 115 -0.083333333333333343
1282 115 -0.16666666666666669
1372 115 -0.083333333333333287
1374 115 -0.16666666666666669
1375 115 -0.083333333333333343
1376 115 -0.083333333333333315
1377 115 0.16666666666666669
1379 115 -0.083333333333333343
1470 115 -0.083333333333333329
116 116 2.666666666666667
117 116 -0.33333333333333337
147 116 -0.33333333333333337
1280 116 -0.083333333333333343
1281 116 -0.083333333333333343
1282 116 0.16666666666666669
1284 116 -0.083333333333333343
1285 116 -0.16666666666666669
1375 116 -0.083333333333333287
1377 116 -0.16666666666666669
1378 116 -0.083333333333333343
1379 116 -0.083333333333333315
1380 116 0.16666666666666669
1382 116 -0.083333333333333343
1473 116 -0.083333333333333329
117 117 2.666666666666667
118 117 -0.33333333333333337
148 117 -0.33333333333333337
1283 117 -0.083333333333333343
1284 117 -0.083333333333333343
1285 117 0.16666666666666669
1287 117 -0.083333333333333343
1288 117 -0.16666666666666669
1378 117 -0.083333333333333287
1380 117 -0.16666666666666669
1381 117 -0.083333333333333343
1382 117 -0.083333333333333315
1383 117 0.16666666666666669
1385 117 -0.083333333333333343
1476 117 -0.083333333333333329
118 118 2.666666666666667
119 118 -0.33333333333333337
149 118 -0.33333333333333337
1286 118 -0.083333333333333343
1287 118 -0.083333333333333343
1288 118 0.16666666666666669
1290 118 -0.083333333333333343
1291 118 -0.16666666666666669
1381 118 -0.083333333333333287
1383 118 -0.16666666666666669
1384 118 -0.083333333333333343
1385 118 -0.083333333333333315
1386 118 0.16666666666666669
1388 118 -0.083333333333333343
1479 118 -0.083333333333333329
119 119 2.666666666666667
120 119 -0.33333333333333337
150 119 -0.33333333333333337
1289 119 -0.083333333333333343
1290 119 -0.083333333333333343
1291 119 0.16666666666666669
1293 119 -0.083333333333333343
1294 119 -0.16666666666666669
1384 119 -0.083333333333333287
1386 119 -0.16666666666666669
1387 119 -0.083333333333333343
1388 119 -0.083333333333333315
1389 119 0.16666666666666669
1391 119 -0.083333333333333343
1482 119 -0.083333333333333329
120 120 2.666666666666667
121 120 -0.33333333333333337
151 120 -0.33333333333333337
1292 120 -0.083333333333333343
1293 120 -0.083333333333333343
1294 120 0.16666666666666669
1296 120 -0.083333333333333343
1297 120 -0.16666666666666669
1387 120 -0.083333333333333287
1389 120 -0.16666666666666669
1390 120 -0.083333333333333343
1391 120 -0.083333333333333315
1392 120 0.16666666666666669
1394 120 -0.083333333333333343
1485 120 -0.083333333333333329
121 121 2.666666666666667
122 121 -0.33333333333333337
152 121 -0.33333333333333337
1295 121 -0.083333333333333343
1296 121 -0.083333333333333343
1297 121 0.16666666666666669
1299 121 -0.083333333333333343
1300 121 -0.16666666666666669
1390 121 -0.083333333333333287
1392 121 -0.16666666666666669
1393 121 -0.083333333333333343
1394 121 -0.083333333333333315
1395 121 0.16666666666666669
1397 121 -0.083333333333333343
1488 121 -0.083333333333333329
122 122 2.666666666666667
123 122 -0.33333333333333337
153 122 -0.33333333333333337
1298 122 -0.083333333333333343
1299 122 -0.083333333333333343
1300 122 0.16666666666666669
1302 122 -0.083333333333333343
1303 122 -0.16666666666666669
1393 122 -0.083333333333333287
1395 122 -0.16666666666666669
1396 122 -0.083333333333333343
1397 122 -0.083333333333333315
1398 122 0.16666666666666669
1400 122 -0.083333333333333343
1491 122 -0.083333333333333329
123 123 2.666666666666667
124 123 -0.33333333333333337
154 123 -0.33333333333333337
1301 123 -0.083333333333333343
1302 123 -0.083333333333333343
1303 123 0.16666666666666669
1305 123 -0.083333333333333343
1306 123 -0.16666666666666669
1396 123 -0.083333333333333287
1398 123 -0.16666666666666669
1399 123 -0.083333333333333343
1400 123 -0.083333333333333315
1401 123 0.16666666666666669
1403 123 -0.083333333333333343
1494 123 -0.083333333333333329
124 124 2.666666666666667
155 124 -0.33333333333333337
1304 124 -0.083333333333333343
1305 124 -0.083333333333333343
1306 124 0.16666666666666669
1308 124 -0.083333333333333343
1309 124 -0.16666666666666669
1399 124 -0.083333333333333287
1401 124 -0.16666666666666669
1402 124 -0.083333333333333343
1403 124 -0.083333333333333315
1404 124 0.16666666666666669
1497 124 -0.083333333333333329
125 125 2.666666666666667
126 125 -0.33333333333333337
156 125 -0.33333333333333337
1310 125 -0.083333333333333343
1311 125 0.16666666666666669
1313 125 -0.083333333333333343
1314 125 -0.16666666666666669
1405 125 -0.083333333333333287
1406 125 -0.16666666666666669
1407 125 -0.083333333333333343
1408 125 -0.083333333333333315
1409 125 0.16666666666666669
1411 125 -0.083333333333333343
1502 125 -0.083333333333333329
126 126 2.666666666666667
127 126 -0.33333333333333337
157 126 -0.33333333333333337
1312 126 -0.083333333333333343
1313 126 -0.083333333333333343
1314 126 0.16666666666666669
1316 126 -0.083333333333333343
1317 126 -0.16666666666666669
1407 126 -0.083333333333333287
1409 126 -0.16666666666666669
1410 126 -0.083333333333333343
1411 126 -0.083333333333333315
1412 126 0.16666666666666669
1414 126 -0.083333333333333343
1505 126 -0.083333333333333329
127 127 2.666666666666667
128 127 -0.33333333333333337
158 127 -0.33333333333333337
1315 127 -0.083333333333333343
1316 127 -0.083333333333333343
1317 127 0.16666666666666669
1319 127 -0.083333333333333343
1320 127 -0.16666666666666669
1410 127 -0.083333333333333287
1412 127 -0.16666666666666669
1413 127 -0.083333333333333343
1414 127 -0.083333333333333315
1415 127 0.16666666666666669
1417 127 -0.083333333333333343
1508 127 -0.083333333333333329
128 128 2.666666666666667
129 128 -0.33333333333333337
159 128 -0.33333333333333337
1318 128 -0.083333333333333343
1319 128 -0.083333333333333343
1320 128 0.16666666666666669
1322 128 -0.083333333333333343
1323 128 -0.16666666666666669
1413 128 -0.083333333333333287
1415 128 -0.16666666666666669
1416 128 -0.083333333333333343
1417 128 -0.083333333333333315
1418 128 0.16666666666666669
1420 128 -0.083333333333333343
1511 128 -0.083333333333333329
129 129 2.666666666666667
130 129 -0.33333333333333337
160 129 -0.33333333333333337
1321 129 -0.083333333333333343
1322 129 -0.083333333333333343
1323 129 0.16666666666666669
1325 129 -0.083333333333333343
1326 129 -0.16666666666666669
1416 129 -0.083333333333333287
1418 129 -0.16666666666666669
1419 129 -0.083333333333333343
1420 129 -0.083333333333333315
1421 129 0.16666666666666669
1423 129 -0.083333333333333343
1514 129 -0.083333333333333329
130 130 2.666666666666667
131 130 -0.33333333333333337
161 130 -0.33333333333333337
1324 130 -0.083333333333333343
1325 130 -0.083333333333333343
1326 130 0.16666666666666669
1328 130 -0.083333333333333343
1329 130 -0.16666666666666669
1419 130 -0.083333333333333287
1421 130 -0.16666666666666669
1422 130 -0.083333333333333343
1423 130 -0.083333333333333315
1424 130 0.16666666666666669
1426 130 -0.083333333333333343
1517 130 -0.083333333333333329
131 131 2.666666666666667
132 131 -0.33333333333333337
162 131 -0.33333333333333337
1327 131 -0.083333333333333343
1328 131 -0.083333333333333343
1329 131 0.16666666666666669
1331 131 -0.083333333333333343
1332 131 -0.16666666666666669
1422 131 -0.083333333333333287
1424 131 -0.16666666666666669
1425 131 -0.083333333333333343
1426 131 -0.083333333333333315
1427 131 0.16666666666666669
1429 131 -0.083333333333333343
1520 131 -0.083333333333333329
132 132 2.666666666666667
133 132 -0.33333333333333337
163 132 -0.33333333333333337
1330 132 -0.083333333333333343
1331 132 -0.083333333333333343
1332 132 0.16666666666666669
1334 132 -0.083333333333333343
1335 132 -0.16666666666666669
1425 132 -0.083333333333333287
1427 132 -0.16666666666666669
1428 132 -0.083333333333333343
1429 132 -0.083333333333333315
1430 132 0.16666666666666669
1432 132 -0.083333333333333343
1523 132 -0.083333333333333329
133 133 2.666666666666667
134 133 -0.33333333333333337
164 133 -0.33333333333333337
1333 133 -0.083333333333333343
1334 133 -0.083333333333333343
1335 133 0.16666666666666669
1337 133 -0.083333333333333343
1338 133 -0.16666666666666669
1428 133 -0.083333333333333287
1430 133 -0.16666666666666669
1431 133 -0.083333333333333343
1432 133 -0.083333333333333315
1433 133 0.16666666666666669
1435 133 -0.083333333333333343
1526 133 -0.083333333333333329
134 134 2.666666666666667
135 134 -0.33333333333333337
165 134 -0.33333333333333337
1336 134 -0.083333333333333343
1337 134 -0.083333333333333343
1338 134 0.16666666666666669
1340 134 -0.083333333333333343
1341 134 -0.16666666666666669
1431 134 -0.083333333333333287
1433 134 -0.16666666666666669
1434 134 -0.083333333333333343
1435 134 -0.083333333333333315
1436 134 0.16666666666666669
1438 134 -0.083333333333333343
1529 134 -0.083333333333333329
135 135 2.666666666666667
136 135 -0.33333333333333337
166 135 -0.33333333333333337
1339 135 -0.083333333333333343
1340 135 -0.083333333333333343
1341 135 0.16666666666666669
1343 135 -0.083333333333333343
1344 135 -0.16666666666666669
1434 135 -0.083333333333333287
1436 135 -0.16666666666666669
1437 135 -0.083333333333333343
1438 135 -0.083333333333333315
1439 135 0.16666666666666669
1441 135 -0.083333333333333343
1532 135 -0.083333333333333329
136 136 2.666666666666667
137 136 -0.33333333333333337
167 136 -0.33333333333333337
1342 136 -0.083333333333333343
1343 136 -0.083333333333333343
1344 136 0.16666666666666669
1346 136 -0.083333333333333343
1347 136 -0.16666666666666669
1437 136 -0.083333333333333287
1439 136 -0.16666666666666669
1440 136 -0.083333333333333343
1441 136 -0.083333333333333315
1442 136 0.16666666666666669
1444 136 -0.083333333333333343
1535 136 -0.083333333333333329
137 137 2.666666666666667
138 137 -0.33333333333333337
168 137 -0.33333333333333337
1345 137 -0.083333333333333343
1346 137 -0.083333333333333343
1347 137 0.16666666666666669
1349 137 -0.083333333333333343
1350 137 -0.16666666666666669
1440 137 -0.083333333333333287
1442 137 -0.16666666666666669
1443 137 -0.083333333333333343
1444 137 -0.083333333333333315
1445 137 0.16666666666666669
1447 137 -0.083333333333333343
1538 137 -0.083333333333333329
138 138 2.666666666666667
139 138 -0.33333333333333337
169 138 -0.33333333333333337
1348 138 -0.083333333333333343
1349 138 -0.083333333333333343
1350 138 0.16666666666666669
1352 138 -0.083333333333333343
1353 138 -0.16666666666666669
1443 138 -0.083333333333333287
1445 138 -0.16666666666666669
1446 138 -0.083333333333333343
1447 138 -0.083333333333333315
1448 138 0.16666666666666669
1450 138 -0.083333333333333343
1541 138 -0.083333333333333329
139 139 2.666666666666667
140 139 -0.33333333333333337
170 139 -0.33333333333333337
1351 139 -0.083333333333333343
1352 139 -0.083333333333333343
1353 139 0.16666666666666669
1355 139 -0.083333333333333343
1356 139 -0.16666666666666669
1446 139 -0.083333333333333287
1448 139 -0.16666666666666669
1449 139 -0.083333333333333343
1450 139 -0.083333333333333315
1451 139 0.16666666666666669
1453 139 -0.083333333333333343
1544 139 -0.083333333333333329
140 140 2.666666666666667
141 140 -0.33333333333333337
171 140 -0.33333333333333337
1354 140 -0.083333333333333343
1355 140 -0.083333333333333343
1356 140 0.16666666666666669
1358 140 -0.083333333333333343
1359 140 -0.16666666666666669
1449 140 -0.083333333333333287
1451 140 -0.16666666666666669
1452 140 -0.083333333333333343
1453 140 -0.083333333333333315
1454 140 0.16666666666666669
1456 140 -0.083333333333333343
1547 140 -0.083333333333333329
141 141 2.666666666666667
142 141 -0.33333333333333337
172 141 -0.33333333333333337
1357 141 -0.083333333333333343
1358 141 -0.083333333333333343
1359 141 0.16666666666666669
1361 141 -0.083333333333333343
1362 141 -0.16666666666666669
1452 141 -0.083333333333333287
1454 141 -0.16666666666666669
1455 141 -0.083333333333333343
1456 141 -0.083333333333333315
1457 141 0.16666666666666669
1459 141 -0.083333333333333343
1550 141 -0.083333333333333329
142 142 2.666666666666667
143 142 -0.33333333333333337
173 142 -0.33333333333333337
1360 142 -0.083333333333333343
1361 142 -0.083333333333333343
1362 142 0.16666666666666669
1364 142 -0.083333333333333343
1365 142 -0.16666666666666669
1455 142 -0.083333333333333287
1457 142 -0.16666666666666669
1458 142 -0.083333333333333343
1459 142 -0.083333333333333315
1460 142 0.16666666666666669
1462 142 -0.083333333333333343
1553 142 -0.083333333333333329
143 143 2.666666666666667
144 143 -0.33333333333333337
174 143 -0.33333333333333337
1363 143 -0.083333333333333343
1364 143 -0.083333333333333343
1365 143 0.16666666666666669
1367 143 -0.083333333333333343
1368 143 -0.16666666666666669
1458 143 -0.083333333333333287
1460 143 -0.16666666666666669
1461 143 -0.083333333333333343
1462 143 -0.083333333333333315
1463 143 0.16666666666666669
1465 143 -0.083333333333333343
1556 143 -0.083333333333333329
144 144 2.666666666666667
145 144 -0.33333333333333337
175 144 -0.33333333333333337
1366 144 -0.083333333333333343
1367 144 -0.083333333333333343
1368 144 0.16666666666666669
1370 144 -0.083333333333333343
1371 144 -0.16666666666666669
1461 144 -0.083333333333333287
1463 144 -0.16666666666666669
1464 144 -0.083333333333333343
1465 144 -0.083333333333333315
1466 144 0.16666666666666669
1468 144 -0.083333333333333343
1559 144 -0.083333333333333329
145 145 2.666666666666667
146 145 -0.33333333333333337
176 145 -0.33333333333333337
1369 145 -0.083333333333333343
1370 145 -0.083333333333333343
1371 145 0.16666666666666669
1373 145 -0.083333333333333343
1374 145 -0.16666666666666669
1464 145 -0.083333333333333287
1466 145 -0.16666666666666669
1467 145 -0.083333333333333343
1468 145 -0.083333333333333315
1469 145 0.16666666666666669
1471 145 -0.083333333333333343
1562 145 -0.083333333333333329
146 146 2.666666666666667
147 146 -0.33333333333333337
177 146 -0.33333333333333337
1372 146 -0.083333333333333343
1373 146 -0.083333333333333343
1374 146 0.16666666666666669
1376 146 -0.083333333333333343
1377 146 -0.16666666666666669
1467 146 -0.083333333333333287
1469 146 -0.16666666666666669
1470 146 -0.083333333333333343
1471 146 -0.083333333333333315
1472 146 0.16666666666666669
1474 146 -0.083333333333333343
1565 146 -0.083333333333333329
147 147 2.666666666666667
148 147 -0.33333333333333337
178 147 -0.33333333333333337
1375 147 -0.083333333333333343
1376 147 -0.083333333333333343
1377 147 0.16666666666666669
1379 147 -0.083333333333333343
1380 147 -0.16666666666666669
1470 147 -0.083333333333333287
1472 147 -0.16666666666666669
1473 147 -0.083333333333333343
1474 147 -0.083333333333333315
1475 147 0.16666666666666669
1477 147 -0.083333333333333343
1568 147 -0.083333333333333329
148 148 2.666666666666667
149 148 -0.33333333333333337
179 148 -0.33333333333333337
1378 148 -0.083333333333333343
1379 148 -0.083333333333333343
1380 148 0.16666666666666669
1382 148 -0.083333333333333343
1383 148 -0.16666666666666669
1473 148 -0.083333333333333287
1475 148 -0.16666666666666669
1476 148 -0.083333333333333343
1477 148 -0.083333333333333315
1478 148 0.16666666666666669
1480 148 -0.083333333333333343
1571 148 -0.083333333333333329
149 149 2.666666666666667
150 149 -0.33333333333333337
180 149 -0.33333333333333337
1381 149 -0.083333333333333343
1382 149 -0.083333333333333343
1383 149 0.16666666666666669
1385 149 -0.083333333333333343
1386 149 -0.16666666666666669
1476 149 -0.083333333333333287
1478 149 -0.16666666666666669
1479 149 -0.083333333333333343
1480 149 -0.083333333333333315
1481 149 0.16666666666666669
1483 149 -0.083333333333333343
1574 149 -0.083333333333333329
150 150 2.666666666666667
151 150 -0.33333333333333337
181 150 -0.33333333333333337
1384 150 -0.083333333333333343
1385 150 -0.083333333333333343
1386 150 0.16666666666666669
1388 150 -0.083333333333333343
1389 150 -0.16666666666666669
1479 150 -0.083333333333333287
1481 150 -0.16666666666666669
1482 150 -0.083333333333333343
1483 150 -0.083333333333333315
1484 150 0.16666666666666669
1486 150 -0.083333333333333343
1577 150 -0.083333333333333329
151 151 2.666666666666667
152 151 -0.33333333333333337
182 151 -0.33333333333333337
1387 151 -0.083333333333333343
1388 151 -0.083333333333333343
1389 151 0.16666666666666669
1391 151 -0.083333333333333343
1392 151 -0.16666666666666669
1482 151 -0.083333333333333287
1484 151 -0.16666666666666669
1485 151 -0.083333333333333343
1486 151 -0.083333333333333315
1487 151 0.16666666666666669
1489 151 -0.083333333333333343
1580 151 -0.083333333333333329
152 152 2.666666666666667
153 152 -0.33333333333333337
183 152 -0.33333333333333337
1390 152 -0.083333333333333343
1391 152 -0.083333333333333343
1392 152 0.16666666666666669
1394 152 -0.083333333333333343
1395 152 -0.16666666666666669
1485 152 -0.083333333333333287
1487 152 -0.16666666666666669
1488 152 -0.083333333333333343
1489 152 -0.083333333333333315
1490 152 0.16666666666666669
1492 152 -0.083333333333333343
1583 152 -0.083333333333333329
153 153 2.666666666666667
154 153 -0.33333333333333337
184 153 -0.33333333333333337
1393 153 -0.083333333333333343
1394 153 -0.083333333333333343
1395 153 0.16666666666666669
1397 153 -0.083333333333333343
1398 153 -0.16666666666666669
1488 153 -0.083333333333333287
1490 153 -0.16666666666666669
1491 153 -0.083333333333333343
1492 153 -0.083333333333333315
1493 153 0.16666666666666669
1495 153 -0.083333333333333343
1586 153 -0.083333333333333329
154 154 2.666666666666667
155 154 -0.33333333333333337
185 154 -0.33333333333333337
1396 154 -0.083333333333333343
1397 154 -0.083333333333333343
1398 154 0.16666666666666669
1400 154 -0.083333333333333343
1401 154 -0.16666666666666669
1491 154 -0.083333333333333287
1493 154 -0.16666666666666669
1494 154 -0.083333333333333343
1495 154 -0.083333333333333315
1496 154 0.16666666666666669
1498 154 -0.083333333333333343
1589 154 -0.083333333333333329
155 155 2.666666666666667
186 155 -0.33333333333333337
1399 155 -0.083333333333333343
1400 155 -0.083333333333333343
1401 155 0.16666666666666669
1403 155 -0.083333333333333343
1404 155 -0.16666666666666669
1494 155 -0.083333333333333287
1496 155 -0.16666666666666669
1497 155 -0.083333333333333343
1498 155 -0.083333333333333315
1499 155 0.16666666666666669
1592 155 -0.083333333333333329
156 156 2.666666666666667
157 156 -0.33333333333333337
187 156 -0.33333333333333337
1405 156 -0.083333333333333343
1406 156 0.16666666666666669
1408 156 -0.083333333333333343
1409 156 -0.16666666666666669
1500 156 -0.083333333333333287
1501 156 -0.16666666666666669
1502 156 -0.083333333333333343
1503 156 -0.083333333333333315
1504 156 0.16666666666666669
1506 156 -0.083333333333333343
1597 156 -0.083333333333333329
157 157 2.666666666666667
158 157 -0.33333333333333337
188 157 -0.33333333333333337
1407 157 -0.083333333333333343
1408 157 -0.083333333333333343
1409 157 0.16666666666666669
1411 157 -0.083333333333333343
1412 157 -0.16666666666666669
1502 157 -0.083333333333333287
1504 157 -0.16666666666666669
1505 157 -0.083333333333333343
1506 157 -0.083333333333333315
1507 157 0.16666666666666669
1509 157 -0.083333333333333343
1600 157 -0.083333333333333329
158 158 2.666666666666667
159 158 -0.33333333333333337
189 158 -0.33333333333333337
1410 158 -0.083333333333333343
1411 158 -0.083333333333333343
1412 158 0.16666666666666669
1414 158 -0.083333333333333343
1415 158 -0.16666666666666669
1505 158 -0.083333333333333287
1507 158 -0.16666666666666669
1508 158 -0.083333333333333343
1509 158 -0.083333333333333315
1510 158 0.16666666666666669
1512 158 -0.083333333333333343
1603 158 -0.083333333333333329
159 159 2.666666666666667
160 159 -0.33333333333333337
190 159 -0.33333333333333337
1413 159 -0.083333333333333343
1414 159 -0.083333333333333343
1415 159 0.16666666666666669
1417 159 -0.083333333333333343
1418 159 -0.16666666666666669
1508 159 -0.083333333333333287
1510 159 -0.16666666666666669
1511 159 -0.083333333333333343
1512 159 -0.083333333333333315
1513 159 0.16666666666666669
1515 159 -0.083333333333333343
1606 159 -0.083333333333333329
160 160 2.666666666666667
161 160 -0.33333333333333337
191 160 -0.33333333333333337
1416 160 -0.083333333333333343
1417 160 -0.083333333333333343
1418 160 0.16666666666666669
1420 160 -0.083333333333333343
1421 160 -0.16666666666666669
1511 160 -0.083333333333333287
1513 160 -0.16666666666666669
1514 160 -0.083333333333333343
1515 160 -0.083333333333333315
1516 160 0.16666666666666669
1518 160 -0.083333333333333343
1609 160 -0.083333333333333329
161 161 2.666666666666667
162 161 -0.33333333333333337
192 161 -0.33333333333333337
1419 161 -0.083333333333333343
1420 161 -0.083333333333333343
1421 161 0.16666666666666669
1423 161 -0.083333333333333343
1424 161 -0.16666666666666669
1514 161 -0.083333333333333287
1516 161 -0.16666666666666669
1517 161 -0.083333333333333343
1518 161 -0.083333333333333315
1519 161 0.16666666666666669
1521 161 -0.083333333333333343
1612 161 -0.083333333333333329
162 162 2.666666666666667
163 162 -0.33333333333333337
193 162 -0.33333333333333337
1422 162 -0.083333333333333343
1423 162 -0.083333333333333343
1424 162 0.16666666666666669
1426 162 -0.083333333333333343
1427 162 -0.16666666666666669
1517 162 -0.083333333333333287
1519 162 -0.16666666666666669
1520 162 -0.083333333333333343
1521 162 -0.083333333333333315
1522 162 0.16666666666666669
1524 162 -0.083333333333333343
1615 162 -0.083333333333333329
163 163 2.666666666666667
164 163 -0.33333333333333337
194 163 -0.33333333333333337
1425 163 -0.083333333333333343
1426 163 -0.083333333333333343
1427 163 0.16666666666666669
1429 163 -0.083333333333333343
1430 163 -0.16666666666666669
1520 163 -0.083333333333333287
1522 163 -0.16666666666666669
1523 163 -0.083333333333333343
1524 163 -0.083333333333333315
1525 163 0.16666666666666669
1527 163 -0.083333333333333343
1618 163 -0.083333333333333329
164 164 2.666666666666667
165 164 -0.33333333333333337
195 164 -0.33333333333333337
1428 164 -0.083333333333333343
1429 164 -0.083333333333333343
1430 164 0.16666666666666669
1432 164 -0.083333333333333343
1433 164 -0.16666666666666669
1523 164 -0.083333333333333287
1525 164 -0.16666666666666669
1526 164 -0.083333333333333343
1527 164 -0.083333333333333315
1528 164 0.16666666666666669
1530 164 -0.083333333333333343
1621 164 -0.083333333333333329
165 165 2.666666666666667
166 165 -0.33333333333333337
196 165 -0.33333333333333337
1431 165 -0.083333333333333343
1432 165 -0.083333333333333343
1433 165 0.16666666666666669
1435 165 -0.083333333333333343
1436 165 -0.16666666666666669
1526 165 -0.083333333333333287
1528 165 -0.16666666666666669
1529 165 -0.083333333333333343
1530 165 -0.083333333333333315
1531 165 0.16666666666666669
1533 165 -0.083333333333333343
1624 165 -0.083333333333333329
166 166 2.666666666666667
167 166 -0.33333333333333337
197 166 -0.33333333333333337
1434 166 -0.083333333333333343
1435 166 -0.083333333333333343
1436 166 0.16666666666666669
1438 166 -0.083333333333333343
1439 166 -0.16666666666666669
1529 166 -0.083333333333333287
1531 166 -0.16666666666666669
1532 166 -0.083333333333333343
1533 166 -0.083333333333333315
1534 166 0.16666666666666669
1536 166 -0.083333333333333343
1627 166 -0.083333333333333329
167 167 2.666666666666667
168 167 -0.33333333333333337
198 167 -0.33333333333333337
1437 167 -0.083333333333333343
1438 167 -0.083333333333333343
1439 167 0.16666666666666669
1441 167 -0.083333333333333343
1442 167 -0.16666666666666669
1532 167 -0.083333333333333287
1534 167 -0.16666666666666669
1535 167 -0.083333333333333343
1536 167 -0.083333333333333315
1537 167 0.16666666666666669
1539 167 -0.083333333333333343
1630 167 -0.083333333333333329
168 168 2.666666666666667
169 168 -0.33333333333333337
199 168 -0.33333333333333337
1440 168 -0.083333333333333343
1441 168 -0.083333333333333343
1442 168 0.16666666666666669
1444 168 -0.083333333333333343
1445 168 -0.16666666666666669
1535 168 -0.083333333333333287
1537 168 -0.16666666666666669
1538 168 -0.083333333333333343
1539 168 -0.083333333333333315
1540 168 0.16666666666666669
1542 168 -0.083333333333333343
1633 168 -0.083333333333333329
169 169 2.666666666666667
170 169 -0.33333333333333337
200 169 -0.33333333333333337
1443 169 -0.083333333333333343
1444 169 -0.083333333333333343
1445 169 0.16666666666666669
1447 169 -0.083333333333333343
1448 169 -0.16666666666666669
1538 169 -0.083333333333333287
1540 169 -0.16666666666666669
1541 169 -0.083333333333333343
1542 169 -0.083333333333333315
1543 169 0.16666666666666669
1545 169 -0.083333333333333343
1636 169 -0.083333333333333329
170 170 2.666666666666667
171 170 -0.33333333333333337
201 170 -0.33333333333333337
1446 170 -0.083333333333333343
1447 170 -0.083333333333333343
1448 170 0.16666666666666669
1450 170 -0.083333333333333343
1451 170 -0.16666666666666669
1541 170 -0.083333333333333287
1543 170 -0.16666666666666669
1544 170 -0.083333333333333343
1545 170 -0.083333333333333315
1546 170 0.16666666666666669
1548 170 -0.083333333333333343
1639 170 -0.083333333333333329
171 171 2.666666666666667
172 171 -0.33333333333333337
202 171 -0.33333333333333337
1449 171 -0.083333333333333343
1450 171 -0.083333333333333343
1451 171 0.16666666666666669
1453 171 -0.083333333333333343
1454 171 -0.16666666666666669
1544 171 -0.083333333333333287
1546 171 -0.16666666666666669
1547 171 -0.083333333333333343
1548 171 -0.083333333333333315
1549 171 0.16666666666666669
1551 171 -0.083333333333333343
1642 171 -0.083333333333333329
172 172 2.666666666666667
173 172 -0.33333333333333337
203 172 -0.33333333333333337
1452 172 -0.083333333333333343
1453 172 -0.083333333333333343
1454 172 0.16666666666666669
1456 172 -0.083333333333333343
1457 172 -0.16666666666666669
1547 172 -0.083333333333333287
1549 172 -0.16666666666666669
1550 172 -0.083333333333333343
1551 172 -0.083333333333333315
1552 172 0.16666666666666669
1554 172 -0.083333333333333343
1645 172 -0.083333333333333329
173 173 2.666666666666667
174 173 -0.33333333333333337
204 173 -0.33333333333333337
1455 173 -0.083333333333333343
1456 173 -0.083333333333333343
1457 173 0.16666666666666669
1459 173 -0.083333333333333343
1460 173 -0.16666666666666669
1550 173 -0.083333333333333287
1552 173 -0.16666666666666669
1553 173 -0.083333333333333343
1554 173 -0.083333333333333315
1555 173 0.16666666666666669
1557 173 -0.083333333333333343
1648 173 -0.083333333333333329
174 174 2.666666666666667
175 174 -0.33333333333333337
205 174 -0.33333333333333337
1458 174 -0.083333333333333343
1459 174 -0.083333333333333343
1460 174 0.16666666666666669
1462 174 -0.083333333333333343
1463 174 -0.16666666666666669
1553 174 -0.083333333333333287
1555 174 -0.16666666666666669
1556 174 -0.083333333333333343
1557 174 -0.083333333333333315
1558 174 0.16666666666666669
1560 174 -0.083333333333333343
1651 174 -0.083333333333333329
175 175 2.666666666666667
176 175 -0.33333333333333337
206 175 -0.33333333333333337
1461 175 -0.083333333333333343
1462 175 -0.083333333333333343
1463 175 0.16666666666666669
1465 175 -0.083333333333333343
1466 175 -0.16666666666666669
1556 175 -0.083333333333333287
1558 175 -0.16666666666666669
1559 175 -0.083333333333333343
1560 175 -0.083333333333333315
1561 175 0.16666666666666669
1563 175 -0.083333333333333343
1654 175 -0.083333333333333329
176 176 2.666666666666667
177 176 -0.33333333333333337
207 176 -0.33333333333333337
1464 176 -0.083333333333333343
1465 176 -0.083333333333333343
1466 176 0.16666666666666669
1468 176 -0.083333333333333343
1469 176 -0.16666666666666669
1559 176 -0.083333333333333287
1561 176 -0.16666666666666669
1562 176 -0.083333333333333343
1563 176 -0.083333333333333315
1564 176 0.16666666666666669
1566 176 -0.083333333333333343
1657 176 -0.083333333333333329
177 177 2.666666666666667
178 177 -0.33333333333333337
208 177 -0.33333333333333337
1467 177 -0.083333333333333343
1468 177 -0.083333333333333343
1469 177 0.16666666666666669
1471 177 -0.083333333333333343
1472 177 -0.16666666666666669
1562 177 -0.083333333333333287
1564 177 -0.16666666666666669
1565 177 -0.083333333333333343
1566 177 -0.083333333333333315
1567 177 0.16666666666666669
1569 177 -0.083333333333333343
1660 177 -0.083333333333333329
178 178 2.666666666666667
179 178 -0.33333333333333337
209 178 -0.33333333333333337
1470 178 -0.083333333333333343
1471 178 -0.083333333333333343
1472 178 0.16666666666666669
1474 178 -0.083333333333333343
1475 178 -0.16666666666666669
1565 178 -0.083333333333333287
1567 178 -0.16666666666666669
1568 178 -0.083333333333333343
1569 178 -0.083333333333333315
1570 178 0.16666666666666669
1572 178 -0.083333333333333343
1663 178 -0.083333333333333329
179 179 2.666666666666667
180 179 -0.33333333333333337
210 179 -0.33333333333333337
1473 179 -0.083333333333333343
1474 179 -0.083333333333333343
1475 179 0.16666666666666669
1477 179 -0.083333333333333343
1478 179 -0.16666666666666669
1568 179 -0.083333333333333287
1570 179 -0.16666666666666669
1571 179 -0.083333333333333343
1572 179 -0.083333333333333315
1573 179 0.16666666666666669
1575 179 -0.083333333333333343
1666 179 -0.083333333333333329
180 180 2.666666666666667
181 180 -0.33333333333333337
211 180 -0.33333333333333337
1476 180 -0.083333333333333343
1477 180 -0.083333333333333343
1478 180 0.16666666666666669
1480 180 -0.083333333333333343
1481 180 -0.16666666666666669
1571 180 -0.083333333333333287
1573 180 -0.16666666666666669
1574 180 -0.083333333333333343
1575 180 -0.083333333333333315
1576 180 0.16666666666666669
1578 180 -0.083333333333333343
1669 180 -0.083333333333333329
181 181 2.666666666666667
182 181 -0.33333333333333337
212 181 -0.33333333333333337
1479 181 -0.083333333333333343
1480 181 -0.083333333333333343
1481 181 0.16666666666666669
1483 181 -0.083333333333333343
1484 181 -0.16666666666666669
1574 181 -0.083333333333333287
1576 181 -0.16666666666666669
1577 181 -0.083333333333333343
1578 181 -0.083333333333333315
1579 181 0.16666666666666669
1581 181 -0.083333333333333343
1672 181 -0.083333333333333329
182 182 2.666666666666667
183 182 -0.33333333333333337
213 182 -0.33333333333333337
1482 182 -0.083333333333333343
1483 182 -0.083333333333333343
1484 182 0.16666666666666669
1486 182 -0.083333333333333343
1487 182 -0.16666666666666669
1577 182 -0.083333333333333287
1579 182 -0.16666666666666669
1580 182 -0.083333333333333343
1581 182 -0.083333333333333315
1582 182 0.16666666666666669
1584 182 -0.083333333333333343
1675 182 -0.083333333333333329
183 183 2.666666666666667
184 183 -0.33333333333333337
214 183 -0.33333333333333337
1485 183 -0.083333333333333343
1486 183 -0.083333333333333343
1487 183 0.16666666666666669
1489 183 -0.083333333333333343
1490 183 -0.16666666666666669
1580 183 -0.083333333333333287
1582 183 -0.16666666666666669
1583 183 -0.083333333333333343
1584 183 -0.083333333333333315
1585 183 0.16666666666666669
1587 183 -0.083333333333333343
1678 183 -0.083333333333333329
184 184 2.666666666666667
185 184 -0.33333333333333337
215 184 -0.33333333333333337
1488 184 -0.083333333333333343
1489 184 -0.083333333333333343
1490 184 0.16666666666666669
1492 184 -0.083333333333333343
1493 184 -0.16666666666666669
1583 184 -0.083333333333333287
1585 184 -0.16666666666666669
1586 184 -0.083333333333333343
1587 184 -0.083333333333333315
1588 184 0.16666666666666669
1590 184 -0.083333333333333343
1681 184 -0.083333333333333329
185 185 2.666666666666667
186 185 -0.33333333333333337
216 185 -0.33333333333333337
1491 185 -0.083333333333333343
1492 185 -0.083333333333333343
1493 185 0.16666666666666669
1495 185 -0.083333333333333343
1496 185 -0.16666666666666669
1586 185 -0.083333333333333287
1588 185 -0.16666666666666669
1589 185 -0.083333333333333343
1590 185 -0.083333333333333315
1591 185 0.16666666666666669
1593 185 -0.083333333333333343
1684 185 -0.083333333333333329
186 186 2.666666666666667
217 186 -0.33333333333333337
1494 186 -0.083333333333333343
1495 186 -0.083333333333333343
1496 186 0.16666666666666669
1498 186 -0.083333333333333343
1499 186 -0.16666666666666669
1589 186 -0.083333333333333287
1591 186 -0.16666666666666669
1592 186 -0.083333333333333343
1593 186 -0.083333333333333315
1594 186 0.16666666666666669
1687 186 -0.083333333333333329
187 187 2.666666666666667
188 187 -0.33333333333333337
218 187 -0.33333333333333337
1500 187 -0.083333333333333343
1501 187 0.16666666666666669
1503 187 -0.083333333333333343
1504 187 -0.16666666666666669
1595 187 -0.083333333333333287
1596 187 -0.16666666666666669
1597 187 -0.083333333333333343
1598 187 -0.083333333333333315
1599 187 0.16666666666666669
1601 187 -0.083333333333333343
1692 187 -0.083333333333333329
188 188 2.666666666666667
189 188 -0.33333333333333337
219 188 -0.33333333333333337
1502 188 -0.083333333333333343
1503 188 -0.083333333333333343
1504 188 0.16666666666666669
1506 188 -0.083333333333333343
1507 188 -0.16666666666666669
1597 188 -0.083333333333333287
1599 188 -0.16666666666666669
1600 188 -0.083333333333333343
1601 188 -0.083333333333333315
1602 188 0.16666666666666669
1604 188 -0.083333333333333343
1695 188 -0.083333333333333329
189 189 2.666666666666667
190 189 -0.33333333333333337
220 189 -0.33333333333333337
1505 189 -0.083333333333333343
1506 189 -0.083333333333333343
1507 189 0.16666666666666669
1509 189 -0.083333333333333343
1510 189 -0.16666666666666669
1600 189 -0.083333333333333287
1602 189 -0.16666666666666669
1603 189 -0.083333333333333343
1604 189 -0.083333333333333315
1605 189 0.16666666666666669
1607 189 -0.083333333333333343
1698 189 -0.083333333333333329
190 190 2.666666666666667
191 190 -0.33333333333333337
221 190 -0.33333333333333337
1508 190 -0.083333333333333343
1509 190 -0.083333333333333343
1510 190 0.16666666666666669
1512 190 -0.083333333333333343
1513 190 -0.16666666666666669
1603 190 -0.083333333333333287
1605 190 -0.16666666666666669
1606 190 -0.083333333333333343
1607 190 -0.083333333333333315
1608 190 0.16666666666666669
1610 190 -0.083333333333333343
1701 190 -0.083333333333333329
191 191 2.666666666666667
192 191 -0.33333333333333337
222 191 -0.33333333333333337
1511 191 -0.083333333333333343
1512 191 -0.083333333333333343
1513 191 0.16666666666666669
1515 191 -0.083333333333333343
1516 191 -0.16666666666666669
1606 191 -0.083333333333333287
1608 191 -0.16666666666666669
1609 191 -0.083333333333333343
1610 191 -0.083333333333333315
1611 191 0.16666666666666669
1613 191 -0.083333333333333343
1704 191 -0.083333333333333329
192 192 2.666666666666667
193 192 -0.33333333333333337
223 192 -0.33333333333333337
1514 192 -0.083333333333333343
1515 192 -0.083333333333333343
1516 192 0.16666666666666669
1518 192 -0.083333333333333343
1519 192 -0.16666666666666669
1609 192 -0.083333333333333287
1611 192 -0.16666666666666669
1612 192 -0.083333333333333343
1613 192 -0.083333333333333315
1614 192 0.16666666666666669
1616 192 -0.083333333333333343
1707 192 -0.083333333333333329
193 193 2.666666666666667
194 193 -0.33333333333333337
224 193 -0.33333333333333337
1517 193 -0.083333333333333343
1518 193 -0.083333333333333343
1519 193 0.16666666666666669
1521 193 -0.083333333333333343
1522 193 -0.16666666666666669
1612 193 -0.083333333333333287
1614 193 -0.16666666666666669
1615 193 -0.083333333333333343
1616 193 -0.083333333333333315
1617 193 0.16666666666666669
1619 193 -0.083333333333333343
1710 193 -0.083333333333333329
194 194 2.666666666666667
195 194 -0.33333333333333337
225 194 -0.33333333333333337
1520 194 -0.083333333333333343
1521 194 -0.083333333333333343
1522 194 0.16666666666666669
1524 194 -0.083333333333333343
1525 194 -0.16666666666666669
1615 194 -0.083333333333333287
1617 194 -0.16666666666666669
1618 194 -0.083333333333333343
1619 194 -0.083333333333333315
1620 194 0.16666666666666669
1622 194 -0.083333333333333343
1713 194 -0.083333333333333329
195 195 2.666666666666667
196 195 -0.33333333333333337
226 195 -0.33333333333333337
1523 195 -0.083333333333333343
1524 195 -0.083333333333333343
1525 195 0.16666666666666669
1527 195 -0.083333333333333343
1528 195 -0.16666666666666669
1618 195 -0.083333333333333287
1620 195 -0.16666666666666669
1621 195 -0.083333333333333343
1622 195 -0.083333333333333315
1623 195 0.16666666666666669
1625 195 -0.083333333333333343
1716 195 -0.083333333333333329
196 196 2.666666666666667
197 196 -0.33333333333333337
227 196 -0.33333333333333337
1526 196 -0.083333333333333343
1527 196 -0.083333333333333343
1528 196 0.16666666666666669
1530 196 -0.083333333333333343
1531 196 -0.16666666666666669
1621 196 -0.083333333333333287
1623 196 -0.16666666666666669
1624 196 -0.083333333333333343
1625 196 -0.083333333333333315
1626 196 0.16666666666666669
1628 196 -0.083333333333333343
1719 196 -0.083333333333333329
197 197 2.666666666666667
198 197 -0.33333333333333337
228 197 -0.33333333333333337
1529 197 -0.083333333333333343
1530 197 -0.083333333333333343
1531 197 0.16666666666666669
1533 197 -0.083333333333333343
1534 197 -0.16666666666666669
1624 197 -0.083333333333333287
1626 197 -0.16666666666666669
1627 197 -0.083333333333333343
1628 197 -0.083333333333333315
1629 197 0.16666666666666669
1631 197 -0.083333333333333343
1722 197 -0.083333333333333329
198 198 2.666666666666667
199 198 -0.33333333333333337
229 198 -0.33333333333333337
1532 198 -0.083333333333333343
1533 198 -0.083333333333333343
1534 198 0.16666666666666669
1536 198 -0.083333333333333343
1537 198 -0.16666666666666669
1627 198 -0.083333333333333287
1629 198 -0.16666666666666669
1630 198 -0.083333333333333343
1631 198 -0.083333333333333315
1632 198 0.16666666666666669
1634 198 -0.083333333333333343
1725 198 -0.083333333333333329
199 199 2.666666666666667
200 199 -0.33333333333333337
230 199 -0.33333333333333337
1535 199 -0.083333333333333343
1536 199 -0.083333333333333343
1537 199 0.16666666666666669
1539 199 -0.083333333333333343
1540 199 -0.16666666666666669
1630 199 -0.083333333333333287
1632 199 -0.16666666666666669
1633 199 -0.083333333333333343
1634 199 -0.083333333333333315
1635 199 0.16666666666666669
1637 199 -0.083333333333333343
1728 199 -0.083333333333333329
200 200 2.666666666666667
201 200 -0.33333333333333337
231 200 -0.33333333333333337
1538 200 -0.083333333333333343
1539 200 -0.083333333333333343
1540 200 0.16666666666666669
1542 200 -0.083333333333333343
1543 200 -0.16666666666666669
1633 200 -0.083333333333333287
1635 200 -0.16666666666666669
1636 200 -0.083333333333333343
1637 200 -0.083333333333333315
1638 200 0.16666666666666669
1640 200 -0.083333333333333343
1731 200 -0.083333333333333329
201 201 2.666666666666667
202 201 -0.33333333333333337
232 201 -0.33333333333333337
1541 201 -0.083333333333333343
1542 201 -0.083333333333333343
1543 201 0.16666666666666669
1545 201 -0.083333333333333343
1546 201 -0.16666666666666669
1636 201 -0.083333333333333287
1638 201 -0.16666666666666669
1639 201 -0.083333333333333343
1640 201 -0.083333333333333315
1641 201 0.16666666666666669
1643 201 -0.083333333333333343
1734 201 -0.083333333333333329
202 202 2.666666666666667
203 202 -0.33333333333333337
233 202 -0.33333333333333337
1544 202 -0.083333333333333343
1545 202 -0.083333333333333343
1546 202 0.16666666666666669
1548 202 -0.083333333333333343
1549 202 -0.16666666666666669
1639 202 -0.083333333333333287
1641 202 -0.16666666666666669
1642 202 -0.083333333333333343
1643 202 -0.083333333333333315
1644 202 0.16666666666666669
1646 202 -0.083333333333333343
1737 202 -0.083333333333333329
203 203 2.666666666666667
204 203 -0.33333333333333337
234 203 -0.33333333333333337
1547 203 -0.083333333333333343
1548 203 -0.083333333333333343
1549 203 0.16666666666666669
1551 203 -0.083333333333333343
1552 203 -0.16666666666666669
1642 203 -0.083333333333333287
1644 203 -0.16666666666666669
1645 203 -0.083333333333333343
1646 203 -0.083333333333333315
1647 203 0.16666666666666669
1649 203 -0.083333333333333343
1740 203 -0.083333333333333329
204 204 2.666666666666667
205 204 -0.33333333333333337
235 204 -0.33333333333333337
1550 204 -0.083333333333333343
1551 204 -0.083333333333333343
1552 204 0.16666666666666669
1554 204 -0.083333333333333343
1555 204 -0.16666666666666669
1645 204 -0.083333333333333287
1647 204 -0.16666666666666669
1648 204 -0.083333333333333343
1649 204 -0.083333333333333315
1650 204 0.16666666666666669
1652 204 -0.083333333333333343
1743 204 -0.083333333333333329
205 205 2.666666666666667
206 205 -0.33333333333333337
236 205 -0.33333333333333337
1553 205 -0.083333333333333343
1554 205 -0.083333333333333343
1555 205 0.16666666666666669
1557 205 -0.083333333333333343
1558 205 -0.16666666666666669
1648 205 -0.083333333333333287
1650 205 -0.16666666666666669
1651 205 -0.083333333333333343
1652 205 -0.083333333333333315
1653 205 0.16666666666666669
1655 205 -0.083333333333333343
1746 205 -0.083333333333333329
206 206 2.666666666666667
207 206 -0.33333333333333337
237 206 -0.33333333333333337
1556 206 -0.083333333333333343
1557 206 -0.083333333333333343
1558 206 0.16666666666666669
1560 206 -0.083333333333333343
1561 206 -0.16666666666666669
1651 206 -0.083333333333333287
1653 206 -0.16666666666666669
1654 206 -0.083333333333333343
1655 206 -0.083333333333333315
1656 206 0.16666666666666669
1658 206 -0.083333333333333343
1749 206 -0.083333333333333329
207 207 2.666666666666667
208 207 -0.33333333333333337
238 207 -0.33333333333333337
1559 207 -0.083333333333333343
1560 207 -0.083333333333333343
1561 207 0.16666666666666669
1563 207 -0.083333333333333343
1564 207 -0.16666666666666669
1654 207 -0.083333333333333287
1656 207 -0.16666666666666669
1657 207 -0.083333333333333343
1658 207 -0.083333333333333315
1659 207 0.16666666666666669
1661 207 -0.083333333333333343
1752 207 -0.083333333333333329
208 208 2.666666666666667
209 208 -0.33333333333333337
239 208 -0.33333333333333337
1562 208 -0.083333333333333343
1563 208 -0.083333333333333343
1564 208 0.16666666666666669
1566 208 -0.083333333333333343
1567 208 -0.16666666666666669
1657 208 -0.083333333333333287
1659 208 -0.16666666666666669
1660 208 -0.083333333333333343
1661 208 -0.083333333333333315
1662 208 0.16666666666666669
1664 208 -0.083333333333333343
1755 208 -0.083333333333333329
209 209 2.666666666666667
210 209 -0.33333333333333337
240 209 -0.33333333333333337
1565 209 -0.083333333333333343
1566 209 -0.083333333333333343
1567 209 0.16666666666666669
1569 209 -0.083333333333333343
1570 209 -0.16666666666666669
1660 209 -0.083333333333333287
1662 209 -0.16666666666666669
1663 209 -0.083333333333333343
1664 209 -0.083333333333333315
1665 209 0.16666666666666669
1667 209 -0.083333333333333343
1758 209 -0.083333333333333329
210 210 2.666666666666667
211 210 -0.33333333333333337
241 210 -0.33333333333333337
1568 210 -0.083333333333333343
1569 210 -0.083333333333333343
1570 210 0.16666666666666669
1572 210 -0.083333333333333343
1573 210 -0.16666666666666669
1663 210 -0.083333333333333287
1665 210 -0.16666666666666669
1666 210 -0.083333333333333343
1667 210 -0.083333333333333315
1668 210 0.16666666666666669
1670 210 -0.083333333333333343
1761 210 -0.083333333333333329
211 211 2.666666666666667
212 211 -0.33333333333333337
242 211 -0.33333333333333337
1571 211 -0.083333333333333343
1572 211 -0.083333333333333343
1573 211 0.16666666666666669
1575 211 -0.083333333333333343
1576 211 -0.16666666666666669
1666 211 -0.083333333333333287
1668 211 -0.16666666666666669
1669 211 -0.083333333333333343
1670 211 -0.083333333333333315
1671 211 0.16666666666666669
1673 211 -0.083333333333333343
1764 211 -0.083333333333333329
212 212 2.666666666666667
213 212 -0.33333333333333337
243 212 -0.33333333333333337
1574 212 -0.083333333333333343
1575 212 -0.083333333333333343
1576 212 0.16666666666666669
1578 212 -0.083333333333333343
1579 212 -0.16666666666666669
1669 212 -0.083333333333333287
1671 212 -0.16666666666666669
1672 212 -0.083333333333333343
1673 212 -0.083333333333333315
1674 212 0.16666666666666669
1676 212 -0.083333333333333343
1767 212 -0.083333333333333329
213 213 2.666666666666667
214 213 -0.33333333333333337
244 213 -0.33333333333333337
1577 213 -0.083333333333333343
1578 213 -0.083333333333333343
1579 213 0.16666666666666669
1581 213 -0.083333333333333343
1582 213 -0.16666666666666669
1672 213 -0.083333333333333287
1674 213 -0.16666666666666669
1675 213 -0.083333333333333343
1676 213 -0.083333333333333315
1677 213 0.16666666666666669
1679 213 -0.083333333333333343
1770 213 -0.083333333333333329
214 214 2.666666666666667
215 214 -0.33333333333333337
245 214 -0.33333333333333337
1580 214 -0.083333333333333343
1581 214 -0.083333333333333343
1582 214 0.16666666666666669
1584 214 -0.083333333333333343
1585 214 -0.16666666666666669
1675 214 -0.083333333333333287
1677 214 -0.16666666666666669
1678 214 -0.083333333333333343
1679 214 -0.083333333333333315
1680 214 0.16666666666666669
1682 214 -0.083333333333333343
1773 214 -0.083333333333333329
215 215 2.666666666666667
216 215 -0.33333333333333337
246 215 -0.33333333333333337
1583 215 -0.083333333333333343
1584 215 -0.083333333333333343
1585 215 0.16666666666666669
1587 215 -0.083333333333333343
1588 215 -0.16666666666666669
1678 215 -0.083333333333333287
1680 215 -0.16666666666666669
1681 215 -0.083333333333333343
1682 215 -0.083333333333333315
1683 215 0.16666666666666669
1685 215 -0.083333333333333343
1776 215 -0.083333333333333329
216 216 2.666666666666667
217 216 -0.33333333333333337
247 216 -0.33333333333333337
1586 216 -0.083333333333333343
1587 216 -0.083333333333333343
1588 216 0.16666666666666669
1590 216 -0.083333333333333343
1591 216 -0.16666666666666669
1681 216 -0.083333333333333287
1683 216 -0.16666666666666669
1684 216 -0.083333333333333343
1685 216 -0.083333333333333315
1686 216 0.16666666666666669
1688 216 -0.083333333333333343
1779 216 -0.083333333333333329
217 217 2.666666666666667
248 217 -0.33333333333333337
1589 217 -0.083333333333333343
1590 217 -0.083333333333333343
1591 217 0.16666666666666669
1593 217 -0.083333333333333343
1594 217 -0.16666666666666669
1684 217 -0.083333333333333287
1686 217 -0.16666666666666669
1687 217 -0.083333333333333343
1688 217 -0.083333333333333315
1689 217 0.16666666666666669
1782 217 -0.083333333333333329
218 218 2.666666666666667
219 218 -0.33333333333333337
249 218 -0.33333333333333337
1595 218 -0.083333333333333343
1596 218 0.16666666666666669
1598 218 -0.083333333333333343
1599 218 -0.16666666666666669
1690 218 -0.083333333333333287
1691 218 -0.16666666666666669
1692 218 -0.083333333333333343
1693 218 -0.083333333333333315
1694 218 0.16666666666666669
1696 218 -0.083333333333333343
1787 218 -0.083333333333333329
219 219 2.666666666666667
220 219 -0.33333333333333337
250 219 -0.33333333333333337
1597 219 -0.083333333333333343
1598 219 -0.083333333333333343
1599 219 0.16666666666666669
1601 219 -0.083333333333333343
1602 219 -0.16666666666666669
1692 219 -0.083333333333333287
1694 219 -0.16666666666666669
1695 219 -0.083333333333333343
1696 219 -0.083333333333333315
1697 219 0.16666666666666669
1699 219 -0.083333333333333343
1790 219 -0.083333333333333329
220 220 2.666666666666667
221 220 -0.33333333333333337
251 220 -0.33333333333333337
1600 220 -0.083333333333333343
1601 220 -0.083333333333333343
1602 220 0.16666666666666669
1604 220 -0.083333333333333343
1605 220 -0.16666666666666669
1695 220 -0.083333333333333287
1697 220 -0.16666666666666669
1698 220 -0.083333333333333343
1699 220 -0.083333333333333315
1700 220 0.16666666666666669
1702 220 -0.083333333333333343
1793 220 -0.083333333333333329
221 221 2.666666666666667
222 221 -0.33333333333333337
252 221 -0.33333333333333337
1603 221 -0.083333333333333343
1604 221 -0.083333333333333343
1605 221 0.16666666666666669
1607 221 -0.083333333333333343
1608 221 -0.16666666666666669
1698 221 -0.083333333333333287
1700 221 -0.16666666666666669
1701 221 -0.083333333333333343
1702 221 -0.083333333333333315
1703 221 0.16666666666666669
1705 221 -0.083333333333333343
1796 221 -0.083333333333333329
222 222 2.666666666666667
223 222 -0.33333333333333337
253 222 -0.33333333333333337
1606 222 -0.083333333333333343
1607 222 -0.083333333333333343
1608 222 0.16666666666666669
1610 222 -0.083333333333333343
1611 222 -0.16666666666666669
1701 222 -0.083333333333333287
1703 222 -0.16666666666666669
1704 222 -0.083333333333333343
1705 222 -0.083333333333333315
1706 222 0.16666666666666669
1708 222 -0.083333333333333343
1799 222 -0.083333333333333329
223 223 2.666666666666667
224 223 -0.33333333333333337
254 223 -0.33333333333333337
1609 223 -0.083333333333333343
1610 223 -0.083333333333333343
1611 223 0.16666666666666669
1613 223 -0.083333333333333343
1614 223 -0.16666666666666669
1704 223 -0.083333333333333287
1706 223 -0.16666666666666669
1707 223 -0.083333333333333343
1708 223 -0.083333333333333315
1709 223 0.16666666666666669
1711 223 -0.083333333333333343
1802 223 -0.083333333333333329
224 224 2.666666666666667
225 224 -0.33333333333333337
255 224 -0.33333333333333337
1612 224 -0.083333333333333343
1613 224 -0.083333333333333343
1614 224 0.16666666666666669
1616 224 -0.083333333333333343
1617 224 -0.16666666666666669
1707 224 -0.083333333333333287
1709 224 -0.16666666666666669
1710 224 -0.083333333333333343
1711 224 -0.083333333333333315
1712 224 0.16666666666666669
1714 224 -0.083333333333333343
1805 224 -0.083333333333333329
225 225 2.666666666666667
226 225 -0.33333333333333337
256 225 -0.33333333333333337
1615 225 -0.083333333333333343
1616 225 -0.083333333333333343
1617 225 0.16666666666666669
1619 225 -0.083333333333333343
1620 225 -0.16666666666666669
1710 225 -0.083333333333333287
1712 225 -0.16666666666666669
1713 225 -0.083333333333333343
1714 225 -0.083333333333333315
1715 225 0.16666666666666669
1717 225 -0.083333333333333343
1808 225 -0.083333333333333329
226 226 2.666666666666667
227 226 -0.33333333333333337
257 226 -0.33333333333333337
1618 226 -0.083333333333333343
1619 226 -0.083333333333333343
1620 226 0.16666666666666669
1622 226 -0.083333333333333343
1623 226 -0.16666666666666669
1713 226 -0.083333333333333287
1715 226 -0.16666666666666669
1716 226 -0.083333333333333343
1717 226 -0.083333333333333315
1718 226 0.16666666666666669
1720 226 -0.083333333333333343
1811 226 -0.083333333333333329
227 227 2.666666666666667
228 227 -0.33333333333333337
258 227 -0.33333333333333337
1621 227 -0.083333333333333343
1622 227 -0.083333333333333343
1623 227 0.16666666666666669
1625 227 -0.083333333333333343
1626 227 -0.16666666666666669
1716 227 -0.083333333333333287
1718 227 -0.16666666666666669
1719 227 -0.083333333333333343
1720 227 -0.083333333333333315
1721 227 0.16666666666666669
1723 227 -0.083333333333333343
1814 227 -0.083333333333333329
228 228 2.666666666666667
229 228 -0.33333333333333337
259 228 -0.33333333333333337
1624 228 -0.083333333333333343
1625 228 -0.083333333333333343
1626 228 0.16666666666666669
1628 228 -0.083333333333333343
1629 228 -0.16666666666666669
1719 228 -0.083333333333333287
1721 228 -0.16666666666666669
1722 228 -0.083333333333333343
1723 228 -0.083333333333333315
1724 228 0.16666666666666669
1726 228 -0.083333333333333343
1817 228 -0.083333333333333329
229 229 2.666666666666667
230 229 -0.33333333333333337
260 229 -0.33333333333333337
1627 229 -0.083333333333333343
1628 229 -0.083333333333333343
1629 229 0.16666666666666669
1631 229 -0.083333333333333343
1632 229 -0.16666666666666669
1722 229 -0.083333333333333287
1724 229 -0.16666666666666669
1725 229 -0.083333333333333343
1726 229 -0.083333333333333315
1727 229 0.16666666666666669
1729 229 -0.083333333333333343
1820 229 -0.083333333333333329
230 230 2.666666666666667
231 230 -0.33333333333333337
261 230 -0.33333333333333337
1630 230 -0.083333333333333343
1631 230 -0.083333333333333343
1632 230 0.16666666666666669
1634 230 -0.083333333333333343
1635 230 -0.16666666666666669
1725 230 -0.083333333333333287
1727 230 -0.16666666666666669
1728 230 -0.083333333333333343
1729 230 -0.083333333333333315
1730 230 0.16666666666666669
1732 230 -0.083333333333333343
1823 230 -0.083333333333333329
231 231 2.666666666666667
232 231 -0.33333333333333337
262 231 -0.33333333333333337
1633 231 -0.083333333333333343
1634 231 -0.083333333333333343
1635 231 0.16666666666666669
1637 231 -0.083333333333333343
1638 231 -0.16666666666666669
1728 231 -0.083333333333333287
1730 231 -0.16666666666666669
1731 231 -0.083333333333333343
1732 231 -0.083333333333333315
1733 231 0.16666666666666669
1735 231 -0.083333333333333343
1826 231 -0.083333333333333329
232 232 2.666666666666667
233 232 -0.33333333333333337
263 232 -0.33333333333333337
1636 232 -0.083333333333333343
1637 232 -0.083333333333333343
1638 232 0.16666666666666669
1640 232 -0.083333333333333343
1641 232 -0.16666666666666669
1731 232 -0.083333333333333287
1733 232 -0.16666666666666669
1734 232 -0.083333333333333343
1735 232 -0.083333333333333315
1736 232 0.16666666666666669
1738 232 -0.083333333333333343
1829 232 -0.083333333333333329
233 233 2.666666666666667
234 233 -0.33333333333333337
264 233 -0.33333333333333337
1639 233 -0.083333333333333343
1640 233 -0.083333333333333343
1641 233 0.16666666666666669
1643 233 -0.083333333333333343
1644 233 -0.16666666666666669
1734 233 -0.083333333333333287
1736 233 -0.16666666666666669
1737 233 -0.083333333333333343
1738 233 -0.083333333333333315
1739 233 0.16666666666666669
1741 233 -0.083333333333333343
1832 233 -0.083333333333333329
234 234 2.666666666666667
235 234 -0.33333333333333337
265 234 -0.33333333333333337
1642 234 -0.083333333333333343
1643 234 -0.083333333333333343
1644 234 0.16666666666666669
1646 234 -0.083333333333333343
1647 234 -0.16666666666666669
1737 234 -0.083333333333333287
1739 234 -0.16666666666666669
1740 234 -0.083333333333333343
1741 234 -0.083333333333333315
1742 234 0.16666666666666669
1744 234 -0.083333333333333343
1835 234 -0.083333333333333329
235 235 2.666666666666667
236 235 -0.33333333333333337
266 235 -0.33333333333333337
1645 235 -0.083333333333333343
1646 235 -0.083333333333333343
1647 235 0.16666666666666669
1649 235 -0.083333333333333343
1650 235 -0.16666666666666669
1740 235 -0.083333333333333287
1742 235 -0.16666666666666669
1743 235 -0.083333333333333343
1744 235 -0.083333333333333315
1745 235 0.16666666666666669
1747 235 -0.083333333333333343
1838 235 -0.083333333333333329
236 236 2.666666666666667
237 236 -0.33333333333333337
267 236 -0.33333333333333337
1648 236 -0.083333333333333343
1649 236 -0.083333333333333343
1650 236 0.16666666666666669
1652 236 -0.083333333333333343
1653 236 -0.16666666666666669
1743 236 -0.083333333333333287
1745 236 -0.16666666666666669
1746 236 -0.083333333333333343
1747 236 -0.083333333333333315
1748 236 0.16666666666666669
1750 236 -0.083333333333333343
1841 236 -0.083333333333333329
237 237 2.666666666666667
238 237 -0.33333333333333337
268 237 -0.33333333333333337
1651 237 -0.083333333333333343
1652 237 -0.083333333333333343
1653 237 0.16666666666666669
1655 237 -0.083333333333333343
1656 237 -0.16666666666666669
1746 237 -0.083333333333333287
1748 237 -0.16666666666666669
1749 237 -0.083333333333333343
1750 237 -0.083333333333333315
1751 237 0.16666666666666669
1753 237 -0.083333333333333343
1844 237 -0.083333333333333329
238 238 2.666666666666667
239 238 -0.33333333333333337
269 238 -0.33333333333333337
1654 238 -0.083333333333333343
1655 238 -0.083333333333333343
1656 238 0.16666666666666669
1658 238 -0.083333333333333343
1659 238 -0.16666666666666669
1749 238 -0.083333333333333287
1751 238 -0.16666666666666669
1752 238 -0.083333333333333343
1753 238 -0.083333333333333315
1754 238 0.16666666666666669
1756 238 -0.083333333333333343
1847 238 -0.083333333333333329
239 239 2.666666666666667
240 239 -0.33333333333333337
270 239 -0.33333333333333337
1657 239 -0.083333333333333343
1658 239 -0.083333333333333343
1659 239 0.16666666666666669
1661 239 -0.083333333333333343
1662 239 -0.16666666666666669
1752 239 -0.083333333333333287
1754 239 -0.16666666666666669
1755 239 -0.083333333333333343
1756 239 -0.083333333333333315
1757 239 0.16666666666666669
1759 239 -0.083333333333333343
1850 239 -0.083333333333333329
240 240 2.666666666666667
241 240 -0.33333333333333337
271 240 -0.33333333333333337
1660 240 -0.083333333333333343
1661 240 -0.083333333333333343
1662 240 0.16666666666666669
1664 240 -0.083333333333333343
1665 240 -0.16666666666666669
1755 240 -0.083333333333333287
1757 240 -0.16666666666666669
1758 240 -0.083333333333333343
1759 240 -0.083333333333333315
1760 240 0.16666666666666669
1762 240 -0.083333333333333343
1853 240 -0.083333333333333329
241 241 2.666666666666667
242 241 -0.33333333333333337
272 241 -0.33333333333333337
1663 241 -0.083333333333333343
1664 241 -0.083333333333333343
1665 241 0.16666666666666669
1667 241 -0.083333333333333343
1668 241 -0.16666666666666669
1758 241 -0.083333333333333287
1760 241 -0.16666666666666669
1761 241 -0.083333333333333343
1762 241 -0.083333333333333315
1763 241 0.16666666666666669
1765 241 -0.083333333333333343
1856 241 -0.083333333333333329
242 242 2.666666666666667
243 242 -0.33333333333333337
273 242 -0.33333333333333337
1666 242 -0.083333333333333343
1667 242 -0.083333333333333343
1668 242 0.16666666666666669
1670 242 -0.083333333333333343
1671 242 -0.16666666666666669
1761 242 -0.083333333333333287
1763 242 -0.16666666666666669
1764 242 -0.083333333333333343
1765 242 -0.083333333333333315
1766 242 0.16666666666666669
1768 242 -0.083333333333333343
1859 242 -0.083333333333333329
243 243 2.666666666666667
244 243 -0.33333333333333337
274 243 -0.33333333333333337
1669 243 -0.083333333333333343
1670 243 -0.083333333333333343
1671 243 0.16666666666666669
1673 243 -0.083333333333333343
1674 243 -0.16666666666666669
1764 243 -0.083333333333333287
1766 243 -0.16666666666666669
1767 243 -0.083333333333333343
1768 243 -0.083333333333333315
1769 243 0.16666666666666669
1771 243 -0.083333333333333343
1862 243 -0.083333333333333329
244 244 2.666666666666667
245 244 -0.33333333333333337
275 244 -0.33333333333333337
1672 244 -0.083333333333333343
1673 244 -0.083333333333333343
1674 244 0.16666666666666669
1676 244 -0.083333333333333343
1677 244 -0.16666666666666669
1767 244 -0.083333333333333287
1769 244 -0.16666666666666669
1770 244 -0.083333333333333343
1771 244 -0.083333333333333315
1772 244 0.16666666666666669
1774 244 -0.083333333333333343
1865 244 -0.083333333333333329
245 245 2.666666666666667
246 245 -0.33333333333333337
276 245 -0.33333333333333337
1675 245 -0.083333333333333343
1676 245 -0.083333333333333343
1677 245 0.16666666666666669
1679 245 -0.083333333333333343
1680 245 -0.16666666666666669
1770 245 -0.083333333333333287
1772 245 -0.16666666666666669
1773 245 -0.083333333333333343
1774 245 -0.083333333333333315
1775 245 0.16666666666666669
1777 245 -0.083333333333333343
1868 245 -0.083333333333333329
246 246 2.666666666666667
247 246 -0.33333333333333337
277 246 -0.33333333333333337
1678 246 -0.083333333333333343
1679 246 -0.083333333333333343
1680 246 0.16666666666666669
1682 246 -0.083333333333333343
1683 246 -0.16666666666666669
1773 246 -0.083333333333333287
1775 246 -0.16666666666666669
1776 246 -0.083333333333333343
1777 246 -0.083333333333333315
1778 246 0.16666666666666669
1780 246 -0.083333333333333343
1871 246 -0.083333333333333329
247 247 2.666666666666667
248 247 -0.33333333333333337
278 247 -0.33333333333333337
1681 247 -0.083333333333333343
1682 247 -0.083333333333333343
1683 247 0.16666666666666669
1685 247 -0.083333333333333343
1686 247 -0.16666666666666669
1776 247 -0.083333333333333287
1778 247 -0.16666666666666669
1779 247 -0.083333333333333343
1780 247 -0.083333333333333315
1781 247 0.16666666666666669
1783 247 -0.083333333333333343
1874 247 -0.083333333333333329
248 248 2.666666666666667
279 248 -0.33333333333333337
1684 248 -0.083333333333333343
1685 248 -0.083333333333333343
1686 248 0.16666666666666669
1688 248 -0.083333333333333343
1689 248 -0.16666666666666669
1779 248 -0.083333333333333287
1781 248 -0.16666666666666669
1782 248 -0.083333333333333343
1783 248 -0.083333333333333315
1784 248 0.16666666666666669
1877 248 -0.083333333333333329
249 249 2.666666666666667
250 249 -0.33333333333333337
280 249 -0.33333333333333337
1690 249 -0.083333333333333343
1691 249 0.16666666666666669
1693 249 -0.083333333333333343
1694 249 -0.16666666666666669
1785 249 -0.083333333333333287
1786 249 -0.16666666666666669
1787 249 -0.083333333333333343
1788 249 -0.083333333333333315
1789 249 0.16666666666666669
1791 249 -0.083333333333333343
1882 249 -0.083333333333333329
250 250 2.666666666666667
251 250 -0.33333333333333337
281 250 -0.33333333333333337
1692 250 -0.083333333333333343
1693 250 -0.083333333333333343
1694 250 0.16666666666666669
1696 250 -0.083333333333333343
1697 250 -0.16666666666666669
1787 250 -0.083333333333333287
1789 250 -0.16666666666666669
1790 250 -0.083333333333333343
1791 250 -0.083333333333333315
1792 250 0.16666666666666669
1794 250 -0.083333333333333343
1885 250 -0.083333333333333329
251 251 2.666666666666667
252 251 -0.33333333333333337
282 251 -0.33333333333333337
1695 251 -0.083333333333333343
1696 251 -0.083333333333333343
1697 251 0.16666666666666669
1699 251 -0.083333333333333343
1700 251 -0.16666666666666669
1790 251 -0.083333333333333287
1792 251 -0.16666666666666669
1793 251 -0.083333333333333343
1794 251 -0.083333333333333315
1795 251 0.16666666666666669
1797 251 -0.083333333333333343
1888 251 -0.083333333333333329
252 252 2.666666666666667
253 252 -0.33333333333333337
283 252 -0.33333333333333337
1698 252 -0.083333333333333343
1699 252 -0.083333333333333343
1700 252 0.16666666666666669
1702 252 -0.083333333333333343
1703 252 -0.16666666666666669
1793 252 -0.083333333333333287
1795 252 -0.16666666666666669
1796 252 -0.083333333333333343
1797 252 -0.083333333333333315
1798 252 0.16666666666666669
1800 252 -0.083333333333333343
1891 252 -0.083333333333333329
253 253 2.666666666666667
254 253 -0.33333333333333337
284 253 -0.33333333333333337
1701 253 -0.083333333333333343
1702 253 -0.083333333333333343
1703 253 0.16666666666666669
1705 253 -0.083333333333333343
1706 253 -0.16666666666666669
1796 253 -0.083333333333333287
1798 253 -0.16666666666666669
1799 253 -0.083333333333333343
1800 253 -0.083333333333333315
1801 253 0.16666666666666669
1803 253 -0.083333333333333343
1894 253 -0.083333333333333329
254 254 2.666666666666667
255 254 -0.33333333333333337
285 254 -0.33333333333333337
1704 254 -0.083333333333333343
1705 254 -0.083333333333333343
1706 254 0.16666666666666669
1708 254 -0.083333333333333343
1709 254 -0.16666666666666669
1799 254 -0.083333333333333287
1801 254 -0.16666666666666669
1802 254 -0.083333333333333343
1803 254 -0.083333333333333315
1804 254 0.16666666666666669
1806 254 -0.083333333333333343
1897 254 -0.083333333333333329
255 255 2.666666666666667
256 255 -0.33333333333333337
286 255 -0.33333333333333337
1707 255 -0.083333333333333343
1708 255 -0.083333333333333343
1709 255 0.16666666666666669
1711 255 -0.083333333333333343
1712 255 -0.16666666666666669
1802 255 -0.083333333333333287
1804 255 -0.16666666666666669
1805 255 -0.083333333333333343
1806 255 -0.083333333333333315
1807 255 0.16666666666666669
1809 255 -0.083333333333333343
1900 255 -0.083333333333333329
256 256 2.666666666666667
257 256 -0.33333333333333337
287 256 -0.33333333333333337
1710 256 -0.083333333333333343
1711 256 -0.083333333333333343
1712 256 0.16666666666666669
1714 256 -0.083333333333333343
1715 256 -0.16666666666666669
1805 256 -0.083333333333333287
1807 256 -0.16666666666666669
1808 256 -0.083333333333333343
1809 256 -0.083333333333333315
1810 256 0.16666666666666669
1812 256 -0.083333333333333343
1903 256 -0.083333333333333329
257 257 2.666666666666667
258 257 -0.33333333333333337
288 257 -0.33333333333333337
1713 257 -0.083333333333333343
1714 257 -0.083333333333333343
1715 257 0.16666666666666669
1717 257 -0.083333333333333343
1718 257 -0.16666666666666669
1808 257 -0.083333333333333287
1810 257 -0.16666666666666669
1811 257 -0.083333333333333343
1812 257 -0.083333333333333315
1813 257 0.16666666666666669
1815 257 -0.083333333333333343
1906 257 -0.083333333333333329
258 258 2.666666666666667
259 258 -0.33333333333333337
289 258 -0.33333333333333337
1716 258 -0.083333333333333343
1717 258 -0.083333333333333343
1718 258 0.16666666666666669
1720 258 -0.083333333333333343
1721 258 -0.16666666666666669
1811 258 -0.083333333333333287
1813 258 -0.16666666666666669
1814 258 -0.083333333333333343
1815 258 -0.083333333333333315
1816 258 0.16666666666666669
1818 258 -0.083333333333333343
1909 258 -0.083333333333333329
259 259 2.666666666666667
260 259 -0.33333333333333337
290 259 -0.33333333333333337
1719 259 -0.083333333333333343
1720 259 -0.083333333333333343
1721 259 0.16666666666666669
1723 259 -0.083333333333333343
1724 259 -0.16666666666666669
1814 259 -0.083333333333333287
1816 259 -0.16666666666666669
1817 259 -0.083333333333333343
1818 259 -0.083333333333333315
1819 259 0.16666666666666669
1821 259 -0.083333333333333343
1912 259 -0.083333333333333329
260 260 2.666666666666667
261 260 -0.33333333333333337
291 260 -0.33333333333333337
1722 260 -0.083333333333333343
1723 260 -0.083333333333333343
1724 260 0.16666666666666669
1726 260 -0.083333333333333343
1727 260 -0.16666666666666669
1817 260 -0.083333333333333287
1819 260 -0.16666666666666669
1820 260 -0.083333333333333343
1821 260 -0.083333333333333315
1822 260 0.16666666666666669
1824 260 -0.083333333333333343
1915 260 -0.083333333333333329
261 261 2.666666666666667
262 261 -0.33333333333333337
292 261 -0.33333333333333337
1725 261 -0.083333333333333343
1726 261 -0.083333333333333343
1727 261 0.16666666666666669
1729 261 -0.083333333333333343
1730 261 -0.16666666666666669
1820 261 -0.083333333333333287
1822 261 -0.16666666666666669
1823 261 -0.083333333333333343
1824 261 -0.083333333333333315
1825 261 0.16666666666666669
1827 261 -0.083333333333333343
1918 261 -0.083333333333333329
262 262 2.666666666666667
263 262 -0.33333333333333337
293 262 -0.33333333333333337
1728 262 -0.083333333333333343
1729 262 -0.083333333333333343
1730 262 0.16666666666666669
1732 262 -0.083333333333333343
1733 262 -0.16666666666666669
1823 262 -0.083333333333333287
1825 262 -0.16666666666666669
1826 262 -0.083333333333333343
1827 262 -0.083333333333333315
1828 262 0.16666666666666669
1830 262 -0.083333333333333343
1921 262 -0.083333333333333329
263 263 2.666666666666667
264 263 -0.33333333333333337
294 263 -0.33333333333333337
1731 263 -0.083333333333333343
1732 263 -0.083333333333333343
1733 263 0.16666666666666669
1735 263 -0.083333333333333343
1736 263 -0.16666666666666669
1826 263 -0.083333333333333287
1828 263 -0.16666666666666669
1829 263 -0.083333333333333343
1830 263 -0.083333333333333315
1831 263 0.16666666666666669
1833 263 -0.083333333333333343
1924 263 -0.083333333333333329
264 264 2.666666666666667
265 264 -0.33333333333333337
295 264 -0.33333333333333337
1734 264 -0.083333333333333343
1735 264 -0.083333333333333343
1736 264 0.16666666666666669
1738 264 -0.083333333333333343
1739 264 -0.16666666666666669
1829 264 -0.083333333333333287
1831 264 -0.16666666666666669
1832 264 -0.083333333333333343
1833 264 -0.083333333333333315
1834 264 0.16666666666666669
1836 264 -0.083333333333333343
1927 264 -0.083333333333333329
265 265 2.666666666666667
266 265 -0.33333333333333337
296 265 -0.33333333333333337
1737 265 -0.083333333333333343
1738 265 -0.083333333333333343
1739 265 0.16666666666666669
1741 265 -0.083333333333333343
1742 265 -0.16666666666666669
1832 265 -0.083333333333333287
1834 265 -0.16666666666666669
1835 265 -0.083333333333333343
1836 265 -0.083333333333333315
1837 265 0.16666666666666669
1839 265 -0.083333333333333343
1930 265 -0.083333333333333329
266 266 2.666666666666667
267 266 -0.33333333333333337
297 266 -0.33333333333333337
1740 266 -0.083333333333333343
1741 266 -0.083333333333333343
1742 266 0.16666666666666669
1744 266 -0.083333333333333343
1745 266 -0.16666666666666669
1835 266 -0.083333333333333287
1837 266 -0.16666666666666669
1838 266 -0.083333333333333343
1839 266 -0.083333333333333315
1840 266 0.16666666666666669
1842 266 -0.083333333333333343
1933 266 -0.083333333333333329
267 267 2.666666666666667
268 267 -0.33333333333333337
298 267 -0.33333333333333337
1743 267 -0.083333333333333343
1744 267 -0.083333333333333343
1745 267 0.16666666666666669
1747 267 -0.083333333333333343
1748 267 -0.16666666666666669
1838 267 -0.083333333333333287
1840 267 -0.16666666666666669
1841 267 -0.083333333333333343
1842 267 -0.083333333333333315
1843 267 0.16666666666666669
1845 267 -0.083333333333333343
1936 267 -0.083333333333333329
268 268 2.666666666666667
269 268 -0.33333333333333337
299 268 -0.33333333333333337
1746 268 -0.083333333333333343
1747 268 -0.083333333333333343
1748 268 0.16666666666666669
1750 268 -0.083333333333333343
1751 268 -0.16666666666666669
1841 268 -0.083333333333333287
1843 268 -0.16666666666666669
1844 268 -0.083333333333333343
1845 268 -0.083333333333333315
1846 268 0.16666666666666669
1848 268 -0.083333333333333343
1939 268 -0.083333333333333329
269 269 2.666666666666667
270 269 -0.33333333333333337
300 269 -0.33333333333333337
1749 269 -0.083333333333333343
1750 269 -0.083333333333333343
1751 269 0.16666666666666669
1753 269 -0.083333333333333343
1754 269 -0.16666666666666669
1844 269 -0.083333333333333287
1846 269 -0.16666666666666669
1847 269 -0.083333333333333343
1848 269 -0.083333333333333315
1849 269 0.16666666666666669
1851 269 -0.083333333333333343
1942 269 -0.083333333333333329
270 270 2.666666666666667
271 270 -0.33333333333333337
301 270 -0.33333333333333337
1752 270 -0.083333333333333343
1753 270 -0.083333333333333343
1754 270 0.16666666666666669
1756 270 -0.083333333333333343
1757 270 -0.16666666666666669
1847 270 -0.083333333333333287
1849 270 -0.16666666666666669
1850 270 -0.083333333333333343
1851 270 -0.083333333333333315
1852 270 0.16666666666666669
1854 270 -0.083333333333333343
1945 270 -0.083333333333333329
271 271 2.666666666666667
272 271 -0.33333333333333337
302 271 -0.33333333333333337
1755 271 -0.083333333333333343
1756 271 -0.083333333333333343
1757 271 0.16666666666666669
1759 271 -0.083333333333333343
1760 271 -0.16666666666666669
1850 271 -0.083333333333333287
1852 271 -0.16666666666666669
1853 271 -0.083333333333333343
1854 271 -0.083333333333333315
1855 271 0.16666666666666669
1857 271 -0.083333333333333343
1948 271 -0.083333333333333329
272 272 2.666666666666667
273 272 -0.33333333333333337
303 272 -0.33333333333333337
1758 272 -0.083333333333333343
1759 272 -0.083333333333333343
1760 272 0.16666666666666669
1762 272 -0.083333333333333343
1763 272 -0.16666666666666669
1853 272 -0.083333333333333287
1855 272 -0.16666666666666669
1856 272 -0.083333333333333343
1857 272 -0.083333333333333315
1858 272 0.16666666666666669
1860 272 -0.083333333333333343
1951 272 -0.083333333333333329
273 273 2.666666666666667
274 273 -0.33333333333333337
304 273 -0.33333333333333337
1761 273 -0.083333333333333343
1762 273 -0.083333333333333343
1763 273 0.16666666666666669
1765 273 -0.083333333333333343
1766 273 -0.16666666666666669
1856 273 -0.083333333333333287
1858 273 -0.16666666666666669
1859 273 -0.083333333333333343
1860 273 -0.083333333333333315
1861 273 0.16666666666666669
1863 273 -0.083333333333333343
1954 273 -0.083333333333333329
274 274 2.666666666666667
275 274 -0.33333333333333337
305 274 -0.33333333333333337
1764 274 -0.083333333333333343
1765 274 -0.083333333333333343
1766 274 0.16666666666666669
1768 274 -0.083333333333333343
1769 274 -0.16666666666666669
1859 274 -0.083333333333333287
1861 274 -0.16666666666666669
1862 274 -0.083333333333333343
1863 274 -0.083333333333333315
1864 274 0.16666666666666669
1866 274 -0.083333333333333343
1957 274 -0.083333333333333329
275 275 2.666666666666667
276 275 -0.33333333333333337
306 275 -0.33333333333333337
1767 275 -0.083333333333333343
1768 275 -0.083333333333333343
1769 275 0.16666666666666669
1771 275 -0.083333333333333343
1772 275 -0.16666666666666669
1862 275 -0.083333333333333287
1864 275 -0.16666666666666669
1865 275 -0.083333333333333343
1866 275 -0.083333333333333315
1867 275 0.16666666666666669
1869 275 -0.083333333333333343
1960 275 -0.083333333333333329
276 276 2.666666666666667
277 276 -0.33333333333333337
307 276 -0.33333333333333337
1770 276 -0.083333333333333343
1771 276 -0.083333333333333343
1772 276 0.16666666666666669
1774 276 -0.083333333333333343
1775 276 -0.16666666666666669
1865 276 -0.083333333333333287
1867 276 -0.16666666666666669
1868 276 -0.083333333333333343
1869 276 -0.083333333333333315
1870 276 0.16666666666666669
1872 276 -0.083333333333333343
1963 276 -0.083333333333333329
277 277 2.666666666666667
278 277 -0.33333333333333337
308 277 -0.33333333333333337
1773 277 -0.083333333333333343
1774 277 -0.083333333333333343
1775 277 0.16666666666666669
1777 277 -0.083333333333333343
1778 277 -0.16666666666666669
1868 277 -0.083333333333333287
1870 277 -0.16666666666666669
1871 277 -0.083333333333333343
1872 277 -0.083333333333333315
1873 277 0.16666666666666669
1875 277 -0.083333333333333343
1966 277 -0.083333333333333329
278 278 2.666666666666667
279 278 -0.33333333333333337
309 278 -0.33333333333333337
1776 278 -0.083333333333333343
1777 278 -0.083333333333333343
1778 278 0.16666666666666669
1780 278 -0.083333333333333343
1781 278 -0.16666666666666669
1871 278 -0.083333333333333287
1873 278 -0.16666666666666669
1874 278 -0.083333333333333343
1875 278 -0.083333333333333315
1876 278 0.16666666666666669
1878 278 -0.083333333333333343
1969 278 -0.083333333333333329
279 279 2.666666666666667
310 279 -0.33333333333333337
1779 279 -0.083333333333333343
1780 279 -0.083333333333333343
1781 279 0.16666666666666669
1783 279 -0.083333333333333343
1784 279 -0.16666666666666669
1874 279 -0.083333333333333287
1876 279 -0.16666666666666669
1877 279 -0.083333333333333343
1878 279 -0.083333333333333315
1879 279 0.16666666666666669
1972 279 -0.083333333333333329
280 280 2.666666666666667
281 280 -0.33333333333333337
311 280 -0.33333333333333337
1785 280 -0.083333333333333343
1786 280 0.16666666666666669
1788 280 -0.083333333333333343
1789 280 -0.16666666666666669
1880 280 -0.083333333333333287
1881 280 -0.16666666666666669
1882 280 -0.083333333333333343
1883 280 -0.083333333333333315
1884 280 0.16666666666666669
1886 280 -0.083333333333333343
1977 280 -0.083333333333333329
281 281 2.666666666666667
282 281 -0.33333333333333337
312 281 -0.33333333333333337
1787 281 -0.083333333333333343
1788 281 -0.083333333333333343
1789 281 0.16666666666666669
1791 281 -0.083333333333333343
1792 281 -0.16666666666666669
1882 281 -0.083333333333333287
1884 281 -0.16666666666666669
1885 281 -0.083333333333333343
1886 281 -0.083333333333333315
1887 281 0.16666666666666669
1889 281 -0.083333333333333343
1980 281 -0.083333333333333329
282 282 2.666666666666667
283 282 -0.33333333333333337
313 282 -0.33333333333333337
1790 282 -0.083333333333333343
1791 282 -0.083333333333333343
1792 282 0.16666666666666669
1794 282 -0.083333333333333343
1795 282 -0.16666666666666669
1885 282 -0.083333333333333287
1887 282 -0.16666666666666669
1888 282 -0.083333333333333343
1889 282 -0.083333333333333315
1890 282 0.16666666666666669
1892 282 -0.083333333333333343
1983 282 -0.083333333333333329
283 283 2.666666666666667
284 283 -0.33333333333333337
314 283 -0.33333333333333337
1793 283 -0.083333333333333343
1794 283 -0.083333333333333343
1795 283 0.16666666666666669
1797 283 -0.083333333333333343
1798 283 -0.16666666666666669
1888 283 -0.083333333333333287
1890 283 -0.16666666666666669
1891 283 -0.083333333333333343
1892 283 -0.083333333333333315
1893 283 0.16666666666666669
1895 283 -0.083333333333333343
1986 283 -0.083333333333333329
284 284 2.666666666666667
285 284 -0.33333333333333337
315 284 -0.33333333333333337
1796 284 -0.083333333333333343
1797 284 -0.083333333333333343
1798 284 0.16666666666666669
1800 284 -0.083333333333333343
1801 284 -0.16666666666666669
1891 284 -0.083333333333333287
1893 284 -0.16666666666666669
1894 284 -0.083333333333333343
1895 284 -0.083333333333333315
1896 284 0.16666666666666669
1898 284 -0.083333333333333343
1989 284 -0.083333333333333329
285 285 2.666666666666667
286 285 -0.33333333333333337
316 285 -0.33333333333333337
1799 285 -0.083333333333333343
1800 285 -0.083333333333333343
1801 285 0.16666666666666669
1803 285 -0.083333333333333343
1804 285 -0.16666666666666669
1894 285 -0.083333333333333287
1896 285 -0.16666666666666669
1897 285 -0.083333333333333343
1898 285 -0.083333333333333315
1899 285 0.16666666666666669
1901 285 -0.083333333333333343
1992 285 -0.083333333333333329
286 286 2.666666666666667
287 286 -0.33333333333333337
317 286 -0.33333333333333337
1802 286 -0.083333333333333343
1803 286 -0.083333333333333343
1804 286 0.16666666666666669
1806 286 -0.083333333333333343
1807 286 -0.16666666666666669
1897 286 -0.083333333333333287
1899 286 -0.16666666666666669
1900 286 -0.083333333333333343
1901 286 -0.083333333333333315
1902 286 0.16666666666666669
1904 286 -0.083333333333333343
1995 286 -0.083333333333333329
287 287 2.666666666666667
288 287 -0.33333333333333337
318 287 -0.33333333333333337
1805 287 -0.083333333333333343
1806 287 -0.083333333333333343
1807 287 0.16666666666666669
1809 287 -0.083333333333333343
1810 287 -0.16666666666666669
1900 287 -0.083333333333333287
1902 287 -0.16666666666666669
1903 287 -0.083333333333333343
1904 287 -0.083333333333333315
1905 287 0.16666666666666669
1907 287 -0.083333333333333343
1998 287 -0.083333333333333329
288 288 2.666666666666667
289 288 -0.33333333333333337
319 288 -0.33333333333333337
1808 288 -0.083333333333333343
1809 288 -0.083333333333333343
1810 288 0.16666666666666669
1812 288 -0.083333333333333343
1813 288 -0.16666666666666669
1903 288 -0.083333333333333287
1905 288 -0.16666666666666669
1906 288 -0.083333333333333343
1907 288 -0.083333333333333315
1908 288 0.16666666666666669
1910 288 -0.083333333333333343
2001 288 -0.083333333333333329
289 289 2.666666666666667
290 289 -0.33333333333333337
320 289 -0.33333333333333337
1811 289 -0.083333333333333343
1812 289 -0.083333333333333343
1813 289 0.16666666666666669
1815 289 -0.083333333333333343
1816 289 -0.16666666666666669
1906 289 -0.083333333333333287
1908 289 -0.16666666666666669
1909 289 -0.083333333333333343
1910 289 -0.083333333333333315
1911 289 0.16666666666666669
1913 289 -0.083333333333333343
2004 289 -0.083333333333333329
290 290 2.666666666666667
291 290 -0.33333333333333337
321 290 -0.33333333333333337
1814 290 -0.083333333333333343
1815 290 -0.083333333333333343
1816 290 0.16666666666666669
1818 290 -0.083333333333333343
1819 290 -0.16666666666666669
1909 290 -0.083333333333333287
1911 290 -0.16666666666666669
1912 290 -0.083333333333333343
1913 290 -0.083333333333333315
1914 290 0.16666666666666669
1916 290 -0.083333333333333343
2007 290 -0.083333333333333329
291 291 2.666666666666667
292 291 -0.33333333333333337
322 291 -0.33333333333333337
1817 291 -0.083333333333333343
1818 291 -0.083333333333333343
1819 291 0.16666666666666669
1821 291 -0.083333333333333343
1822 291 -0.16666666666666669
1912 291 -0.083333333333333287
1914 291 -0.16666666666666669
1915 291 -0.083333333333333343
1916 291 -0.083333333333333315
1917 291 0.16666666666666669
1919 291 -0.083333333333333343
2010 291 -0.083333333333333329
292 292 2.666666666666667
293 292 -0.33333333333333337
323 292 -0.33333333333333337
1820 292 -0.083333333333333343
1821 292 -0.083333333333333343
1822 292 0.16666666666666669
1824 292 -0.083333333333333343
1825 292 -0.16666666666666669
1915 292 -0.083333333333333287
1917 292 -0.16666666666666669
1918 292 -0.083333333333333343
1919 292 -0.083333333333333315
1920 292 0.16666666666666669
1922 292 -0.083333333333333343
2013 292 -0.083333333333333329
293 293 2.666666666666667
294 293 -0.33333333333333337
324 293 -0.33333333333333337
1823 293 -0.083333333333333343
1824 293 -0.083333333333333343
1825 293 0.16666666666666669
1827 293 -0.083333333333333343
1828 293 -0.16666666666666669
1918 293 -0.083333333333333287
1920 293 -0.16666666666666669
1921 293 -0.083333333333333343
1922 293 -0.083333333333333315
1923 293 0.16666666666666669
1925 293 -0.083333333333333343
2016 293 -0.083333333333333329
294 294 2.666666666666667
295 294 -0.33333333333333337
325 294 -0.33333333333333337
1826 294 -0.083333333333333343
1827 294 -0.083333333333333343
1828 294 0.16666666666666669
1830 294 -0.083333333333333343
1831 294 -0.16666666666666669
1921 294 -0.083333333333333287
1923 294 -0.16666666666666669
1924 294 -0.083333333333333343
1925 294 -0.083333333333333315
1926 294 0.16666666666666669
1928 294 -0.083333333333333343
2019 294 -0.083333333333333329
295 295 2.666666666666667
296 295 -0.33333333333333337
326 295 -0.33333333333333337
1829 295 -0.083333333333333343
1830 295 -0.083333333333333343
1831 295 0.16666666666666669
1833 295 -0.083333333333333343
1834 295 -0.16666666666666669
1924 295 -0.083333333333333287
1926 295 -0.16666666666666669
1927 295 -0.083333333333333343
1928 295 -0.083333333333333315
1929 295 0.16666666666666669
1931 295 -0.083333333333333343
2022 295 -0.083333333333333329
296 296 2.666666666666667
297 296 -0.33333333333333337
327 296 -0.33333333333333337
1832 296 -0.083333333333333343
1833 296 -0.083333333333333343
1834 296 0.16666666666666669
1836 296 -0.083333333333333343
1837 296 -0.16666666666666669
1927 296 -0.083333333333333287
1929 296 -0.16666666666666669
1930 296 -0.083333333333333343
1931 296 -0.083333333333333315
1932 296 0.16666666666666669
1934 296 -0.083333333333333343
2025 296 -0.083333333333333329
297 297 2.666666666666667
298 297 -0.33333333333333337
328 297 -0.33333333333333337
1835 297 -0.083333333333333343
1836 297 -0.083333333333333343
1837 297 0.16666666666666669
1839 297 -0.083333333333333343
1840 297 -0.16666666666666669
1930 297 -0.083333333333333287
1932 297 -0.16666666666666669
1933 297 -0.083333333333333343
1934 297 -0.083333333333333315
1935 297 0.16666666666666669
1937 297 -0.083333333333333343
2028 297 -0.083333333333333329
298 298 2.666666666666667
299 298 -0.33333333333333337
329 298 -0.33333333333333337
1838 298 -0.083333333333333343
1839 298 -0.083333333333333343
1840 298 0.16666666666666669
1842 298 -0.083333333333333343
1843 298 -0.16666666666666669
1933 298 -0.083333333333333287
1935 298 -0.16666666666666669
1936 298 -0.083333333333333343
1937 298 -0.083333333333333315
1938 298 0.16666666666666669
1940 298 -0.083333333333333343
2031 298 -0.083333333333333329
299 299 2.666666666666667
300 299 -0.33333333333333337
330 299 -0.33333333333333337
1841 299 -0.083333333333333343
1842 299 -0.083333333333333343
1843 299 0.16666666666666669
1845 299 -0.083333333333333343
1846 299 -0.16666666666666669
1936 299 -0.083333333333333287
1938 299 -0.16666666666666669
1939 299 -0.083333333333333343
1940 299 -0.083333333333333315
1941 299 0.16666666666666669
1943 299 -0.083333333333333343
2034 299 -0.083333333333333329
300 300 2.666666666666667
301 300 -0.33333333333333337
331 300 -0.33333333333333337
1844 300 -0.083333333333333343
1845 300 -0.083333333333333343
1846 300 0.16666666666666669
1848 300 -0.083333333333333343
1849 300 -0.16666666666666669
1939 300 -0.083333333333333287
1941 300 -0.16666666666666669
1942 300 -0.083333333333333343
1943 300 -0.083333333333333315
1944 300 0.16666666666666669
1946 300 -0.083333333333333343
2037 300 -0.083333333333333329
301 301 2.666666666666667
302 301 -0.33333333333333337
332 301 -0.33333333333333337
1847 301 -0.083333333333333343
1848 301 -0.083333333333333343
1849 301 0.16666666666666669
1851 301 -0.083333333333333343
1852 301 -0.16666666666666669
1942 301 -0.083333333333333287
1944 301 -0.16666666666666669
1945 301 -0.083333333333333343
1946 301 -0.083333333333333315
1947 301 0.16666666666666669
1949 301 -0.083333333333333343
2040 301 -0.083333333333333329
302 302 2.666666666666667
303 302 -0.33333333333333337
333 302 -0.33333333333333337
1850 302 -0.083333333333333343
1851 302 -0.083333333333333343
1852 302 0.16666666666666669
1854 302 -0.083333333333333343
1855 302 -0.16666666666666669
1945 302 -0.083333333333333287
1947 302 -0.16666666666666669
1948 302 -0.083333333333333343
1949 302 -0.083333333333333315
1950 302 0.16666666666666669
1952 302 -0.083333333333333343
2043 302 -0.083333333333333329
303 303 2.666666666666667
304 303 -0.33333333333333337
334 303 -0.33333333333333337
1853 303 -0.083333333333333343
1854 303 -0.083333333333333343
1855 303 0.16666666666666669
1857 303 -0.083333333333333343
1858 303 -0.16666666666666669
1948 303 -0.083333333333333287
1950 303 -0.16666666666666669
1951 303 -0.083333333333333343
1952 303 -0.083333333333333315
1953 303 0.16666666666666669
1955 303 -0.083333333333333343
2046 303 -0.083333333333333329
304 304 2.666666666666667
305 304 -0.33333333333333337
335 304 -0.33333333333333337
1856 304 -0.083333333333333343
1857 304 -0.083333333333333343
1858 304 0.16666666666666669
1860 304 -0.083333333333333343
1861 304 -0.16666666666666669
1951 304 -0.083333333333333287
1953 304 -0.16666666666666669
1954 304 -0.083333333333333343
1955 304 -0.083333333333333315
1956 304 0.16666666666666669
1958 304 -0.083333333333333343
2049 304 -0.083333333333333329
305 305 2.666666666666667
306 305 -0.33333333333333337
336 305 -0.33333333333333337
1859 305 -0.083333333333333343
1860 305 -0.083333333333333343
1861 305 0.16666666666666669
1863 305 -0.083333333333333343
1864 305 -0.16666666666666669
1954 305 -0.083333333333333287
1956 305 -0.16666666666666669
1957 305 -0.083333333333333343
1958 305 -0.083333333333333315
1959 305 0.16666666666666669
1961 305 -0.083333333333333343
2052 305 -0.083333333333333329
306 306 2.666666666666667
307 306 -0.33333333333333337
337 306 -0.33333333333333337
1862 306 -0.083333333333333343
1863 306 -0.083333333333333343
1864 306 0.16666666666666669
1866 306 -0.083333333333333343
1867 306 -0.16666666666666669
1957 306 -0.083333333333333287
1959 306 -0.16666666666666669
1960 306 -0.083333333333333343
1961 306 -0.083333333333333315
1962 306 0.16666666666666669
1964 306 -0.083333333333333343
2055 306 -0.083333333333333329
307 307 2.666666666666667
308 307 -0.33333333333333337
338 307 -0.33333333333333337
1865 307 -0.083333333333333343
1866 307 -0.083333333333333343
1867 307 0.16666666666666669
1869 307 -0.083333333333333343
1870 307 -0.16666666666666669
1960 307 -0.083333333333333287
1962 307 -0.16666666666666669
1963 307 -0.083333333333333343
1964 307 -0.083333333333333315
1965 307 0.16666666666666669
1967 307 -0.083333333333333343
2058 307 -0.083333333333333329
308 308 2.666666666666667
309 308 -0.33333333333333337
339 308 -0.33333333333333337
1868 308 -0.083333333333333343
1869 308 -0.083333333333333343
1870 308 0.16666666666666669
1872 308 -0.083333333333333343
1873 308 -0.16666666666666669
1963 308 -0.083333333333333287
1965 308 -0.16666666666666669
1966 308 -0.083333333333333343
1967 308 -0.083333333333333315
1968 308 0.16666666666666669
1970 308 -0.083333333333333343
2061 308 -0.083333333333333329
309 309 2.666666666666667
310 309 -0.33333333333333337
340 309 -0.33333333333333337
1871 309 -0.083333333333333343
1872 309 -0.083333333333333343
1873 309 0.16666666666666669
1875 309 -0.083333333333333343
1876 309 -0.16666666666666669
1966 309 -0.083333333333333287
1968 309 -0.16666666666666669
1969 309 -0.083333333333333343
1970 309 -0.083333333333333315
1971 309 0.16666666666666669
1973 309 -0.083333333333333343
2064 309 -0.083333333333333329
310 310 2.666666666666667
341 310 -0.33333333333333337
1874 310 -0.083333333333333343
1875 310 -0.083333333333333343
1876 310 0.16666666666666669
1878 310 -0.083333333333333343
1879 310 -0.16666666666666669
1969 310 -0.083333333333333287
1971 310 -0.16666666666666669
1972 310 -0.083333333333333343
1973 310 -0.083333333333333315
1974 310 0.16666666666666669
2067 310 -0.083333333333333329
311 311 2.666666666666667
312 311 -0.33333333333333337
342 311 -0.33333333333333337
1880 311 -0.083333333333333343
1881 311 0.16666666666666669
1883 311 -0.083333333333333343
1884 311 -0.16666666666666669
1975 311 -0.083333333333333287
1976 311 -0.16666666666666669
1977 311 -0.083333333333333343
1978 311 -0.083333333333333315
1979 311 0.16666666666666669
1981 311 -0.083333333333333343
2072 311 -0.083333333333333329
312 312 2.666666666666667
313 312 -0.33333333333333337
343 312 -0.33333333333333337
1882 312 -0.083333333333333343
1883 312 -0.083333333333333343
1884 312 0.16666666666666669
1886 312 -0.083333333333333343
1887 312 -0.16666666666666669
1977 312 -0.083333333333333287
1979 312 -0.16666666666666669
1980 312 -0.083333333333333343
1981 312 -0.083333333333333315
1982 312 0.16666666666666669
1984 312 -0.083333333333333343
2075 312 -0.083333333333333329
313 313 2.666666666666667
314 313 -0.33333333333333337
344 313 -0.33333333333333337
1885 313 -0.083333333333333343
1886 313 -0.083333333333333343
1887 313 0.16666666666666669
1889 313 -0.083333333333333343
1890 313 -0.16666666666666669
1980 313 -0.083333333333333287
1982 313 -0.16666666666666669
1983 313 -0.083333333333333343
1984 313 -0.083333333333333315
1985 313 0.16666666666666669
1987 313 -0.083333333333333343
2078 313 -0.083333333333333329
314 314 2.666666666666667
315 314 -0.33333333333333337
345 314 -0.33333333333333337
1888 314 -0.083333333333333343
1889 314 -0.083333333333333343
1890 314 0.16666666666666669
1892 314 -0.083333333333333343
1893 314 -0.16666666666666669
1983 314 -0.083333333333333287
1985 314 -0.16666666666666669
1986 314 -0.083333333333333343
1987 314 -0.083333333333333315
1988 314 0.16666666666666669
1990 314 -0.083333333333333343
2081 314 -0.083333333333333329
315 315 2.666666666666667
316 315 -0.33333333333333337
346 315 -0.33333333333333337
1891 315 -0.083333333333333343
1892 315 -0.083333333333333343
1893 315 0.16666666666666669
1895 315 -0.083333333333333343
1896 315 -0.16666666666666669
1986 315 -0.083333333333333287
1988 315 -0.16666666666666669
1989 315 -0.083333333333333343
1990 315 -0.083333333333333315
1991 315 0.16666666666666669
1993 315 -0.083333333333333343
2084 315 -0.083333333333333329
316 316 2.666666666666667
317 316 -0.33333333333333337
347 316 -0.33333333333333337
1894 316 -0.083333333333333343
1895 316 -0.083333333333333343
1896 316 0.16666666666666669
1898 316 -0.083333333333333343
1899 316 -0.16666666666666669
1989 316 -0.083333333333333287
1991 316 -0.16666666666666669
1992 316 -0.083333333333333343
1993 316 -0.083333333333333315
1994 316 0.16666666666666669
1996 316 -0.083333333333333343
2087 316 -0.083333333333333329
317 317 2.666666666666667
318 317 -0.33333333333333337
348 317 -0.33333333333333337
1897 317 -0.083333333333333343
1898 317 -0.083333333333333343
1899 317 0.16666666666666669
1901 317 -0.083333333333333343
1902 317 -0.16666666666666669
1992 317 -0.083333333333333287
1994 317 -0.16666666666666669
1995 317 -0.083333333333333343
1996 317 -0.083333333333333315
1997 317 0.16666666666666669
1999 317 -0.083333333333333343
2090 317 -0.083333333333333329
318 318 2.666666666666667
319 318 -0.33333333333333337
349 318 -0.33333333333333337
1900 318 -0.083333333333333343
1901 318 -0.083333333333333343
1902 318 0.16666666666666669
1904 318 -0.083333333333333343
1905 318 -0.16666666666666669
1995 318 -0.083333333333333287
1997 318 -0.16666666666666669
1998 318 -0.083333333333333343
1999 318 -0.083333333333333315
2000 318 0.16666666666666669
2002 318 -0.083333333333333343
2093 318 -0.083333333333333329
319 319 2.666666666666667
320 319 -0.33333333333333337
350 319 -0.33333333333333337
1903 319 -0.083333333333333343
1904 319 -0.083333333333333343
1905 319 0.16666666666666669
1907 319 -0.083333333333333343
1908 319 -0.16666666666666669
1998 319 -0.083333333333333287
2000 319 -0.16666666666666669
2001 319 -0.083333333333333343
2002 319 -0.083333333333333315
2003 319 0.16666666666666669
2005 319 -0.083333333333333343
2096 319 -0.083333333333333329
320 320 2.666666666666667
321 320 -0.33333333333333337
351 320 -0.33333333333333337
1906 320 -0.083333333333333343
1907 320 -0.083333333333333343
1908 320 0.16666666666666669
1910 320 -0.083333333333333343
1911 320 -0.16666666666666669
2001 320 -0.083333333333333287
2003 320 -0.16666666666666669
2004 320 -0.083333333333333343
2005 320 -0.083333333333333315
2006 320 0.16666666666666669
2008 320 -0.083333333333333343
2099 320 -0.083333333333333329
321 321 2.666666666666667
322 321 -0.33333333333333337
352 321 -0.33333333333333337
1909 321 -0.083333333333333343
1910 321 -0.083333333333333343
1911 321 0.16666666666666669
1913 321 -0.083333333333333343
1914 321 -0.16666666666666669
2004 321 -0.083333333333333287
2006 321 -0.16666666666666669
2007 321 -0.083333333333333343
2008 321 -0.083333333333333315
2009 321 0.16666666666666669
2011 321 -0.083333333333333343
2102 321 -0.083333333333333329
322 322 2.666666666666667
323 322 -0.33333333333333337
353 322 -0.33333333333333337
1912 322 -0.083333333333333343
1913 322 -0.083333333333333343
1914 322 0.16666666666666669
1916 322 -0.083333333333333343
1917 322 -0.16666666666666669
2007 322 -0.083333333333333287
2009 322 -0.16666666666666669
2010 322 -0.083333333333333343
2011 322 -0.083333333333333315
2012 322 0.16666666666666669
2014 322 -0.083333333333333343
2105 322 -0.083333333333333329
323 323 2.666666666666667
324 323 -0.33333333333333337
354 323 -0.33333333333333337
1915 323 -0.083333333333333343
1916 323 -0.083333333333333343
1917 323 0.16666666666666669
1919 323 -0.083333333333333343
1920 323 -0.16666666666666669
2010 323 -0.083333333333333287
2012 323 -0.16666666666666669
2013 323 -0.083333333333333343
2014 323 -0.083333333333333315
2015 323 0.16666666666666669
2017 323 -0.083333333333333343
2108 323 -0.083333333333333329
324 324 2.666666666666667
325 324 -0.33333333333333337
355 324 -0.33333333333333337
1918 324 -0.083333333333333343
1919 324 -0.083333333333333343
1920 324 0.16666666666666669
1922 324 -0.083333333333333343
1923 324 -0.16666666666666669
2013 324 -0.083333333333333287
2015 324 -0.16666666666666669
2016 324 -0.083333333333333343
2017 324 -0.083333333333333315
2018 324 0.16666666666666669
2020 324 -0.083333333333333343
2111 324 -0.083333333333333329
325 325 2.666666666666667
326 325 -0.33333333333333337
356 325 -0.33333333333333337
1921 325 -0.083333333333333343
1922 325 -0.083333333333333343
1923 325 0.16666666666666669
1925 325 -0.083333333333333343
1926 325 -0.16666666666666669
2016 325 -0.083333333333333287
2018 325 -0.16666666666666669
2019 325 -0.083333333333333343
2020 325 -0.083333333333333315
2021 325 0.16666666666666669
2023 325 -0.083333333333333343
2114 325 -0.083333333333333329
326 326 2.666666666666667
327 326 -0.33333333333333337
357 326 -0.33333333333333337
1924 326 -0.083333333333333343
1925 326 -0.083333333333333343
1926 326 0.16666666666666669
1928 326 -0.083333333333333343
1929 326 -0.16666666666666669
2019 326 -0.083333333333333287
2021 326 -0.16666666666666669
2022 326 -0.083333333333333343
2023 326 -0.083333333333333315
2024 326 0.16666666666666669
2026 326 -0.083333333333333343
2117 326 -0.083333333333333329
327 327 2.666666666666667
328 327 -0.33333333333333337
358 327 -0.33333333333333337
1927 327 -0.083333333333333343
1928 327 -0.083333333333333343
1929 327 0.16666666666666669
1931 327 -0.083333333333333343
1932 327 -0.16666666666666669
2022 327 -0.083333333333333287
2024 327 -0.16666666666666669
2025 327 -0.083333333333333343
2026 327 -0.083333333333333315
2027 327 0.16666666666666669
2029 327 -0.083333333333333343
2120 327 -0.083333333333333329
328 328 2.666666666666667
329 328 -0.33333333333333337
359 328 -0.33333333333333337
1930 328 -0.083333333333333343
1931 328 -0.083333333333333343
1932 328 0.16666666666666669
1934 328 -0.083333333333333343
1935 328 -0.16666666666666669
2025 328 -0.083333333333333287
2027 328 -0.16666666666666669
2028 328 -0.083333333333333343
2029 328 -0.083333333333333315
2030 328 0.16666666666666669
2032 328 -0.083333333333333343
2123 328 -0.083333333333333329
329 329 2.666666666666667
330 329 -0.33333333333333337
360 329 -0.33333333333333337
1933 329 -0.083333333333333343
1934 329 -0.083333333333333343
1935 329 0.16666666666666669
1937 329 -0.083333333333333343
1938 329 -0.16666666666666669
2028 329 -0.083333333333333287
2030 329 -0.16666666666666669
2031 329 -0.083333333333333343
2032 329 -0.083333333333333315
2033 329 0.16666666666666669
2035 329 -0.083333333333333343
2126 329 -0.083333333333333329
330 330 2.666666666666667
331 330 -0.33333333333333337
361 330 -0.33333333333333337
1936 330 -0.083333333333333343
1937 330 -0.083333333333333343
1938 330 0.16666666666666669
1940 330 -0.083333333333333343
1941 330 -0.16666666666666669
2031 330 -0.083333333333333287
2033 330 -0.16666666666666669
2034 330 -0.083333333333333343
2035 330 -0.083333333333333315
2036 330 0.16666666666666669
2038 330 -0.083333333333333343
2129 330 -0.083333333333333329
331 331 2.666666666666667
332 331 -0.33333333333333337
362 331 -0.33333333333333337
1939 331 -0.083333333333333343
1940 331 -0.083333333333333343
1941 331 0.16666666666666669
1943 331 -0.083333333333333343
1944 331 -0.16666666666666669
2034 331 -0.083333333333333287
2036 331 -0.16666666666666669
2037 331 -0.083333333333333343
2038 331 -0.083333333333333315
2039 331 0.16666666666666669
2041 331 -0.083333333333333343
2132 331 -0.083333333333333329
332 332 2.666666666666667
333 332 -0.33333333333333337
363 332 -0.33333333333333337
1942 332 -0.083333333333333343
1943 332 -0.083333333333333343
1944 332 0.16666666666666669
1946 332 -0.083333333333333343
1947 332 -0.16666666666666669
2037 332 -0.083333333333333287
2039 332 -0.16666666666666669
2040 332 -0.083333333333333343
2041 332 -0.083333333333333315
2042 332 0.16666666666666669
2044 332 -0.083333333333333343
2135 332 -0.083333333333333329
333 333 2.666666666666667
334 333 -0.33333333333333337
364 333 -0.33333333333333337
1945 333 -0.083333333333333343
1946 333 -0.083333333333333343
1947 333 0.16666666666666669
1949 333 -0.083333333333333343
1950 333 -0.16666666666666669
2040 333 -0.083333333333333287
2042 333 -0.16666666666666669
2043 333 -0.083333333333333343
2044 333 -0.083333333333333315
2045 333 0.16666666666666669
2047 333 -0.083333333333333343
2138 333 -0.083333333333333329
334 334 2.666666666666667
335 334 -0.33333333333333337
365 334 -0.33333333333333337
1948 334 -0.083333333333333343
1949 334 -0.083333333333333343
1950 334 0.16666666666666669
1952 334 -0.083333333333333343
1953 334 -0.16666666666666669
2043 334 -0.083333333333333287
2045 334 -0.16666666666666669
2046 334 -0.083333333333333343
2047 334 -0.083333333333333315
2048 334 0.16666666666666669
2050 334 -0.083333333333333343
2141 334 -0.083333333333333329
335 335 2.666666666666667
336 335 -0.33333333333333337
366 335 -0.33333333333333337
1951 335 -0.083333333333333343
1952 335 -0.083333333333333343
1953 335 0.16666666666666669
1955 335 -0.083333333333333343
1956 335 -0.16666666666666669
2046 335 -0.083333333333333287
2048 335 -0.16666666666666669
2049 335 -0.083333333333333343
2050 335 -0.083333333333333315
2051 335 0.16666666666666669
2053 335 -0.083333333333333343
2144 335 -0.083333333333333329
336 336 2.666666666666667
337 336 -0.33333333333333337
367 336 -0.33333333333333337
1954 336 -0.083333333333333343
1955 336 -0.083333333333333343
1956 336 0.16666666666666669
1958 336 -0.083333333333333343
1959 336 -0.16666666666666669
2049 336 -0.083333333333333287
2051 336 -0.16666666666666669
2052 336 -0.083333333333333343
2053 336 -0.083333333333333315
2054 336 0.16666666666666669
2056 336 -0.083333333333333343
2147 336 -0.083333333333333329
337 337 2.666666666666667
338 337 -0.33333333333333337
368 337 -0.33333333333333337
1957 337 -0.083333333333333343
1958 337 -0.083333333333333343
1959 337 0.16666666666666669
1961 337 -0.083333333333333343
1962 337 -0.16666666666666669
2052 337 -0.083333333333333287
2054 337 -0.16666666666666669
2055 337 -0.083333333333333343
2056 337 -0.083333333333333315
2057 337 0.16666666666666669
2059 337 -0.083333333333333343
2150 337 -0.083333333333333329
338 338 2.666666666666667
339 338 -0.33333333333333337
369 338 -0.33333333333333337
1960 338 -0.083333333333333343
1961 338 -0.083333333333333343
1962 338 0.16666666666666669
1964 338 -0.083333333333333343
1965 338 -0.16666666666666669
2055 338 -0.083333333333333287
2057 338 -0.16666666666666669
2058 338 -0.083333333333333343
2059 338 -0.083333333333333315
2060 338 0.16666666666666669
2062 338 -0.083333333333333343
2153 338 -0.083333333333333329
339 339 2.666666666666667
340 339 -0.33333333333333337
370 339 -0.33333333333333337
1963 339 -0.083333333333333343
1964 339 -0.083333333333333343
1965 339 0.16666666666666669
1967 339 -0.083333333333333343
1968 339 -0.16666666666666669
2058 339 -0.083333333333333287
2060 339 -0.16666666666666669
2061 339 -0.083333333333333343
2062 339 -0.083333333333333315
2063 339 0.16666666666666669
2065 339 -0.083333333333333343
2156 339 -0.083333333333333329
340 340 2.666666666666667
341 340 -0.33333333333333337
371 340 -0.33333333333333337
1966 340 -0.083333333333333343
1967 340 -0.083333333333333343
1968 340 0.16666666666666669
1970 340 -0.083333333333333343
1971 340 -0.16666666666666669
2061 340 -0.083333333333333287
2063 340 -0.16666666666666669
2064 340 -0.083333333333333343
2065 340 -0.083333333333333315
2066 340 0.16666666666666669
2068 340 -0.083333333333333343
2159 340 -0.083333333333333329
341 341 2.666666666666667
372 341 -0.33333333333333337
1969 341 -0.083333333333333343
1970 341 -0.083333333333333343
1971 341 0.16666666666666669
1973 341 -0.083333333333333343
1974 341 -0.16666666666666669
2064 341 -0.083333333333333287
2066 341 -0.16666666666666669
2067 341 -0.083333333333333343
2068 341 -0.083333333333333315
2069 341 0.16666666666666669
2162 341 -0.083333333333333329
342 342 2.666666666666667
343 342 -0.33333333333333337
373 342 -0.33333333333333337
1975 342 -0.083333333333333343
1976 342 0.16666666666666669
1978 342 -0.083333333333333343
1979 342 -0.16666666666666669
2070 342 -0.083333333333333287
2071 342 -0.16666666666666669
2072 342 -0.083333333333333343
2073 342 -0.083333333333333315
2074 342 0.16666666666666669
2076 342 -0.083333333333333343
2167 342 -0.083333333333333329
343 343 2.666666666666667
344 343 -0.33333333333333337
374 343 -0.33333333333333337
1977 343 -0.083333333333333343
1978 343 -0.083333333333333343
1979 343 0.16666666666666669
1981 343 -0.083333333333333343
1982 343 -0.16666666666666669
2072 343 -0.083333333333333287
2074 343 -0.16666666666666669
2075 343 -0.083333333333333343
2076 343 -0.083333333333333315
2077 343 0.16666666666666669
2079 343 -0.083333333333333343
2170 343 -0.083333333333333329
344 344 2.666666666666667
345 344 -0.33333333333333337
375 344 -0.33333333333333337
1980 344 -0.083333333333333343
1981 344 -0.083333333333333343
1982 344 0.16666666666666669
1984 344 -0.083333333333333343
1985 344 -0.16666666666666669
2075 344 -0.083333333333333287
2077 344 -0.16666666666666669
2078 344 -0.083333333333333343
2079 344 -0.083333333333333315
2080 344 0.16666666666666669
2082 344 -0.083333333333333343
2173 344 -0.083333333333333329
345 345 2.666666666666667
346 345 -0.33333333333333337
376 345 -0.33333333333333337
1983 345 -0.083333333333333343
1984 345 -0.083333333333333343
1985 345 0.16666666666666669
1987 345 -0.083333333333333343
1988 345 -0.16666666666666669
2078 345 -0.083333333333333287
2080 345 -0.16666666666666669
2081 345 -0.083333333333333343
2082 345 -0.083333333333333315
2083 345 0.16666666666666669
2085 345 -0.083333333333333343
2176 345 -0.083333333333333329
346 346 2.666666666666667
347 346 -0.33333333333333337
377 346 -0.33333333333333337
1986 346 -0.083333333333333343
1987 346 -0.083333333333333343
1988 346 0.16666666666666669
1990 346 -0.083333333333333343
1991 346 -0.16666666666666669
2081 346 -0.083333333333333287
2083 346 -0.16666666666666669
2084 346 -0.083333333333333343
2085 346 -0.083333333333333315
2086 346 0.16666666666666669
2088 346 -0.083333333333333343
2179 346 -0.083333333333333329
347 347 2.666666666666667
348 347 -0.33333333333333337
378 347 -0.33333333333333337
1989 347 -0.083333333333333343
1990 347 -0.083333333333333343
1991 347 0.16666666666666669
1993 347 -0.083333333333333343
1994 347 -0.16666666666666669
2084 347 -0.083333333333333287
2086 347 -0.16666666666666669
2087 347 -0.083333333333333343
2088 347 -0.083333333333333315
2089 347 0.16666666666666669
2091 347 -0.083333333333333343
2182 347 -0.083333333333333329
348 348 2.666666666666667
349 348 -0.33333333333333337
379 348 -0.33333333333333337
1992 348 -0.083333333333333343
1993 348 -0.083333333333333343
1994 348 0.16666666666666669
1996 348 -0.083333333333333343
1997 348 -0.16666666666666669
2087 348 -0.083333333333333287
2089 348 -0.16666666666666669
2090 348 -0.083333333333333343
2091 348 -0.083333333333333315
2092 348 0.16666666666666669
2094 348 -0.083333333333333343
2185 348 -0.083333333333333329
349 349 2.666666666666667
350 349 -0.33333333333333337
380 349 -0.33333333333333337
1995 349 -0.083333333333333343
1996 349 -0.083333333333333343
1997 349 0.16666666666666669
1999 349 -0.083333333333333343
2000 349 -0.16666666666666669
2090 349 -0.083333333333333287
2092 349 -0.16666666666666669
2093 349 -0.083333333333333343
2094 349 -0.083333333333333315
2095 349 0.16666666666666669
2097 349 -0.083333333333333343
2188 349 -0.083333333333333329
350 350 2.666666666666667
351 350 -0.33333333333333337
381 350 -0.33333333333333337
1998 350 -0.083333333333333343
1999 350 -0.083333333333333343
2000 350 0.16666666666666669
2002 350 -0.083333333333333343
2003 350 -0.16666666666666669
2093 350 -0.083333333333333287
2095 350 -0.16666666666666669
2096 350 -0.083333333333333343
2097 350 -0.083333333333333315
2098 350 0.16666666666666669
2100 350 -0.083333333333333343
2191 350 -0.083333333333333329
351 351 2.666666666666667
352 351 -0.33333333333333337
382 351 -0.33333333333333337
2001 351 -0.083333333333333343
2002 351 -0.083333333333333343
2003 351 0.16666666666666669
2005 351 -0.083333333333333343
2006 351 -0.16666666666666669
2096 351 -0.083333333333333287
2098 351 -0.16666666666666669
2099 351 -0.083333333333333343
2100 351 -0.083333333333333315
2101 351 0.16666666666666669
2103 351 -0.083333333333333343
2194 351 -0.083333333333333329
352 352 2.666666666666667
353 352 -0.33333333333333337
383 352 -0.33333333333333337
2004 352 -0.083333333333333343
2005 352 -0.083333333333333343
2006 352 0.16666666666666669
2008 352 -0.083333333333333343
2009 352 -0.16666666666666669
2099 352 -0.083333333333333287
2101 352 -0.16666666666666669
2102 352 -0.083333333333333343
2103 352 -0.083333333333333315
2104 352 0.16666666666666669
2106 352 -0.083333333333333343
2197 352 -0.083333333333333329
353 353 2.666666666666667
354 353 -0.33333333333333337
384 353 -0.33333333333333337
2007 353 -0.083333333333333343
2008 353 -0.083333333333333343
2009 353 0.16666666666666669
2011 353 -0.083333333333333343
2012 353 -0.16666666666666669
2102 353 -0.083333333333333287
2104 353 -0.16666666666666669
2105 353 -0.083333333333333343
2106 353 -0.083333333333333315
2107 353 0.16666666666666669
2109 353 -0.083333333333333343
2200 353 -0.083333333333333329
354 354 2.666666666666667
355 354 -0.33333333333333337
385 354 -0.33333333333333337
2010 354 -0.083333333333333343
2011 354 -0.083333333333333343
2012 354 0.16666666666666669
2014 354 -0.083333333333333343
2015 354 -0.16666666666666669
2105 354 -0.083333333333333287
2107 354 -0.16666666666666669
2108 354 -0.083333333333333343
2109 354 -0.083333333333333315
2110 354 0.16666666666666669
2112 354 -0.083333333333333343
2203 354 -0.083333333333333329
355 355 2.666666666666667
356 355 -0.33333333333333337
386 355 -0.33333333333333337
2013 355 -0.083333333333333343
2014 355 -0.083333333333333343
2015 355 0.16666666666666669
2017 355 -0.083333333333333343
2018 355 -0.16666666666666669
2108 355 -0.083333333333333287
2110 355 -0.16666666666666669
2111 355 -0.083333333333333343
2112 355 -0.083333333333333315
2113 355 0.16666666666666669
2115 355 -0.083333333333333343
2206 355 -0.083333333333333329
356 356 2.666666666666667
357 356 -0.33333333333333337
387 356 -0.33333333333333337
2016 356 -0.083333333333333343
2017 356 -0.083333333333333343
2018 356 0.16666666666666669
2020 356 -0.083333333333333343
2021 356 -0.16666666666666669
2111 356 -0.083333333333333287
2113 356 -0.16666666666666669
2114 356 -0.083333333333333343
2115 356 -0.083333333333333315
2116 356 0.16666666666666669
2118 356 -0.083333333333333343
2209 356 -0.083333333333333329
357 357 2.666666666666667
358 357 -0.33333333333333337
388 357 -0.33333333333333337
2019 357 -0.083333333333333343
2020 357 -0.083333333333333343
2021 357 0.16666666666666669
2023 357 -0.083333333333333343
2024 357 -0.16666666666666669
2114 357 -0.083333333333333287
2116 357 -0.16666666666666669
2117 357 -0.083333333333333343
2118 357 -0.083333333333333315
2119 357 0.16666666666666669
2121 357 -0.083333333333333343
2212 357 -0.083333333333333329
358 358 2.666666666666667
359 358 -0.33333333333333337
389 358 -0.33333333333333337
2022 358 -0.083333333333333343
2023 358 -0.083333333333333343
2024 358 0.16666666666666669
2026 358 -0.083333333333333343
2027 358 -0.16666666666666669
2117 358 -0.083333333333333287
2119 358 -0.16666666666666669
2120 358 -0.083333333333333343
2121 358 -0.083333333333333315
2122 358 0.16666666666666669
2124 358 -0.083333333333333343
2215 358 -0.083333333333333329
359 359 2.666666666666667
360 359 -0.33333333333333337
390 359 -0.33333333333333337
2025 359 -0.083333333333333343
2026 359 -0.083333333333333343
2027 359 0.16666666666666669
2029 359 -0.083333333333333343
2030 359 -0.16666666666666669
2120 359 -0.083333333333333287
2122 359 -0.16666666666666669
2123 359 -0.083333333333333343
2124 359 -0.083333333333333315
2125 359 0.16666666666666669
2127 359 -0.083333333333333343
2218 359 -0.083333333333333329
360 360 2.666666666666667
361 360 -0.33333333333333337
391 360 -0.33333333333333337
2028 360 -0.083333333333333343
2029 360 -0.083333333333333343
2030 360 0.16666666666666669
2032 360 -0.083333333333333343
2033 360 -0.16666666666666669
2123 360 -0.083333333333333287
2125 360 -0.16666666666666669
2126 360 -0.083333333333333343
2127 360 -0.083333333333333315
2128 360 0.16666666666666669
2130 360 -0.083333333333333343
2221 360 -0.083333333333333329
361 361 2.666666666666667
362 361 -0.33333333333333337
392 361 -0.33333333333333337
2031 361 -0.083333333333333343
2032 361 -0.083333333333333343
2033 361 0.16666666666666669
2035 361 -0.083333333333333343
2036 361 -0.16666666666666669
2126 361 -0.083333333333333287
2128 361 -0.16666666666666669
2129 361 -0.083333333333333343
2130 361 -0.083333333333333315
2131 361 0.16666666666666669
2133 361 -0.083333333333333343
2224 361 -0.083333333333333329
362 362 2.666666666666667
363 362 -0.33333333333333337
393 362 -0.33333333333333337
2034 362 -0.083333333333333343
2035 362 -0.083333333333333343
2036 362 0.16666666666666669
2038 362 -0.083333333333333343
2039 362 -0.16666666666666669
2129 362 -0.083333333333333287
2131 362 -0.16666666666666669
2132 362 -0.083333333333333343
2133 362 -0.083333333333333315
2134 362 0.16666666666666669
2136 362 -0.083333333333333343
2227 362 -0.083333333333333329
363 363 2.666666666666667
364 363 -0.33333333333333337
394 363 -0.33333333333333337
2037 363 -0.083333333333333343
2038 363 -0.083333333333333343
2039 363 0.16666666666666669
2041 363 -0.083333333333333343
2042 363 -0.16666666666666669
2132 363 -0.083333333333333287
2134 363 -0.16666666666666669
2135 363 -0.083333333333333343
2136 363 -0.083333333333333315
2137 363 0.16666666666666669
2139 363 -0.083333333333333343
2230 363 -0.083333333333333329
364 364 2.666666666666667
365 364 -0.33333333333333337
395 364 -0.33333333333333337
2040 364 -0.083333333333333343
2041 364 -0.083333333333333343
2042 364 0.16666666666666669
2044 364 -0.083333333333333343
2045 364 -0.16666666666666669
2135 364 -0.083333333333333287
2137 364 -0.16666666666666669
2138 364 -0.083333333333333343
2139 364 -0.083333333333333315
2140 364 0.16666666666666669
2142 364 -0.083333333333333343
2233 364 -0.083333333333333329
365 365 2.666666666666667
366 365 -0.33333333333333337
396 365 -0.33333333333333337
2043 365 -0.083333333333333343
2044 365 -0.083333333333333343
2045 365 0.16666666666666669
2047 365 -0.083333333333333343
2048 365 -0.16666666666666669
2138 365 -0.083333333333333287
2140 365 -0.16666666666666669
2141 365 -0.083333333333333343
2142 365 -0.083333333333333315
2143 365 0.16666666666666669
2145 365 -0.083333333333333343
2236 365 -0.083333333333333329
366 366 2.666666666666667
367 366 -0.33333333333333337
397 366 -0.33333333333333337
2046 366 -0.083333333333333343
2047 366 -0.083333333333333343
2048 366 0.16666666666666669
2050 366 -0.083333333333333343
2051 366 -0.16666666666666669
2141 366 -0.083333333333333287
2143 366 -0.16666666666666669
2144 366 -0.083333333333333343
2145 366 -0.083333333333333315
2146 366 0.16666666666666669
2148 366 -0.083333333333333343
2239 366 -0.083333333333333329
367 367 2.666666666666667
368 367 -0.33333333333333337
398 367 -0.33333333333333337
2049 367 -0.083333333333333343
2050 367 -0.083333333333333343
2051 367 0.16666666666666669
2053 367 -0.083333333333333343
2054 367 -0.16666666666666669
2144 367 -0.083333333333333287
2146 367 -0.16666666666666669
2147 367 -0.083333333333333343
2148 367 -0.083333333333333315
2149 367 0.16666666666666669
2151 367 -0.083333333333333343
2242 367 -0.083333333333333329
368 368 2.666666666666667
369 368 -0.33333333333333337
399 368 -0.33333333333333337
2052 368 -0.083333333333333343
2053 368 -0.083333333333333343
2054 368 0.16666666666666669
2056 368 -0.083333333333333343
2057 368 -0.16666666666666669
2147 368 -0.083333333333333287
2149 368 -0.16666666666666669
2150 368 -0.083333333333333343
2151 368 -0.083333333333333315
2152 368 0.16666666666666669
2154 368 -0.083333333333333343
2245 368 -0.083333333333333329
369 369 2.666666666666667
370 369 -0.33333333333333337
400 369 -0.33333333333333337
2055 369 -0.083333333333333343
2056 369 -0.083333333333333343
2057 369 0.16666666666666669
2059 369 -0.083333333333333343
2060 369 -0.16666666666666669
2150 369 -0.083333333333333287
2152 369 -0.16666666666666669
2153 369 -0.083333333333333343
2154 369 -0.083333333333333315
2155 369 0.16666666666666669
2157 369 -0.083333333333333343
2248 369 -0.083333333333333329
370 370 2.666666666666667
371 370 -0.33333333333333337
401 370 -0.33333333333333337
2058 370 -0.083333333333333343
2059 370 -0.083333333333333343
2060 370 0.16666666666666669
2062 370 -0.083333333333333343
2063 370 -0.16666666666666669
2153 370 -0.083333333333333287
2155 370 -0.16666666666666669
2156 370 -0.083333333333333343
2157 370 -0.083333333333333315
2158 370 0.16666666666666669
2160 370 -0.083333333333333343
2251 370 -0.083333333333333329
371 371 2.666666666666667
372 371 -0.33333333333333337
402 371 -0.33333333333333337
2061 371 -0.083333333333333343
2062 371 -0.083333333333333343
2063 371 0.16666666666666669
2065 371 -0.083333333333333343
2066 371 -0.16666666666666669
2156 371 -0.083333333333333287
2158 371 -0.16666666666666669
2159 371 -0.083333333333333343
2160 371 -0.083333333333333315
2161 371 0.16666666666666669
2163 371 -0.083333333333333343
2254 371 -0.083333333333333329
372 372 2.666666666666667
403 372 -0.33333333333333337
2064 372 -0.083333333333333343
2065 372 -0.083333333333333343
2066 372 0.16666666666666669
2068 372 -0.083333333333333343
2069 372 -0.16666666666666669
2159 372 -0.083333333333333287
2161 372 -0.16666666666666669
2162 372 -0.083333333333333343
2163 372 -0.083333333333333315
2164 372 0.16666666666666669
2257 372 -0.083333333333333329
373 373 2.666666666666667
374 373 -0.33333333333333337
404 373 -0.33333333333333337
2070 373 -0.083333333333333343
2071 373 0.16666666666666669
2073 373 -0.083333333333333343
2074 373 -0.16666666666666669
2165 373 -0.083333333333333287
2166 373 -0.16666666666666669
2167 373 -0.083333333333333343
2168 373 -0.083333333333333315
2169 373 0.16666666666666669
2171 373 -0.083333333333333343
2262 373 -0.083333333333333329
374 374 2.666666666666667
375 374 -0.33333333333333337
405 374 -0.33333333333333337
2072 374 -0.083333333333333343
2073 374 -0.083333333333333343
2074 374 0.16666666666666669
2076 374 -0.083333333333333343
2077 374 -0.16666666666666669
2167 374 -0.083333333333333287
2169 374 -0.16666666666666669
2170 374 -0.083333333333333343
2171 374 -0.083333333333333315
2172 374 0.16666666666666669
2174 374 -0.083333333333333343
2265 374 -0.083333333333333329
375 375 2.666666666666667
376 375 -0.33333333333333337
406 375 -0.33333333333333337
2075 375 -0.083333333333333343
2076 375 -0.083333333333333343
2077 375 0.16666666666666669
2079 375 -0.083333333333333343
2080 375 -0.16666666666666669
2170 375 -0.083333333333333287
2172 375 -0.16666666666666669
2173 375 -0.083333333333333343
2174 375 -0.083333333333333315
2175 375 0.16666666666666669
2177 375 -0.083333333333333343
2268 375 -0.083333333333333329
376 376 2.666666666666667
377 376 -0.33333333333333337
407 376 -0.33333333333333337
2078 376 -0.083333333333333343
2079 376 -0.083333333333333343
2080 376 0.16666666666666669
2082 376 -0.083333333333333343
2083 376 -0.16666666666666669
2173 376 -0.083333333333333287
2175 376 -0.16666666666666669
2176 376 -0.083333333333333343
2177 376 -0.083333333333333315
2178 376 0.16666666666666669
2180 376 -0.083333333333333343
2271 376 -0.083333333333333329
377 377 2.666666666666667
378 377 -0.33333333333333337
408 377 -0.33333333333333337
2081 377 -0.083333333333333343
2082 377 -0.083333333333333343
2083 377 0.16666666666666669
2085 377 -0.083333333333333343
2086 377 -0.16666666666666669
2176 377 -0.083333333333333287
2178 377 -0.16666666666666669
2179 377 -0.083333333333333343
2180 377 -0.083333333333333315
2181 377 0.16666666666666669
2183 377 -0.083333333333333343
2274 377 -0.083333333333333329
378 378 2.666666666666667
379 378 -0.33333333333333337
409 378 -0.33333333333333337
2084 378 -0.083333333333333343
2085 378 -0.083333333333333343
2086 378 0.16666666666666669
2088 378 -0.083333333333333343
2089 378 -0.16666666666666669
2179 378 -0.083333333333333287
2181 378 -0.16666666666666669
2182 378 -0.083333333333333343
2183 378 -0.083333333333333315
2184 378 0.16666666666666669
2186 378 -0.083333333333333343
2277 378 -0.083333333333333329
379 379 2.666666666666667
380 379 -0.33333333333333337
410 379 -0.33333333333333337
2087 379 -0.083333333333333343
2088 379 -0.083333333333333343
2089 379 0.16666666666666669
2091 379 -0.083333333333333343
2092 379 -0.16666666666666669
2182 379 -0.083333333333333287
2184 379 -0.16666666666666669
2185 379 -0.083333333333333343
2186 379 -0.083333333333333315
2187 379 0.16666666666666669
2189 379 -0.083333333333333343
2280 379 -0.083333333333333329
380 380 2.666666666666667
381 380 -0.33333333333333337
411 380 -0.33333333333333337
2090 380 -0.083333333333333343
2091 380 -0.083333333333333343
2092 380 0.16666666666666669
2094 380 -0.083333333333333343
2095 380 -0.16666666666666669
2185 380 -0.083333333333333287
2187 380 -0.16666666666666669
2188 380 -0.083333333333333343
2189 380 -0.083333333333333315
2190 380 0.16666666666666669
2192 380 -0.083333333333333343
2283 380 -0.083333333333333329
381 381 2.666666666666667
382 381 -0.33333333333333337
412 381 -0.33333333333333337
2093 381 -0.083333333333333343
2094 381 -0.083333333333333343
2095 381 0.16666666666666669
2097 381 -0.083333333333333343
2098 381 -0.16666666666666669
2188 381 -0.083333333333333287
2190 381 -0.16666666666666669
2191 381 -0.083333333333333343
2192 381 -0.083333333333333315
2193 381 0.16666666666666669
2195 381 -0.083333333333333343
2286 381 -0.083333333333333329
382 382 2.666666666666667
383 382 -0.33333333333333337
413 382 -0.33333333333333337
2096 382 -0.083333333333333343
2097 382 -0.083333333333333343
2098 382 0.16666666666666669
2100 382 -0.083333333333333343
2101 382 -0.16666666666666669
2191 382 -0.083333333333333287
2193 382 -0.16666666666666669
2194 382 -0.083333333333333343
2195 382 -0.083333333333333315
2196 382 0.16666666666666669
2198 382 -0.083333333333333343
2289 382 -0.083333333333333329
383 383 2.666666666666667
384 383 -0.33333333333333337
414 383 -0.33333333333333337
2099 383 -0.083333333333333343
2100 383 -0.083333333333333343
2101 383 0.16666666666666669
2103 383 -0.083333333333333343
2104 383 -0.16666666666666669
2194 383 -0.083333333333333287
2196 383 -0.16666666666666669
2197 383 -0.083333333333333343
2198 383 -0.083333333333333315
2199 383 0.16666666666666669
2201 383 -0.083333333333333343
2292 383 -0.083333333333333329
384 384 2.666666666666667
385 384 -0.33333333333333337
415 384 -0.33333333333333337
2102 384 -0.083333333333333343
2103 384 -0.083333333333333343
2104 384 0.16666666666666669
2106 384 -0.083333333333333343
2107 384 -0.16666666666666669
2197 384 -0.083333333333333287
2199 384 -0.16666666666666669
2200 384 -0.083333333333333343
2201 384 -0.083333333333333315
2202 384 0.16666666666666669
2204 384 -0.083333333333333343
2295 384 -0.083333333333333329
385 385 2.666666666666667
386 385 -0.33333333333333337
416 385 -0.33333333333333337
2105 385 -0.083333333333333343
2106 385 -0.083333333333333343
2107 385 0.16666666666666669
2109 385 -0.083333333333333343
2110 385 -0.16666666666666669
2200 385 -0.083333333333333287
2202 385 -0.16666666666666669
2203 385 -0.083333333333333343
2204 385 -0.083333333333333315
2205 385 0.16666666666666669
2207 385 -0.083333333333333343
2298 385 -0.083333333333333329
386 386 2.666666666666667
387 386 -0.33333333333333337
417 386 -0.33333333333333337
2108 386 -0.083333333333333343
2109 386 -0.083333333333333343
2110 386 0.16666666666666669
2112 386 -0.083333333333333343
2113 386 -0.16666666666666669
2203 386 -0.083333333333333287
2205 386 -0.16666666666666669
2206 386 -0.083333333333333343
2207 386 -0.083333333333333315
2208 386 0.16666666666666669
2210 386 -0.083333333333333343
2301 386 -0.083333333333333329
387 387 2.666666666666667
388 387 -0.33333333333333337
418 387 -0.33333333333333337
2111 387 -0.083333333333333343
2112 387 -0.083333333333333343
2113 387 0.16666666666666669
2115 387 -0.083333333333333343
2116 387 -0.16666666666666669
2206 387 -0.083333333333333287
2208 387 -0.16666666666666669
2209 387 -0.083333333333333343
2210 387 -0.083333333333333315
2211 387 0.16666666666666669
2213 387 -0.083333333333333343
2304 387 -0.083333333333333329
388 388 2.666666666666667
389 388 -0.33333333333333337
419 388 -0.33333333333333337
2114 388 -0.083333333333333343
2115 388 -0.083333333333333343
2116 388 0.16666666666666669
2118 388 -0.083333333333333343
2119 388 -0.16666666666666669
2209 388 -0.083333333333333287
2211 388 -0.16666666666666669
2212 388 -0.083333333333333343
2213 388 -0.083333333333333315
2214 388 0.16666666666666669
2216 388 -0.083333333333333343
2307 388 -0.083333333333333329
389 389 2.666666666666667
390 389 -0.33333333333333337
420 389 -0.33333333333333337
2117 389 -0.083333333333333343
2118 389 -0.083333333333333343
2119 389 0.16666666666666669
2121 389 -0.083333333333333343
2122 389 -0.16666666666666669
2212 389 -0.083333333333333287
2214 389 -0.16666666666666669
2215 389 -0.083333333333333343
2216 389 -0.083333333333333315
2217 389 0.16666666666666669
2219 389 -0.083333333333333343
2310 389 -0.083333333333333329
390 390 2.666666666666667
391 390 -0.33333333333333337
421 390 -0.33333333333333337
2120 390 -0.083333333333333343
2121 390 -0.083333333333333343
2122 390 0.16666666666666669
2124 390 -0.083333333333333343
2125 390 -0.16666666666666669
2215 390 -0.083333333333333287
2217 390 -0.16666666666666669
2218 390 -0.083333333333333343
2219 390 -0.083333333333333315
2220 390 0.16666666666666669
2222 390 -0.083333333333333343
2313 390 -0.083333333333333329
391 391 2.666666666666667
392 391 -0.33333333333333337
422 391 -0.33333333333333337
2123 391 -0.083333333333333343
2124 391 -0.083333333333333343
2125 391 0.16666666666666669
2127 391 -0.083333333333333343
2128 391 -0.16666666666666669
2218 391 -0.083333333333333287
2220 391 -0.16666666666666669
2221 391 -0.083333333333333343
2222 391 -0.083333333333333315
2223 391 0.16666666666666669
2225 391 -0.083333333333333343
2316 391 -0.083333333333333329
392 392 2.666666666666667
393 392 -0.33333333333333337
423 392 -0.33333333333333337
2126 392 -0.083333333333333343
2127 392 -0.083333333333333343
2128 392 0.16666666666666669
2130 392 -0.083333333333333343
2131 392 -0.16666666666666669
2221 392 -0.083333333333333287
2223 392 -0.16666666666666669
2224 392 -0.083333333333333343
2225 392 -0.083333333333333315
2226 392 0.16666666666666669
2228 392 -0.083333333333333343
2319 392 -0.083333333333333329
393 393 2.666666666666667
394 393 -0.33333333333333337
424 393 -0.33333333333333337
2129 393 -0.083333333333333343
2130 393 -0.083333333333333343
2131 393 0.16666666666666669
2133 393 -0.083333333333333343
2134 393 -0.16666666666666669
2224 393 -0.083333333333333287
2226 393 -0.16666666666666669
2227 393 -0.083333333333333343
2228 393 -0.083333333333333315
2229 393 0.16666666666666669
2231 393 -0.083333333333333343
2322 393 -0.083333333333333329
394 394 2.666666666666667
395 394 -0.33333333333333337
425 394 -0.33333333333333337
2132 394 -0.083333333333333343
2133 394 -0.083333333333333343
2134 394 0.16666666666666669
2136 394 -0.083333333333333343
2137 394 -0.16666666666666669
2227 394 -0.083333333333333287
2229 394 -0.16666666666666669
2230 394 -0.083333333333333343
2231 394 -0.083333333333333315
2232 394 0.16666666666666669
2234 394 -0.083333333333333343
2325 394 -0.083333333333333329
395 395 2.666666666666667
396 395 -0.33333333333333337
426 395 -0.33333333333333337
2135 395 -0.083333333333333343
2136 395 -0.083333333333333343
2137 395 0.16666666666666669
2139 395 -0.083333333333333343
2140 395 -0.16666666666666669
2230 395 -0.083333333333333287
2232 395 -0.16666666666666669
2233 395 -0.083333333333333343
2234 395 -0.083333333333333315
2235 395 0.16666666666666669
2237 395 -0.083333333333333343
2328 395 -0.083333333333333329
396 396 2.666666666666667
397 396 -0.33333333333333337
427 396 -0.33333333333333337
2138 396 -0.083333333333333343
2139 396 -0.083333333333333343
2140 396 0.16666666666666669
2142 396 -0.083333333333333343
2143 396 -0.16666666666666669
2233 396 -0.083333333333333287
2235 396 -0.16666666666666669
2236 396 -0.083333333333333343
2237 396 -0.083333333333333315
2238 396 0.16666666666666669
2240 396 -0.083333333333333343
2331 396 -0.083333333333333329
397 397 2.666666666666667
398 397 -0.33333333333333337
428 397 -0.33333333333333337
2141 397 -0.083333333333333343
2142 397 -0.083333333333333343
2143 397 0.16666666666666669
2145 397 -0.083333333333333343
2146 397 -0.16666666666666669
2236 397 -0.083333333333333287
2238 397 -0.16666666666666669
2239 397 -0.083333333333333343
2240 397 -0.083333333333333315
2241 397 0.16666666666666669
2243 397 -0.083333333333333343
2334 397 -0.083333333333333329
398 398 2.666666666666667
399 398 -0.33333333333333337
429 398 -0.33333333333333337
2144 398 -0.083333333333333343
2145 398 -0.083333333333333343
2146 398 0.16666666666666669
2148 398 -0.083333333333333343
2149 398 -0.16666666666666669
2239 398 -0.083333333333333287
2241 398 -0.16666666666666669
2242 398 -0.083333333333333343
2243 398 -0.083333333333333315
2244 398 0.16666666666666669
2246 398 -0.083333333333333343
2337 398 -0.083333333333333329
399 399 2.666666666666667
400 399 -0.33333333333333337
430 399 -0.33333333333333337
2147 399 -0.083333333333333343
2148 399 -0.083333333333333343
2149 399 0.16666666666666669
2151 399 -0.083333333333333343
2152 399 -0.16666666666666669
2242 399 -0.083333333333333287
2244 399 -0.16666666666666669
2245 399 -0.083333333333333343
2246 399 -0.083333333333333315
2247 399 0.16666666666666669
2249 399 -0.083333333333333343
2340 399 -0.083333333333333329
400 400 2.666666666666667
401 400 -0.33333333333333337
431 400 -0.33333333333333337
2150 400 -0.083333333333333343
2151 400 -0.083333333333333343
2152 400 0.16666666666666669
2154 400 -0.083333333333333343
2155 400 -0.16666666666666669
2245 400 -0.083333333333333287
2247 400 -0.16666666666666669
2248 400 -0.083333333333333343
2249 400 -0.083333333333333315
2250 400 0.16666666666666669
2252 400 -0.083333333333333343
2343 400 -0.083333333333333329
401 401 2.666666666666667
402 401 -0.33333333333333337
432 401 -0.33333333333333337
2153 401 -0.083333333333333343
2154 401 -0.083333333333333343
2155 401 0.16666666666666669
2157 401 -0.083333333333333343
2158 401 -0.16666666666666669
2248 401 -0.083333333333333287
2250 401 -0.16666666666666669
2251 401 -0.083333333333333343
2252 401 -0.083333333333333315
2253 401 0.16666666666666669
2255 401 -0.083333333333333343
2346 401 -0.083333333333333329
402 402 2.666666666666667
403 402 -0.33333333333333337
433 402 -0.33333333333333337
2156 402 -0.083333333333333343
2157 402 -0.083333333333333343
2158 402 0.16666666666666669
2160 402 -0.083333333333333343
2161 402 -0.16666666666666669
2251 402 -0.083333333333333287
2253 402 -0.16666666666666669
2254 402 -0.083333333333333343
2255 402 -0.083333333333333315
2256 402 0.16666666666666669
2258 402 -0.083333333333333343
2349 402 -0.083333333333333329
403 403 2.666666666666667
434 403 -0.33333333333333337
2159 403 -0.083333333333333343
2160 403 -0.083333333333333343
2161 403 0.16666666666666669
2163 403 -0.083333333333333343
2164 403 -0.16666666666666669
2254 403 -0.083333333333333287
2256 403 -0.16666666666666669
2257 403 -0.083333333333333343
2258 403 -0.083333333333333315
2259 403 0.16666666666666669
2352 403 -0.083333333333333329
404 404 2.666666666666667
405 404 -0.33333333333333337
435 404 -0.33333333333333337
2165 404 -0.083333333333333343
2166 404 0.16666666666666669
2168 404 -0.083333333333333343
2169 404 -0.16666666666666669
2260 404 -0.083333333333333287
2261 404 -0.16666666666666669
2262 404 -0.083333333333333343
2263 404 -0.083333333333333315
2264 404 0.16666666666666669
2266 404 -0.083333333333333343
2357 404 -0.083333333333333329
405 405 2.666666666666667
406 405 -0.33333333333333337
436 405 -0.33333333333333337
2167 405 -0.083333333333333343
2168 405 -0.083333333333333343
2169 405 0.16666666666666669
2171 405 -0.083333333333333343
2172 405 -0.16666666666666669
2262 405 -0.083333333333333287
2264 405 -0.16666666666666669
2265 405 -0.083333333333333343
2266 405 -0.083333333333333315
2267 405 0.16666666666666669
2269 405 -0.083333333333333343
2360 405 -0.083333333333333329
406 406 2.666666666666667
407 406 -0.33333333333333337
437 406 -0.33333333333333337
2170 406 -0.083333333333333343
2171 406 -0.083333333333333343
2172 406 0.16666666666666669
2174 406 -0.083333333333333343
2175 406 -0.16666666666666669
2265 406 -0.083333333333333287
2267 406 -0.16666666666666669
2268 406 -0.083333333333333343
2269 406 -0.083333333333333315
2270 406 0.16666666666666669
2272 406 -0.083333333333333343
2363 406 -0.083333333333333329
407 407 2.666666666666667
408 407 -0.33333333333333337
438 407 -0.33333333333333337
2173 407 -0.083333333333333343
2174 407 -0.083333333333333343
2175 407 0.16666666666666669
2177 407 -0.083333333333333343
2178 407 -0.16666666666666669
2268 407 -0.083333333333333287
2270 407 -0.16666666666666669
2271 407 -0.083333333333333343
2272 407 -0.083333333333333315
2273 407 0.16666666666666669
2275 407 -0.083333333333333343
2366 407 -0.083333333333333329
408 408 2.666666666666667
409 408 -0.33333333333333337
439 408 -0.33333333333333337
2176 408 -0.083333333333333343
2177 408 -0.083333333333333343
2178 408 0.16666666666666669
2180 408 -0.083333333333333343
2181 408 -0.16666666666666669
2271 408 -0.083333333333333287
2273 408 -0.16666666666666669
2274 408 -0.083333333333333343
2275 408 -0.083333333333333315
2276 408 0.16666666666666669
2278 408 -0.083333333333333343
2369 408 -0.083333333333333329
409 409 2.666666666666667
410 409 -0.33333333333333337
440 409 -0.33333333333333337
2179 409 -0.083333333333333343
2180 409 -0.083333333333333343
2181 409 0.16666666666666669
2183 409 -0.083333333333333343
2184 409 -0.16666666666666669
2274 409 -0.083333333333333287
2276 409 -0.16666666666666669
2277 409 -0.083333333333333343
2278 409 -0.083333333333333315
2279 409 0.16666666666666669
2281 409 -0.083333333333333343
2372 409 -0.083333333333333329
410 410 2.666666666666667
411 410 -0.33333333333333337
441 410 -0.33333333333333337
2182 410 -0.083333333333333343
2183 410 -0.083333333333333343
2184 410 0.16666666666666669
2186 410 -0.083333333333333343
2187 410 -0.16666666666666669
2277 410 -0.083333333333333287
2279 410 -0.16666666666666669
2280 410 -0.083333333333333343
2281 410 -0.083333333333333315
2282 410 0.16666666666666669
2284 410 -0.083333333333333343
2375 410 -0.083333333333333329
411 411 2.666666666666667
412 411 -0.33333333333333337
442 411 -0.33333333333333337
2185 411 -0.083333333333333343
2186 411 -0.083333333333333343
2187 411 0.16666666666666669
2189 411 -0.083333333333333343
2190 411 -0.16666666666666669
2280 411 -0.083333333333333287
2282 411 -0.16666666666666669
2283 411 -0.083333333333333343
2284 411 -0.083333333333333315
2285 411 0.16666666666666669
2287 411 -0.083333333333333343
2378 411 -0.083333333333333329
412 412 2.666666666666667
413 412 -0.33333333333333337
443 412 -0.33333333333333337
2188 412 -0.083333333333333343
2189 412 -0.083333333333333343
2190 412 0.16666666666666669
2192 412 -0.083333333333333343
2193 412 -0.16666666666666669
2283 412 -0.083333333333333287
2285 412 -0.16666666666666669
2286 412 -0.083333333333333343
2287 412 -0.083333333333333315
2288 412 0.16666666666666669
2290 412 -0.083333333333333343
2381 412 -0.083333333333333329
413 413 2.666666666666667
414 413 -0.33333333333333337
444 413 -0.33333333333333337
2191 413 -0.083333333333333343
2192 413 -0.083333333333333343
2193 413 0.16666666666666669
2195 413 -0.083333333333333343
2196 413 -0.16666666666666669
2286 413 -0.083333333333333287
2288 413 -0.16666666666666669
2289 413 -0.083333333333333343
2290 413 -0.083333333333333315
2291 413 0.16666666666666669
2293 413 -0.083333333333333343
2384 413 -0.083333333333333329
414 414 2.666666666666667
415 414 -0.33333333333333337
445 414 -0.33333333333333337
2194 414 -0.083333333333333343
2195 414 -0.083333333333333343
2196 414 0.16666666666666669
2198 414 -0.083333333333333343
2199 414 -0.16666666666666669
2289 414 -0.083333333333333287
2291 414 -0.16666666666666669
2292 414 -0.083333333333333343
2293 414 -0.083333333333333315
2294 414 0.16666666666666669
2296 414 -0.083333333333333343
2387 414 -0.083333333333333329
415 415 2.666666666666667
416 415 -0.33333333333333337
446 415 -0.33333333333333337
2197 415 -0.083333333333333343
2198 415 -0.083333333333333343
2199 415 0.16666666666666669
2201 415 -0.083333333333333343
2202 415 -0.16666666666666669
2292 415 -0.083333333333333287
2294 415 -0.16666666666666669
2295 415 -0.083333333333333343
2296 415 -0.083333333333333315
2297 415 0.16666666666666669
2299 415 -0.083333333333333343
2390 415 -0.083333333333333329
416 416 2.666666666666667
417 416 -0.33333333333333337
447 416 -0.33333333333333337
2200 416 -0.083333333333333343
2201 416 -0.083333333333333343
2202 416 0.16666666666666669
2204 416 -0.083333333333333343
2205 416 -0.16666666666666669
2295 416 -0.083333333333333287
2297 416 -0.16666666666666669
2298 416 -0.083333333333333343
2299 416 -0.083333333333333315
2300 416 0.16666666666666669
2302 416 -0.083333333333333343
2393 416 -0.083333333333333329
417 417 2.666666666666667
418 417 -0.33333333333333337
448 417 -0.33333333333333337
2203 417 -0.083333333333333343
2204 417 -0.083333333333333343
2205 417 0.16666666666666669
2207 417 -0.083333333333333343
2208 417 -0.16666666666666669
2298 417 -0.083333333333333287
2300 417 -0.16666666666666669
2301 417 -0.083333333333333343
2302 417 -0.083333333333333315
2303 417 0.16666666666666669
2305 417 -0.083333333333333343
2396 417 -0.083333333333333329
418 418 2.666666666666667
419 418 -0.33333333333333337
449 418 -0.33333333333333337
2206 418 -0.083333333333333343
2207 418 -0.083333333333333343
2208 418 0.16666666666666669
2210 418 -0.083333333333333343
2211 418 -0.16666666666666669
2301 418 -0.083333333333333287
2303 418 -0.16666666666666669
2304 418 -0.083333333333333343
2305 418 -0.083333333333333315
2306 418 0.16666666666666669
2308 418 -0.083333333333333343
2399 418 -0.083333333333333329
419 419 2.666666666666667
420 419 -0.33333333333333337
450 419 -0.33333333333333337
2209 419 -0.083333333333333343
2210 419 -0.083333333333333343
2211 419 0.16666666666666669
2213 419 -0.083333333333333343
2214 419 -0.16666666666666669
2304 419 -0.083333333333333287
2306 419 -0.16666666666666669
2307 419 -0.083333333333333343
2308 419 -0.083333333333333315
2309 419 0.16666666666666669
2311 419 -0.083333333333333343
2402 419 -0.083333333333333329
420 420 2.666666666666667
421 420 -0.33333333333333337
451 420 -0.33333333333333337
2212 420 -0.083333333333333343
2213 420 -0.083333333333333343
2214 420 0.16666666666666669
2216 420 -0.083333333333333343
2217 420 -0.16666666666666669
2307 420 -0.083333333333333287
2309 420 -0.16666666666666669
2310 420 -0.083333333333333343
2311 420 -0.083333333333333315
2312 420 0.16666666666666669
2314 420 -0.083333333333333343
2405 420 -0.083333333333333329
421 421 2.666666666666667
422 421 -0.33333333333333337
452 421 -0.33333333333333337
2215 421 -0.083333333333333343
2216 421 -0.083333333333333343
2217 421 0.16666666666666669
2219 421 -0.083333333333333343
2220 421 -0.16666666666666669
2310 421 -0.083333333333333287
2312 421 -0.16666666666666669
2313 421 -0.083333333333333343
2314 421 -0.083333333333333315
2315 421 0.16666666666666669
2317 421 -0.083333333333333343
2408 421 -0.083333333333333329
422 422 2.666666666666667
423 422 -0.33333333333333337
453 422 -0.33333333333333337
2218 422 -0.083333333333333343
2219 422 -0.083333333333333343
2220 422 0.16666666666666669
2222 422 -0.083333333333333343
2223 422 -0.16666666666666669
2313 422 -0.083333333333333287
2315 422 -0.16666666666666669
2316 422 -0.083333333333333343
2317 422 -0.083333333333333315
2318 422 0.16666666666666669
2320 422 -0.083333333333333343
2411 422 -0.083333333333333329
423 423 2.666666666666667
424 423 -0.33333333333333337
454 423 -0.33333333333333337
2221 423 -0.083333333333333343
2222 423 -0.083333333333333343
2223 423 0.16666666666666669
2225 423 -0.083333333333333343
2226 423 -0.16666666666666669
2316 423 -0.083333333333333287
2318 423 -0.16666666666666669
2319 423 -0.083333333333333343
2320 423 -0.083333333333333315
2321 423 0.16666666666666669
2323 423 -0.083333333333333343
2414 423 -0.083333333333333329
424 424 2.666666666666667
425 424 -0.33333333333333337
455 424 -0.33333333333333337
2224 424 -0.083333333333333343
2225 424 -0.083333333333333343
2226 424 0.16666666666666669
2228 424 -0.083333333333333343
2229 424 -0.16666666666666669
2319 424 -0.083333333333333287
2321 424 -0.16666666666666669
2322 424 -0.083333333333333343
2323 424 -0.083333333333333315
2324 424 0.16666666666666669
2326 424 -0.083333333333333343
2417 424 -0.083333333333333329
425 425 2.666666666666667
426 425 -0.33333333333333337
456 425 -0.33333333333333337
2227 425 -0.083333333333333343
2228 425 -0.083333333333333343
2229 425 0.16666666666666669
2231 425 -0.083333333333333343
2232 425 -0.16666666666666669
2322 425 -0.083333333333333287
2324 425 -0.16666666666666669
2325 425 -0.083333333333333343
2326 425 -0.083333333333333315
2327 425 0.16666666666666669
2329 425 -0.083333333333333343
2420 425 -0.083333333333333329
426 426 2.666666666666667
427 426 -0.33333333333333337
457 426 -0.33333333333333337
2230 426 -0.083333333333333343
2231 426 -0.083333333333333343
2232 426 0.16666666666666669
2234 426 -0.083333333333333343
2235 426 -0.16666666666666669
2325 426 -0.083333333333333287
2327 426 -0.16666666666666669
2328 426 -0.083333333333333343
2329 426 -0.083333333333333315
2330 426 0.16666666666666669
2332 426 -0.083333333333333343
2423 426 -0.083333333333333329
427 427 2.666666666666667
428 427 -0.33333333333333337
458 427 -0.33333333333333337
2233 427 -0.083333333333333343
2234 427 -0.083333333333333343
2235 427 0.16666666666666669
2237 427 -0.083333333333333343
2238 427 -0.16666666666666669
2328 427 -0.083333333333333287
2330 427 -0.16666666666666669
2331 427 -0.083333333333333343
2332 427 -0.083333333333333315
2333 427 0.16666666666666669
2335 427 -0.083333333333333343
2426 427 -0.083333333333333329
428 428 2.666666666666667
429 428 -0.33333333333333337
459 428 -0.33333333333333337
2236 428 -0.083333333333333343
2237 428 -0.083333333333333343
2238 428 0.16666666666666669
2240 428 -0.083333333333333343
2241 428 -0.16666666666666669
2331 428 -0.083333333333333287
2333 428 -0.16666666666666669
2334 428 -0.083333333333333343
2335 428 -0.083333333333333315
2336 428 0.16666666666666669
2338 428 -0.083333333333333343
2429 428 -0.083333333333333329
429 429 2.666666666666667
430 429 -0.33333333333333337
460 429 -0.33333333333333337
2239 429 -0.083333333333333343
2240 429 -0.083333333333333343
2241 429 0.16666666666666669
2243 429 -0.083333333333333343
2244 429 -0.16666666666666669
2334 429 -0.083333333333333287
2336 429 -0.16666666666666669
2337 429 -0.083333333333333343
2338 429 -0.083333333333333315
2339 429 0.16666666666666669
2341 429 -0.083333333333333343
2432 429 -0.083333333333333329
430 430 2.666666666666667
431 430 -0.33333333333333337
461 430 -0.33333333333333337
2242 430 -0.083333333333333343
2243 430 -0.083333333333333343
2244 430 0.16666666666666669
2246 430 -0.083333333333333343
2247 430 -0.16666666666666669
2337 430 -0.083333333333333287
2339 430 -0.16666666666666669
2340 430 -0.083333333333333343
2341 430 -0.083333333333333315
2342 430 0.16666666666666669
2344 430 -0.083333333333333343
2435 430 -0.083333333333333329
431 431 2.666666666666667
432 431 -0.33333333333333337
462 431 -0.33333333333333337
2245 431 -0.083333333333333343
2246 431 -0.083333333333333343
2247 431 0.16666666666666669
2249 431 -0.083333333333333343
2250 431 -0.16666666666666669
2340 431 -0.083333333333333287
2342 431 -0.16666666666666669
2343 431 -0.083333333333333343
2344 431 -0.083333333333333315
2345 431 0.16666666666666669
2347 431 -0.083333333333333343
2438 431 -0.083333333333333329
432 432 2.666666666666667
433 432 -0.33333333333333337
463 432 -0.33333333333333337
2248 432 -0.083333333333333343
2249 432 -0.083333333333333343
2250 432 0.16666666666666669
2252 432 -0.083333333333333343
2253 432 -0.16666666666666669
2343 432 -0.083333333333333287
2345 432 -0.16666666666666669
2346 432 -0.083333333333333343
2347 432 -0.083333333333333315
2348 432 0.16666666666666669
2350 432 -0.083333333333333343
2441 432 -0.083333333333333329
433 433 2.666666666666667
434 433 -0.33333333333333337
464 433 -0.33333333333333337
2251 433 -0.083333333333333343
2252 433 -0.083333333333333343
2253 433 0.16666666666666669
2255 433 -0.083333333333333343
2256 433 -0.16666666666666669
2346 433 -0.083333333333333287
2348 433 -0.16666666666666669
2349 433 -0.083333333333333343
2350 433 -0.083333333333333315
2351 433 0.16666666666666669
2353 433 -0.083333333333333343
2444 433 -0.083333333333333329
434 434 2.666666666666667
465 434 -0.33333333333333337
2254 434 -0.083333333333333343
2255 434 -0.083333333333333343
2256 434 0.16666666666666669
2258 434 -0.083333333333333343
2259 434 -0.16666666666666669
2349 434 -0.083333333333333287
2351 434 -0.16666666666666669
2352 434 -0.083333333333333343
2353 434 -0.083333333333333315
2354 434 0.16666666666666669
2447 434 -0.083333333333333329
435 435 2.666666666666667
436 435 -0.33333333333333337
466 435 -0.33333333333333337
2260 435 -0.083333333333333343
2261 435 0.16666666666666669
2263 435 -0.083333333333333343
2264 435 -0.16666666666666669
2355 435 -0.083333333333333287
2356 435 -0.16666666666666669
2357 435 -0.083333333333333343
2358 435 -0.083333333333333315
2359 435 0.16666666666666669
2361 435 -0.083333333333333343
2452 435 -0.083333333333333329
436 436 2.666666666666667
437 436 -0.33333333333333337
467 436 -0.33333333333333337
2262 436 -0.083333333333333343
2263 436 -0.083333333333333343
2264 436 0.16666666666666669
2266 436 -0.083333333333333343
2267 436 -0.16666666666666669
2357 436 -0.083333333333333287
2359 436 -0.16666666666666669
2360 436 -0.083333333333333343
2361 436 -0.083333333333333315
2362 436 0.16666666666666669
2364 436 -0.083333333333333343
2455 436 -0.083333333333333329
437 437 2.666666666666667
438 437 -0.33333333333333337
468 437 -0.33333333333333337
2265 437 -0.083333333333333343
2266 437 -0.083333333333333343
2267 437 0.16666666666666669
2269 437 -0.083333333333333343
2270 437 -0.16666666666666669
2360 437 -0.083333333333333287
2362 437 -0.16666666666666669
2363 437 -0.083333333333333343
2364 437 -0.083333333333333315
2365 437 0.16666666666666669
2367 437 -0.083333333333333343
2458 437 -0.083333333333333329
438 438 2.666666666666667
439 438 -0.33333333333333337
469 438 -0.33333333333333337
2268 438 -0.083333333333333343
2269 438 -0.083333333333333343
2270 438 0.16666666666666669
2272 438 -0.083333333333333343
2273 438 -0.16666666666666669
2363 438 -0.083333333333333287
2365 438 -0.16666666666666669
2366 438 -0.083333333333333343
2367 438 -0.083333333333333315
2368 438 0.16666666666666669
2370 438 -0.083333333333333343
2461 438 -0.083333333333333329
439 439 2.666666666666667
440 439 -0.33333333333333337
470 439 -0.33333333333333337
2271 439 -0.083333333333333343
2272 439 -0.083333333333333343
2273 439 0.16666666666666669
2275 439 -0.083333333333333343
2276 439 -0.16666666666666669
2366 439 -0.083333333333333287
2368 439 -0.16666666666666669
2369 439 -0.083333333333333343
2370 439 -0.083333333333333315
2371 439 0.16666666666666669
2373 439 -0.083333333333333343
2464 439 -0.083333333333333329
440 440 2.666666666666667
441 440 -0.33333333333333337
471 440 -0.33333333333333337
2274 440 -0.083333333333333343
2275 440 -0.083333333333333343
2276 440 0.16666666666666669
2278 440 -0.083333333333333343
2279 440 -0.16666666666666669
2369 440 -0.083333333333333287
2371 440 -0.16666666666666669
2372 440 -0.083333333333333343
2373 440 -0.083333333333333315
2374 440 0.16666666666666669
2376 440 -0.083333333333333343
2467 440 -0.083333333333333329
441 441 2.666666666666667
442 441 -0.33333333333333337
472 441 -0.33333333333333337
2277 441 -0.083333333333333343
2278 441 -0.083333333333333343
2279 441 0.16666666666666669
2281 441 -0.083333333333333343
2282 441 -0.16666666666666669
2372 441 -0.083333333333333287
2374 441 -0.16666666666666669
2375 441 -0.083333333333333343
2376 441 -0.083333333333333315
2377 441 0.16666666666666669
2379 441 -0.083333333333333343
2470 441 -0.083333333333333329
442 442 2.666666666666667
443 442 -0.33333333333333337
473 442 -0.33333333333333337
2280 442 -0.083333333333333343
2281 442 -0.083333333333333343
2282 442 0.16666666666666669
2284 442 -0.083333333333333343
2285 442 -0.16666666666666669
2375 442 -0.083333333333333287
2377 442 -0.16666666666666669
2378 442 -0.083333333333333343
2379 442 -0.083333333333333315
2380 442 0.16666666666666669
2382 442 -0.083333333333333343
2473 442 -0.083333333333333329
443 443 2.666666666666667
444 443 -0.33333333333333337
474 443 -0.33333333333333337
2283 443 -0.083333333333333343
2284 443 -0.083333333333333343
2285 443 0.16666666666666669
2287 443 -0.083333333333333343
2288 443 -0.16666666666666669
2378 443 -0.083333333333333287
2380 443 -0.16666666666666669
2381 443 -0.083333333333333343
2382 443 -0.083333333333333315
2383 443 0.16666666666666669
2385 443 -0.083333333333333343
2476 443 -0.083333333333333329
444 444 2.666666666666667
445 444 -0.33333333333333337
475 444 -0.33333333333333337
2286 444 -0.083333333333333343
2287 444 -0.083333333333333343
2288 444 0.16666666666666669
2290 444 -0.083333333333333343
2291 444 -0.16666666666666669
2381 444 -0.083333333333333287
2383 444 -0.16666666666666669
2384 444 -0.083333333333333343
2385 444 -0.083333333333333315
2386 444 0.16666666666666669
2388 444 -0.083333333333333343
2479 444 -0.083333333333333329
445 445 2.666666666666667
446 445 -0.33333333333333337
476 445 -0.33333333333333337
2289 445 -0.083333333333333343
2290 445 -0.083333333333333343
2291 445 0.16666666666666669
2293 445 -0.083333333333333343
2294 445 -0.16666666666666669
2384 445 -0.083333333333333287
2386 445 -0.16666666666666669
2387 445 -0.083333333333333343
2388 445 -0.083333333333333315
2389 445 0.16666666666666669
2391 445 -0.083333333333333343
2482 445 -0.083333333333333329
446 446 2.666666666666667
447 446 -0.33333333333333337
477 446 -0.33333333333333337
2292 446 -0.083333333333333343
2293 446 -0.083333333333333343
2294 446 0.16666666666666669
2296 446 -0.083333333333333343
2297 446 -0.16666666666666669
2387 446 -0.083333333333333287
2389 446 -0.16666666666666669
2390 446 -0.083333333333333343
2391 446 -0.083333333333333315
2392 446 0.16666666666666669
2394 446 -0.083333333333333343
2485 446 -0.083333333333333329
447 447 2.666666666666667
448 447 -0.33333333333333337
478 447 -0.33333333333333337
2295 447 -0.083333333333333343
2296 447 -0.083333333333333343
2297 447 0.16666666666666669
2299 447 -0.083333333333333343
2300 447 -0.16666666666666669
2390 447 -0.083333333333333287
2392 447 -0.16666666666666669
2393 447 -0.083333333333333343
2394 447 -0.083333333333333315
2395 447 0.16666666666666669
2397 447 -0.083333333333333343
2488 447 -0.083333333333333329
448 448 2.666666666666667
449 448 -0.33333333333333337
479 448 -0.33333333333333337
2298 448 -0.083333333333333343
2299 448 -0.083333333333333343
2300 448 0.16666666666666669
2302 448 -0.083333333333333343
2303 448 -0.16666666666666669
2393 448 -0.083333333333333287
2395 448 -0.16666666666666669
2396 448 -0.083333333333333343
2397 448 -0.083333333333333315
2398 448 0.16666666666666669
2400 448 -0.083333333333333343
2491 448 -0.083333333333333329
449 449 2.666666666666667
450 449 -0.33333333333333337
480 449 -0.33333333333333337
2301 449 -0.083333333333333343
2302 449 -0.083333333333333343
2303 449 0.16666666666666669
2305 449 -0.083333333333333343
2306 449 -0.16666666666666669
2396 449 -0.083333333333333287
2398 449 -0.16666666666666669
2399 449 -0.083333333333333343
2400 449 -0.083333333333333315
2401 449 0.16666666666666669
2403 449 -0.083333333333333343
2494 449 -0.083333333333333329
450 450 2.666666666666667
451 450 -0.33333333333333337
481 450 -0.33333333333333337
2304 450 -0.083333333333333343
2305 450 -0.083333333333333343
2306 450 0.16666666666666669
2308 450 -0.083333333333333343
2309 450 -0.16666666666666669
2399 450 -0.083333333333333287
2401 450 -0.16666666666666669
2402 450 -0.083333333333333343
2403 450 -0.083333333333333315
2404 450 0.16666666666666669
2406 450 -0.083333333333333343
2497 450 -0.083333333333333329
451 451 2.666666666666667
452 451 -0.33333333333333337
482 451 -0.33333333333333337
2307 451 -0.083333333333333343
2308 451 -0.083333333333333343
2309 451 0.16666666666666669
2311 451 -0.083333333333333343
2312 451 -0.16666666666666669
2402 451 -0.083333333333333287
2404 451 -0.16666666666666669
2405 451 -0.083333333333333343
2406 451 -0.083333333333333315
2407 451 0.16666666666666669
2409 451 -0.083333333333333343
2500 451 -0.083333333333333329
452 452 2.666666666666667
453 452 -0.33333333333333337
483 452 -0.33333333333333337
2310 452 -0.083333333333333343
2311 452 -0.083333333333333343
2312 452 0.16666666666666669
2314 452 -0.083333333333333343
2315 452 -0.16666666666666669
2405 452 -0.083333333333333287
2407 452 -0.16666666666666669
2408 452 -0.083333333333333343
2409 452 -0.083333333333333315
2410 452 0.16666666666666669
2412 452 -0.083333333333333343
2503 452 -0.083333333333333329
453 453 2.666666666666667
454 453 -0.33333333333333337
484 453 -0.33333333333333337
2313 453 -0.083333333333333343
2314 453 -0.083333333333333343
2315 453 0.16666666666666669
2317 453 -0.083333333333333343
2318 453 -0.16666666666666669
2408 453 -0.083333333333333287
2410 453 -0.16666666666666669
2411 453 -0.083333333333333343
2412 453 -0.083333333333333315
2413 453 0.16666666666666669
2415 453 -0.083333333333333343
2506 453 -0.083333333333333329
454 454 2.666666666666667
455 454 -0.33333333333333337
485 454 -0.33333333333333337
2316 454 -0.083333333333333343
2317 454 -0.083333333333333343
2318 454 0.16666666666666669
2320 454 -0.083333333333333343
2321 454 -0.16666666666666669
2411 454 -0.083333333333333287
2413 454 -0.16666666666666669
2414 454 -0.083333333333333343
2415 454 -0.083333333333333315
2416 454 0.16666666666666669
2418 454 -0.083333333333333343
2509 454 -0.083333333333333329
455 455 2.666666666666667
456 455 -0.33333333333333337
486 455 -0.33333333333333337
2319 455 -0.083333333333333343
2320 455 -0.083333333333333343
2321 455 0.16666666666666669
2323 455 -0.083333333333333343
2324 455 -0.16666666666666669
2414 455 -0.083333333333333287
2416 455 -0.16666666666666669
2417 455 -0.083333333333333343
2418 455 -0.083333333333333315
2419 455 0.16666666666666669
2421 455 -0.083333333333333343
2512 455 -0.083333333333333329
456 456 2.666666666666667
457 456 -0.33333333333333337
487 456 -0.33333333333333337
2322 456 -0.083333333333333343
2323 456 -0.083333333333333343
2324 456 0.16666666666666669
2326 456 -0.083333333333333343
2327 456 -0.16666666666666669
2417 456 -0.083333333333333287
2419 456 -0.16666666666666669
2420 456 -0.083333333333333343
2421 456 -0.083333333333333315
2422 456 0.16666666666666669
2424 456 -0.083333333333333343
2515 456 -0.083333333333333329
457 457 2.666666666666667
458 457 -0.33333333333333337
488 457 -0.33333333333333337
2325 457 -0.083333333333333343
2326 457 -0.083333333333333343
2327 457 0.16666666666666669
2329 457 -0.083333333333333343
2330 457 -0.16666666666666669
2420 457 -0.083333333333333287
2422 457 -0.16666666666666669
2423 457 -0.083333333333333343
2424 457 -0.083333333333333315
2425 457 0.16666666666666669
2427 457 -0.083333333333333343
2518 457 -0.083333333333333329
458 458 2.666666666666667
459 458 -0.33333333333333337
489 458 -0.33333333333333337
2328 458 -0.083333333333333343
2329 458 -0.083333333333333343
2330 458 0.16666666666666669
2332 458 -0.083333333333333343
2333 458 -0.16666666666666669
2423 458 -0.083333333333333287
2425 458 -0.16666666666666669
2426 458 -0.083333333333333343
2427 458 -0.083333333333333315
2428 458 0.16666666666666669
2430 458 -0.083333333333333343
2521 458 -0.083333333333333329
459 459 2.666666666666667
460 459 -0.33333333333333337
490 459 -0.33333333333333337
2331 459 -0.083333333333333343
2332 459 -0.083333333333333343
2333 459 0.16666666666666669
2335 459 -0.083333333333333343
2336 459 -0.16666666666666669
2426 459 -0.083333333333333287
2428 459 -0.16666666666666669
2429 459 -0.083333333333333343
2430 459 -0.083333333333333315
2431 459 0.16666666666666669
2433 459 -0.083333333333333343
2524 459 -0.083333333333333329
460 460 2.666666666666667
461 460 -0.33333333333333337
491 460 -0.33333333333333337
2334 460 -0.083333333333333343
2335 460 -0.083333333333333343
2336 460 0.16666666666666669
2338 460 -0.083333333333333343
2339 460 -0.16666666666666669
2429 460 -0.083333333333333287
2431 460 -0.16666666666666669
2432 460 -0.083333333333333343
2433 460 -0.083333333333333315
2434 460 0.16666666666666669
2436 460 -0.083333333333333343
2527 460 -0.083333333333333329
461 461 2.666666666666667
462 461 -0.33333333333333337
492 461 -0.33333333333333337
2337 461 -0.083333333333333343
2338 461 -0.083333333333333343
2339 461 0.16666666666666669
2341 461 -0.083333333333333343
2342 461 -0.16666666666666669
2432 461 -0.083333333333333287
2434 461 -0.16666666666666669
2435 461 -0.083333333333333343
2436 461 -0.083333333333333315
2437 461 0.16666666666666669
2439 461 -0.083333333333333343
2530 461 -0.083333333333333329
462 462 2.666666666666667
463 462 -0.33333333333333337
493 462 -0.33333333333333337
2340 462 -0.083333333333333343
2341 462 -0.083333333333333343
2342 462 0.16666666666666669
2344 462 -0.083333333333333343
2345 462 -0.16666666666666669
2435 462 -0.083333333333333287
2437 462 -0.16666666666666669
2438 462 -0.083333333333333343
2439 462 -0.083333333333333315
2440 462 0.16666666666666669
2442 462 -0.083333333333333343
2533 462 -0.083333333333333329
463 463 2.666666666666667
464 463 -0.33333333333333337
494 463 -0.33333333333333337
2343 463 -0.083333333333333343
2344 463 -0.083333333333333343
2345 463 0.16666666666666669
2347 463 -0.083333333333333343
2348 463 -0.16666666666666669
2438 463 -0.083333333333333287
2440 463 -0.16666666666666669
2441 463 -0.083333333333333343
2442 463 -0.083333333333333315
2443 463 0.16666666666666669
2445 463 -0.083333333333333343
2536 463 -0.083333333333333329
464 464 2.666666666666667
465 464 -0.33333333333333337
495 464 -0.33333333333333337
2346 464 -0.083333333333333343
2347 464 -0.083333333333333343
2348 464 0.16666666666666669
2350 464 -0.083333333333333343
2351 464 -0.16666666666666669
2441 464 -0.083333333333333287
2443 464 -0.16666666666666669
2444 464 -0.083333333333333343
2445 464 -0.083333333333333315
2446 464 0.16666666666666669
2448 464 -0.083333333333333343
2539 464 -0.083333333333333329
465 465 2.666666666666667
496 465 -0.33333333333333337
2349 465 -0.083333333333333343
2350 465 -0.083333333333333343
2351 465 0.16666666666666669
2353 465 -0.083333333333333343
2354 465 -0.16666666666666669
2444 465 -0.083333333333333287
2446 465 -0.16666666666666669
2447 465 -0.083333333333333343
2448 465 -0.083333333333333315
2449 465 0.16666666666666669
2542 465 -0.083333333333333329
466 466 2.666666666666667
467 466 -0.33333333333333337
497 466 -0.33333333333333337
2355 466 -0.083333333333333343
2356 466 0.16666666666666669
2358 466 -0.083333333333333343
2359 466 -0.16666666666666669
2450 466 -0.083333333333333287
2451 466 -0.16666666666666669
2452 466 -0.083333333333333343
2453 466 -0.083333333333333315
2454 466 0.16666666666666669
2456 466 -0.083333333333333343
2547 466 -0.083333333333333329
467 467 2.666666666666667
468 467 -0.33333333333333337
498 467 -0.33333333333333337
2357 467 -0.083333333333333343
2358 467 -0.083333333333333343
2359 467 0.16666666666666669
2361 467 -0.083333333333333343
2362 467 -0.16666666666666669
2452 467 -0.083333333333333287
2454 467 -0.16666666666666669
2455 467 -0.083333333333333343
2456 467 -0.083333333333333315
2457 467 0.16666666666666669
2459 467 -0.083333333333333343
2550 467 -0.083333333333333329
468 468 2.666666666666667
469 468 -0.33333333333333337
499 468 -0.33333333333333337
2360 468 -0.083333333333333343
2361 468 -0.083333333333333343
2362 468 0.16666666666666669
2364 468 -0.083333333333333343
2365 468 -0.16666666666666669
2455 468 -0.083333333333333287
2457 468 -0.16666666666666669
2458 468 -0.083333333333333343
2459 468 -0.083333333333333315
2460 468 0.16666666666666669
2462 468 -0.083333333333333343
2553 468 -0.083333333333333329
469 469 2.666666666666667
470 469 -0.33333333333333337
500 469 -0.33333333333333337
2363 469 -0.083333333333333343
2364 469 -0.083333333333333343
2365 469 0.16666666666666669
2367 469 -0.083333333333333343
2368 469 -0.16666666666666669
2458 469 -0.083333333333333287
2460 469 -0.16666666666666669
2461 469 -0.083333333333333343
2462 469 -0.083333333333333315
2463 469 0.16666666666666669
2465 469 -0.083333333333333343
2556 469 -0.083333333333333329
470 470 2.666666666666667
471 470 -0.33333333333333337
501 470 -0.33333333333333337
2366 470 -0.083333333333333343
2367 470 -0.083333333333333343
2368 470 0.16666666666666669
2370 470 -0.083333333333333343
2371 470 -0.16666666666666669
2461 470 -0.083333333333333287
2463 470 -0.16666666666666669
2464 470 -0.083333333333333343
2465 470 -0.083333333333333315
2466 470 0.16666666666666669
2468 470 -0.083333333333333343
2559 470 -0.083333333333333329
471 471 2.666666666666667
472 471 -0.33333333333333337
502 471 -0.33333333333333337
2369 471 -0.083333333333333343
2370 471 -0.083333333333333343
2371 471 0.16666666666666669
2373 471 -0.083333333333333343
2374 471 -0.16666666666666669
2464 471 -0.083333333333333287
2466 471 -0.16666666666666669
2467 471 -0.083333333333333343
2468 471 -0.083333333333333315
2469 471 0.16666666666666669
2471 471 -0.083333333333333343
2562 471 -0.083333333333333329
472 472 2.666666666666667
473 472 -0.33333333333333337
503 472 -0.33333333333333337
2372 472 -0.083333333333333343
2373 472 -0.083333333333333343
2374 472 0.16666666666666669
2376 472 -0.083333333333333343
2377 472 -0.16666666666666669
2467 472 -0.083333333333333287
2469 472 -0.16666666666666669
2470 472 -0.083333333333333343
2471 472 -0.083333333333333315
2472 472 0.16666666666666669
2474 472 -0.083333333333333343
2565 472 -0.083333333333333329
473 473 2.666666666666667
474 473 -0.33333333333333337
504 473 -0.33333333333333337
2375 473 -0.083333333333333343
2376 473 -0.083333333333333343
2377 473 0.16666666666666669
2379 473 -0.083333333333333343
2380 473 -0.16666666666666669
2470 473 -0.083333333333333287
2472 473 -0.16666666666666669
2473 473 -0.083333333333333343
2474 473 -0.083333333333333315
2475 473 0.16666666666666669
2477 473 -0.083333333333333343
2568 473 -0.083333333333333329
474 474 2.666666666666667
475 474 -0.33333333333333337
505 474 -0.33333333333333337
2378 474 -0.083333333333333343
2379 474 -0.083333333333333343
2380 474 0.16666666666666669
2382 474 -0.083333333333333343
2383 474 -0.16666666666666669
2473 474 -0.083333333333333287
2475 474 -0.16666666666666669
2476 474 -0.083333333333333343
2477 474 -0.083333333333333315
2478 474 0.16666666666666669
2480 474 -0.083333333333333343
2571 474 -0.083333333333333329
475 475 2.666666666666667
476 475 -0.33333333333333337
506 475 -0.33333333333333337
2381 475 -0.083333333333333343
2382 475 -0.083333333333333343
2383 475 0.16666666666666669
2385 475 -0.083333333333333343
2386 475 -0.16666666666666669
2476 475 -0.083333333333333287
2478 475 -0.16666666666666669
2479 475 -0.083333333333333343
2480 475 -0.083333333333333315
2481 475 0.16666666666666669
2483 475 -0.083333333333333343
2574 475 -0.083333333333333329
476 476 2.666666666666667
477 476 -0.33333333333333337
507 476 -0.33333333333333337
2384 476 -0.083333333333333343
2385 476 -0.083333333333333343
2386 476 0.16666666666666669
2388 476 -0.083333333333333343
2389 476 -0.16666666666666669
2479 476 -0.083333333333333287
2481 476 -0.16666666666666669
2482 476 -0.083333333333333343
2483 476 -0.083333333333333315
2484 476 0.16666666666666669
2486 476 -0.083333333333333343
2577 476 -0.083333333333333329
477 477 2.666666666666667
478 477 -0.33333333333333337
508 477 -0.33333333333333337
2387 477 -0.083333333333333343
2388 477 -0.083333333333333343
2389 477 0.16666666666666669
2391 477 -0.083333333333333343
2392 477 -0.16666666666666669
2482 477 -0.083333333333333287
2484 477 -0.16666666666666669
2485 477 -0.083333333333333343
2486 477 -0.083333333333333315
2487 477 0.16666666666666669
2489 477 -0.083333333333333343
2580 477 -0.083333333333333329
478 478 2.666666666666667
479 478 -0.33333333333333337
509 478 -0.33333333333333337
2390 478 -0.083333333333333343
2391 478 -0.083333333333333343
2392 478 0.16666666666666669
2394 478 -0.083333333333333343
2395 478 -0.16666666666666669
2485 478 -0.083333333333333287
2487 478 -0.16666666666666669
2488 478 -0.083333333333333343
2489 478 -0.083333333333333315
2490 478 0.16666666666666669
2492 478 -0.083333333333333343
2583 478 -0.083333333333333329
479 479 2.666666666666667
480 479 -0.33333333333333337
510 479 -0.33333333333333337
2393 479 -0.083333333333333343
2394 479 -0.083333333333333343
2395 479 0.16666666666666669
2397 479 -0.083333333333333343
2398 479 -0.16666666666666669
2488 479 -0.083333333333333287
2490 479 -0.16666666666666669
2491 479 -0.083333333333333343
2492 479 -0.083333333333333315
2493 479 0.16666666666666669
2495 479 -0.083333333333333343
2586 479 -0.083333333333333329
480 480 2.666666666666667
481 480 -0.33333333333333337
511 480 -0.33333333333333337
2396 480 -0.083333333333333343
2397 480 -0.083333333333333343
2398 480 0.16666666666666669
2400 480 -0.083333333333333343
2401 480 -0.16666666666666669
2491 480 -0.083333333333333287
2493 480 -0.16666666666666669
2494 480 -0.083333333333333343
2495 480 -0.083333333333333315
2496 480 0.16666666666666669
2498 480 -0.083333333333333343
2589 480 -0.083333333333333329
481 481 2.666666666666667
482 481 -0.33333333333333337
512 481 -0.33333333333333337
2399 481 -0.083333333333333343
2400 481 -0.083333333333333343
2401 481 0.16666666666666669
2403 481 -0.083333333333333343
2404 481 -0.16666666666666669
2494 481 -0.083333333333333287
2496 481 -0.16666666666666669
2497 481 -0.083333333333333343
2498 481 -0.083333333333333315
2499 481 0.16666666666666669
2501 481 -0.083333333333333343
2592 481 -0.083333333333333329
482 482 2.666666666666667
483 482 -0.33333333333333337
513 482 -0.33333333333333337
2402 482 -0.083333333333333343
2403 482 -0.083333333333333343
2404 482 0.16666666666666669
2406 482 -0.083333333333333343
2407 482 -0.16666666666666669
2497 482 -0.083333333333333287
2499 482 -0.16666666666666669
2500 482 -0.083333333333333343
2501 482 -0.083333333333333315
2502 482 0.16666666666666669
2504 482 -0.083333333333333343
2595 482 -0.083333333333333329
483 483 2.666666666666667
484 483 -0.33333333333333337
514 483 -0.33333333333333337
2405 483 -0.083333333333333343
2406 483 -0.083333333333333343
2407 483 0.16666666666666669
2409 483 -0.083333333333333343
2410 483 -0.16666666666666669
2500 483 -0.083333333333333287
2502 483 -0.16666666666666669
2503 483 -0.083333333333333343
2504 483 -0.083333333333333315
2505 483 0.16666666666666669
2507 483 -0.083333333333333343
2598 483 -0.083333333333333329
484 484 2.666666666666667
485 484 -0.33333333333333337
515 484 -0.33333333333333337
2408 484 -0.083333333333333343
2409 484 -0.083333333333333343
2410 484 0.16666666666666669
2412 484 -0.083333333333333343
2413 484 -0.16666666666666669
2503 484 -0.083333333333333287
2505 484 -0.16666666666666669
2506 484 -0.083333333333333343
2507 484 -0.083333333333333315
2508 484 0.16666666666666669
2510 484 -0.083333333333333343
2601 484 -0.083333333333333329
485 485 2.666666666666667
486 485 -0.33333333333333337
516 485 -0.33333333333333337
2411 485 -0.083333333333333343
2412 485 -0.083333333333333343
2413 485 0.16666666666666669
2415 485 -0.083333333333333343
2416 485 -0.16666666666666669
2506 485 -0.083333333333333287
2508 485 -0.16666666666666669
2509 485 -0.083333333333333343
2510 485 -0.083333333333333315
2511 485 0.16666666666666669
2513 485 -0.083333333333333343
2604 485 -0.083333333333333329
486 486 2.666666666666667
487 486 -0.33333333333333337
517 486 -0.33333333333333337
2414 486 -0.083333333333333343
2415 486 -0.083333333333333343
2416 486 0.16666666666666669
2418 486 -0.083333333333333343
2419 486 -0.16666666666666669
2509 486 -0.083333333333333287
2511 486 -0.16666666666666669
2512 486 -0.083333333333333343
2513 486 -0.083333333333333315
2514 486 0.16666666666666669
2516 486 -0.083333333333333343
2607 486 -0.083333333333333329
487 487 2.666666666666667
488 487 -0.33333333333333337
518 487 -0.33333333333333337
2417 487 -0.083333333333333343
2418 487 -0.083333333333333343
2419 487 0.16666666666666669
2421 487 -0.083333333333333343
2422 487 -0.16666666666666669
2512 487 -0.083333333333333287
2514 487 -0.16666666666666669
2515 487 -0.083333333333333343
2516 487 -0.083333333333333315
2517 487 0.16666666666666669
2519 487 -0.083333333333333343
2610 487 -0.083333333333333329
488 488 2.666666666666667
489 488 -0.33333333333333337
519 488 -0.33333333333333337
2420 488 -0.083333333333333343
2421 488 -0.083333333333333343
2422 488 0.16666666666666669
2424 488 -0.083333333333333343
2425 488 -0.16666666666666669
2515 488 -0.083333333333333287
2517 488 -0.16666666666666669
2518 488 -0.083333333333333343
2519 488 -0.083333333333333315
2520 488 0.16666666666666669
2522 488 -0.083333333333333343
2613 488 -0.083333333333333329
489 489 2.666666666666667
490 489 -0.33333333333333337
520 489 -0.33333333333333337
2423 489 -0.083333333333333343
2424 489 -0.083333333333333343
2425 489 0.16666666666666669
2427 489 -0.083333333333333343
2428 489 -0.16666666666666669
2518 489 -0.083333333333333287
2520 489 -0.16666666666666669
2521 489 -0.083333333333333343
2522 489 -0.083333333333333315
2523 489 0.16666666666666669
2525 489 -0.083333333333333343
2616 489 -0.083333333333333329
490 490 2.666666666666667
491 490 -0.33333333333333337
521 490 -0.33333333333333337
2426 490 -0.083333333333333343
2427 490 -0.083333333333333343
2428 490 0.16666666666666669
2430 490 -0.083333333333333343
2431 490 -0.16666666666666669
2521 490 -0.083333333333333287
2523 490 -0.16666666666666669
2524 490 -0.083333333333333343
2525 490 -0.083333333333333315
2526 490 0.16666666666666669
2528 490 -0.083333333333333343
2619 490 -0.083333333333333329
491 491 2.666666666666667
492 491 -0.33333333333333337
522 491 -0.33333333333333337
2429 491 -0.083333333333333343
2430 491 -0.083333333333333343
2431 491 0.16666666666666669
2433 491 -0.083333333333333343
2434 491 -0.16666666666666669
2524 491 -0.083333333333333287
2526 491 -0.16666666666666669
2527 491 -0.083333333333333343
2528 491 -0.083333333333333315
2529 491 0.16666666666666669
2531 491 -0.083333333333333343
2622 491 -0.083333333333333329
492 492 2.666666666666667
493 492 -0.33333333333333337
523 492 -0.33333333333333337
2432 492 -0.083333333333333343
2433 492 -0.083333333333333343
2434 492 0.16666666666666669
2436 492 -0.083333333333333343
2437 492 -0.16666666666666669
2527 492 -0.083333333333333287
2529 492 -0.16666666666666669
2530 492 -0.083333333333333343
2531 492 -0.083333333333333315
2532 492 0.16666666666666669
2534 492 -0.083333333333333343
2625 492 -0.083333333333333329
493 493 2.666666666666667
494 493 -0.33333333333333337
524 493 -0.33333333333333337
2435 493 -0.083333333333333343
2436 493 -0.083333333333333343
2437 493 0.16666666666666669
2439 493 -0.083333333333333343
2440 493 -0.16666666666666669
2530 493 -0.083333333333333287
2532 493 -0.16666666666666669
2533 493 -0.083333333333333343
2534 493 -0.083333333333333315
2535 493 0.16666666666666669
2537 493 -0.083333333333333343
2628 493 -0.083333333333333329
494 494 2.666666666666667
495 494 -0.33333333333333337
525 494 -0.33333333333333337
2438 494 -0.083333333333333343
2439 494 -0.083333333333333343
2440 494 0.16666666666666669
2442 494 -0.083333333333333343
2443 494 -0.16666666666666669
2533 494 -0.083333333333333287
2535 494 -0.16666666666666669
2536 494 -0.083333333333333343
2537 494 -0.083333333333333315
2538 494 0.16666666666666669
2540 494 -0.083333333333333343
2631 494 -0.083333333333333329
495 495 2.666666666666667
496 495 -0.33333333333333337
526 495 -0.33333333333333337
2441 495 -0.083333333333333343
2442 495 -0.083333333333333343
2443 495 0.16666666666666669
2445 495 -0.083333333333333343
2446 495 -0.16666666666666669
2536 495 -0.083333333333333287
2538 495 -0.16666666666666669
2539 495 -0.083333333333333343
2540 495 -0.083333333333333315
2541 495 0.16666666666666669
2543 495 -0.083333333333333343
2634 495 -0.083333333333333329
496 496 2.666666666666667
527 496 -0.33333333333333337
2444 496 -0.083333333333333343
2445 496 -0.083333333333333343
2446 496 0.16666666666666669
2448 496 -0.083333333333333343
2449 496 -0.16666666666666669
2539 496 -0.083333333333333287
2541 496 -0.16666666666666669
2542 496 -0.083333333333333343
2543 496 -0.083333333333333315
2544 496 0.16666666666666669
2637 496 -0.083333333333333329
497 497 2.666666666666667
498 497 -0.33333333333333337
528 497 -0.33333333333333337
2450 497 -0.083333333333333343
2451 497 0.16666666666666669
2453 497 -0.083333333333333343
2454 497 -0.16666666666666669
2545 497 -0.083333333333333287
2546 497 -0.16666666666666669
2547 497 -0.083333333333333343
2548 497 -0.083333333333333315
2549 497 0.16666666666666669
2551 497 -0.083333333333333343
2642 497 -0.083333333333333329
498 498 2.666666666666667
499 498 -0.33333333333333337
529 498 -0.33333333333333337
2452 498 -0.083333333333333343
2453 498 -0.083333333333333343
2454 498 0.16666666666666669
2456 498 -0.083333333333333343
2457 498 -0.16666666666666669
2547 498 -0.083333333333333287
2549 498 -0.16666666666666669
2550 498 -0.083333333333333343
2551 498 -0.083333333333333315
2552 498 0.16666666666666669
2554 498 -0.083333333333333343
2645 498 -0.083333333333333329
499 499 2.666666666666667
500 499 -0.33333333333333337
530 499 -0.33333333333333337
2455 499 -0.083333333333333343
2456 499 -0.083333333333333343
2457 499 0.16666666666666669
2459 499 -0.083333333333333343
2460 499 -0.16666666666666669
2550 499 -0.083333333333333287
2552 499 -0.16666666666666669
2553 499 -0.083333333333333343
2554 499 -0.083333333333333315
2555 499 0.16666666666666669
2557 499 -0.083333333333333343
2648 499 -0.083333333333333329
500 500 2.666666666666667
501 500 -0.33333333333333337
531 500 -0.33333333333333337
2458 500 -0.083333333333333343
2459 500 -0.083333333333333343
2460 500 0.16666666666666669
2462 500 -0.083333333333333343
2463 500 -0.16666666666666669
2553 500 -0.083333333333333287
2555 500 -0.16666666666666669
2556 500 -0.083333333333333343
2557 500 -0.083333333333333315
2558 500 0.16666666666666669
2560 500 -0.083333333333333343
2651 500 -0.083333333333333329
501 501 2.666666666666667
502 501 -0.33333333333333337
532 501 -0.33333333333333337
2461 501 -0.083333333333333343
2462 501 -0.083333333333333343
2463 501 0.16666666666666669
2465 501 -0.083333333333333343
2466 501 -0.16666666666666669
2556 501 -0.083333333333333287
2558 501 -0.16666666666666669
2559 501 -0.083333333333333343
2560 501 -0.083333333333333315
2561 501 0.16666666666666669
2563 501 -0.083333333333333343
2654 501 -0.083333333333333329
502 502 2.666666666666667
503 502 -0.33333333333333337
533 502 -0.33333333333333337
2464 502 -0.083333333333333343
2465 502 -0.083333333333333343
2466 502 0.16666666666666669
2468 502 -0.083333333333333343
2469 502 -0.16666666666666669
2559 502 -0.083333333333333287
2561 502 -0.16666666666666669
2562 502 -0.083333333333333343
2563 502 -0.083333333333333315
2564 502 0.16666666666666669
2566 502 -0.083333333333333343
2657 502 -0.083333333333333329
503 503 2.666666666666667
504 503 -0.33333333333333337
534 503 -0.33333333333333337
2467 503 -0.083333333333333343
2468 503 -0.083333333333333343
2469 503 0.16666666666666669
2471 503 -0.083333333333333343
2472 503 -0.16666666666666669
2562 503 -0.083333333333333287
2564 503 -0.16666666666666669
2565 503 -0.083333333333333343
2566 503 -0.083333333333333315
2567 503 0.16666666666666669
2569 503 -0.083333333333333343
2660 503 -0.083333333333333329
504 504 2.666666666666667
505 504 -0.33333333333333337
535 504 -0.33333333333333337
2470 504 -0.083333333333333343
2471 504 -0.083333333333333343
2472 504 0.16666666666666669
2474 504 -0.083333333333333343
2475 504 -0.16666666666666669
2565 504 -0.083333333333333287
2567 504 -0.16666666666666669
2568 504 -0.083333333333333343
2569 504 -0.083333333333333315
2570 504 0.16666666666666669
2572 504 -0.083333333333333343
2663 504 -0.083333333333333329
505 505 2.666666666666667
506 505 -0.33333333333333337
536 505 -0.33333333333333337
2473 505 -0.083333333333333343
2474 505 -0.083333333333333343
2475 505 0.16666666666666669
2477 505 -0.083333333333333343
2478 505 -0.16666666666666669
2568 505 -0.083333333333333287
2570 505 -0.16666666666666669
2571 505 -0.083333333333333343
2572 505 -0.083333333333333315
2573 505 0.16666666666666669
2575 505 -0.083333333333333343
2666 505 -0.083333333333333329
506 506 2.666666666666667
507 506 -0.33333333333333337
537 506 -0.33333333333333337
2476 506 -0.083333333333333343
2477 506 -0.083333333333333343
2478 506 0.16666666666666669
2480 506 -0.083333333333333343
2481 506 -0.16666666666666669
2571 506 -0.083333333333333287
2573 506 -0.16666666666666669
2574 506 -0.083333333333333343
2575 506 -0.083333333333333315
2576 506 0.16666666666666669
2578 506 -0.083333333333333343
2669 506 -0.083333333333333329
507 507 2.666666666666667
508 507 -0.33333333333333337
538 507 -0.33333333333333337
2479 507 -0.083333333333333343
2480 507 -0.083333333333333343
2481 507 0.16666666666666669
2483 507 -0.083333333333333343
2484 507 -0.16666666666666669
2574 507 -0.083333333333333287
2576 507 -0.16666666666666669
2577 507 -0.083333333333333343
2578 507 -0.083333333333333315
2579 507 0.16666666666666669
2581 507 -0.083333333333333343
2672 507 -0.083333333333333329
508 508 2.666666666666667
509 508 -0.33333333333333337
539 508 -0.33333333333333337
2482 508 -0.083333333333333343
2483 508 -0.083333333333333343
2484 508 0.16666666666666669
2486 508 -0.083333333333333343
2487 508 -0.16666666666666669
2577 508 -0.083333333333333287
2579 508 -0.16666666666666669
2580 508 -0.083333333333333343
2581 508 -0.083333333333333315
2582 508 0.16666666666666669
2584 508 -0.083333333333333343
2675 508 -0.083333333333333329
509 509 2.666666666666667
510 509 -0.33333333333333337
540 509 -0.33333333333333337
2485 509 -0.083333333333333343
2486 509 -0.083333333333333343
2487 509 0.16666666666666669
2489 509 -0.083333333333333343
2490 509 -0.16666666666666669
2580 509 -0.083333333333333287
2582 509 -0.16666666666666669
2583 509 -0.083333333333333343
2584 509 -0.083333333333333315
2585 509 0.16666666666666669
2587 509 -0.083333333333333343
2678 509 -0.083333333333333329
510 510 2.666666666666667
511 510 -0.33333333333333337
541 510 -0.33333333333333337
2488 510 -0.083333333333333343
2489 510 -0.083333333333333343
2490 510 0.16666666666666669
2492 510 -0.083333333333333343
2493 510 -0.16666666666666669
2583 510 -0.083333333333333287
2585 510 -0.16666666666666669
2586 510 -0.083333333333333343
2587 510 -0.083333333333333315
2588 510 0.16666666666666669
2590 510 -0.083333333333333343
2681 510 -0.083333333333333329
511 511 2.666666666666667
512 511 -0.33333333333333337
542 511 -0.33333333333333337
2491 511 -0.083333333333333343
2492 511 -0.083333333333333343
2493 511 0.16666666666666669
2495 511 -0.083333333333333343
2496 511 -0.16666666666666669
2586 511 -0.083333333333333287
2588 511 -0.16666666666666669
2589 511 -0.083333333333333343
2590 511 -0.083333333333333315
2591 511 0.16666666666666669
2593 511 -0.083333333333333343
2684 511 -0.083333333333333329
512 512 2.666666666666667
513 512 -0.33333333333333337
543 512 -0.33333333333333337
2494 512 -0.083333333333333343
2495 512 -0.083333333333333343
2496 512 0.16666666666666669
2498 512 -0.083333333333333343
2499 512 -0.16666666666666669
2589 512 -0.083333333333333287
2591 512 -0.16666666666666669
2592 512 -0.083333333333333343
2593 512 -0.083333333333333315
2594 512 0.16666666666666669
2596 512 -0.083333333333333343
2687 512 -0.083333333333333329
513 513 2.666666666666667
514 513 -0.33333333333333337
544 513 -0.33333333333333337
2497 513 -0.083333333333333343
2498 513 -0.083333333333333343
2499 513 0.16666666666666669
2501 513 -0.083333333333333343
2502 513 -0.16666666666666669
2592 513 -0.083333333333333287
2594 513 -0.16666666666666669
2595 513 -0.083333333333333343
2596 513 -0.083333333333333315
2597 513 0.16666666666666669
2599 513 -0.083333333333333343
2690 513 -0.083333333333333329
514 514 2.666666666666667
515 514 -0.33333333333333337
545 514 -0.33333333333333337
2500 514 -0.083333333333333343
2501 514 -0.083333333333333343
2502 514 0.16666666666666669
2504 514 -0.083333333333333343
2505 514 -0.16666666666666669
2595 514 -0.083333333333333287
2597 514 -0.16666666666666669
2598 514 -0.083333333333333343
2599 514 -0.083333333333333315
2600 514 0.16666666666666669
2602 514 -0.083333333333333343
2693 514 -0.083333333333333329
515 515 2.666666666666667
516 515 -0.33333333333333337
546 515 -0.33333333333333337
2503 515 -0.083333333333333343
2504 515 -0.083333333333333343
2505 515 0.16666666666666669
2507 515 -0.083333333333333343
2508 515 -0.16666666666666669
2598 515 -0.083333333333333287
2600 515 -0.16666666666666669
2601 515 -0.083333333333333343
2602 515 -0.083333333333333315
2603 515 0.16666666666666669
2605 515 -0.083333333333333343
2696 515 -0.083333333333333329
516 516 2.666666666666667
517 516 -0.33333333333333337
547 516 -0.33333333333333337
2506 516 -0.083333333333333343
2507 516 -0.083333333333333343
2508 516 0.16666666666666669
2510 516 -0.083333333333333343
2511 516 -0.16666666666666669
2601 516 -0.083333333333333287
2603 516 -0.16666666666666669
2604 516 -0.083333333333333343
2605 516 -0.083333333333333315
2606 516 0.16666666666666669
2608 516 -0.083333333333333343
2699 516 -0.083333333333333329
517 517 2.666666666666667
518 517 -0.33333333333333337
548 517 -0.33333333333333337
2509 517 -0.083333333333333343
2510 517 -0.083333333333333343
2511 517 0.16666666666666669
2513 517 -0.083333333333333343
2514 517 -0.16666666666666669
2604 517 -0.083333333333333287
2606 517 -0.16666666666666669
2607 517 -0.083333333333333343
2608 517 -0.083333333333333315
2609 517 0.16666666666666669
2611 517 -0.083333333333333343
2702 517 -0.083333333333333329
518 518 2.666666666666667
519 518 -0.33333333333333337
549 518 -0.33333333333333337
2512 518 -0.083333333333333343
2513 518 -0.083333333333333343
2514 518 0.16666666666666669
2516 518 -0.083333333333333343
2517 518 -0.16666666666666669
2607 518 -0.083333333333333287
2609 518 -0.16666666666666669
2610 518 -0.083333333333333343
2611 518 -0.083333333333333315
2612 518 0.16666666666666669
2614 518 -0.083333333333333343
2705 518 -0.083333333333333329
519 519 2.666666666666667
520 519 -0.33333333333333337
550 519 -0.33333333333333337
2515 519 -0.083333333333333343
2516 519 -0.083333333333333343
2517 519 0.16666666666666669
2519 519 -0.083333333333333343
2520 519 -0.16666666666666669
2610 519 -0.083333333333333287
2612 519 -0.16666666666666669
2613 519 -0.083333333333333343
2614 519 -0.083333333333333315
2615 519 0.16666666666666669
2617 519 -0.083333333333333343
2708 519 -0.083333333333333329
520 520 2.666666666666667
521 520 -0.33333333333333337
551 520 -0.33333333333333337
2518 520 -0.083333333333333343
2519 520 -0.083333333333333343
2520 520 0.16666666666666669
2522 520 -0.083333333333333343
2523 520 -0.16666666666666669
2613 520 -0.083333333333333287
2615 520 -0.16666666666666669
2616 520 -0.083333333333333343
2617 520 -0.083333333333333315
2618 520 0.16666666666666669
2620 520 -0.083333333333333343
2711 520 -0.083333333333333329
521 521 2.666666666666667
522 521 -0.33333333333333337
552 521 -0.33333333333333337
2521 521 -0.083333333333333343
2522 521 -0.083333333333333343
2523 521 0.16666666666666669
2525 521 -0.083333333333333343
2526 521 -0.16666666666666669
2616 521 -0.083333333333333287
2618 521 -0.16666666666666669
2619 521 -0.083333333333333343
2620 521 -0.083333333333333315
2621 521 0.16666666666666669
2623 521 -0.083333333333333343
2714 521 -0.083333333333333329
522 522 2.666666666666667
523 522 -0.33333333333333337
553 522 -0.33333333333333337
2524 522 -0.083333333333333343
2525 522 -0.083333333333333343
2526 522 0.16666666666666669
2528 522 -0.083333333333333343
2529 522 -0.16666666666666669
2619 522 -0.083333333333333287
2621 522 -0.16666666666666669
2622 522 -0.083333333333333343
2623 522 -0.083333333333333315
2624 522 0.16666666666666669
2626 522 -0.083333333333333343
2717 522 -0.083333333333333329
523 523 2.666666666666667
524 523 -0.33333333333333337
554 523 -0.33333333333333337
2527 523 -0.083333333333333343
2528 523 -0.083333333333333343
2529 523 0.16666666666666669
2531 523 -0.083333333333333343
2532 523 -0.16666666666666669
2622 523 -0.083333333333333287
2624 523 -0.16666666666666669
2625 523 -0.083333333333333343
2626 523 -0.083333333333333315
2627 523 0.16666666666666669
2629 523 -0.083333333333333343
2720 523 -0.083333333333333329
524 524 2.666666666666667
525 524 -0.33333333333333337
555 524 -0.33333333333333337
2530 524 -0.083333333333333343
2531 524 -0.083333333333333343
2532 524 0.16666666666666669
2534 524 -0.083333333333333343
2535 524 -0.16666666666666669
2625 524 -0.083333333333333287
2627 524 -0.16666666666666669
2628 524 -0.083333333333333343
2629 524 -0.083333333333333315
2630 524 0.16666666666666669
2632 524 -0.083333333333333343
2723 524 -0.083333333333333329
525 525 2.666666666666667
526 525 -0.33333333333333337
556 525 -0.33333333333333337
2533 525 -0.083333333333333343
2534 525 -0.083333333333333343
2535 525 0.16666666666666669
2537 525 -0.083333333333333343
2538 525 -0.16666666666666669
2628 525 -0.083333333333333287
2630 525 -0.16666666666666669
2631 525 -0.083333333333333343
2632 525 -0.083333333333333315
2633 525 0.16666666666666669
2635 525 -0.083333333333333343
2726 525 -0.083333333333333329
526 526 2.666666666666667
527 526 -0.33333333333333337
557 526 -0.33333333333333337
2536 526 -0.083333333333333343
2537 526 -0.083333333333333343
2538 526 0.16666666666666669
2540 526 -0.083333333333333343
2541 526 -0.16666666666666669
2631 526 -0.083333333333333287
2633 526 -0.16666666666666669
2634 526 -0.083333333333333343
2635 526 -0.083333333333333315
2636 526 0.16666666666666669
2638 526 -0.083333333333333343
2729 526 -0.083333333333333329
527 527 2.666666666666667
558 527 -0.33333333333333337
2539 527 -0.083333333333333343
2540 527 -0.083333333333333343
2541 527 0.16666666666666669
2543 527 -0.083333333333333343
2544 527 -0.16666666666666669
2634 527 -0.083333333333333287
2636 527 -0.16666666666666669
2637 527 -0.083333333333333343
2638 527 -0.083333333333333315
2639 527 0.16666666666666669
2732 527 -0.083333333333333329
528 528 2.666666666666667
529 528 -0.33333333333333337
559 528 -0.33333333333333337
2545 528 -0.083333333333333343
2546 528 0.16666666666666669
2548 528 -0.083333333333333343
2549 528 -0.16666666666666669
2640 528 -0.083333333333333287
2641 528 -0.16666666666666669
2642 528 -0.083333333333333343
2643 528 -0.083333333333333315
2644 528 0.16666666666666669
2646 528 -0.083333333333333343
2737 528 -0.083333333333333329
529 529 2.666666666666667
530 529 -0.33333333333333337
560 529 -0.33333333333333337
2547 529 -0.083333333333333343
2548 529 -0.083333333333333343
2549 529 0.16666666666666669
2551 529 -0.083333333333333343
2552 529 -0.16666666666666669
2642 529 -0.083333333333333287
2644 529 -0.16666666666666669
2645 529 -0.083333333333333343
2646 529 -0.083333333333333315
2647 529 0.16666666666666669
2649 529 -0.083333333333333343
2740 529 -0.083333333333333329
530 530 2.666666666666667
531 530 -0.33333333333333337
561 530 -0.33333333333333337
2550 530 -0.083333333333333343
2551 530 -0.083333333333333343
2552 530 0.16666666666666669
2554 530 -0.083333333333333343
2555 530 -0.16666666666666669
2645 530 -0.083333333333333287
2647 530 -0.16666666666666669
2648 530 -0.083333333333333343
2649 530 -0.083333333333333315
2650 530 0.16666666666666669
2652 530 -0.083333333333333343
2743 530 -0.083333333333333329
531 531 2.666666666666667
532 531 -0.33333333333333337
562 531 -0.33333333333333337
2553 531 -0.083333333333333343
2554 531 -0.083333333333333343
2555 531 0.16666666666666669
2557 531 -0.083333333333333343
2558 531 -0.16666666666666669
2648 531 -0.083333333333333287
2650 531 -0.16666666666666669
2651 531 -0.083333333333333343
2652 531 -0.083333333333333315
2653 531 0.16666666666666669
2655 531 -0.083333333333333343
2746 531 -0.083333333333333329
532 532 2.666666666666667
533 532 -0.33333333333333337
563 532 -0.33333333333333337
2556 532 -0.083333333333333343
2557 532 -0.083333333333333343
2558 532 0.16666666666666669
2560 532 -0.083333333333333343
2561 532 -0.16666666666666669
2651 532 -0.083333333333333287
2653 532 -0.16666666666666669
2654 532 -0.083333333333333343
2655 532 -0.083333333333333315
2656 532 0.16666666666666669
2658 532 -0.083333333333333343
2749 532 -0.083333333333333329
533 533 2.666666666666667
534 533 -0.33333333333333337
564 533 -0.33333333333333337
2559 533 -0.083333333333333343
2560 533 -0.083333333333333343
2561 533 0.16666666666666669
2563 533 -0.083333333333333343
2564 533 -0.16666666666666669
2654 533 -0.083333333333333287
2656 533 -0.16666666666666669
2657 533 -0.083333333333333343
2658 533 -0.083333333333333315
2659 533 0.16666666666666669
2661 533 -0.083333333333333343
2752 533 -0.083333333333333329
534 534 2.666666666666667
535 534 -0.33333333333333337
565 534 -0.33333333333333337
2562 534 -0.083333333333333343
2563 534 -0.083333333333333343
2564 534 0.16666666666666669
2566 534 -0.083333333333333343
2567 534 -0.16666666666666669
2657 534 -0.083333333333333287
2659 534 -0.16666666666666669
2660 534 -0.083333333333333343
2661 534 -0.083333333333333315
2662 534 0.16666666666666669
2664 534 -0.083333333333333343
2755 534 -0.083333333333333329
535 535 2.666666666666667
536 535 -0.33333333333333337
566 535 -0.33333333333333337
2565 535 -0.083333333333333343
2566 535 -0.083333333333333343
2567 535 0.16666666666666669
2569 535 -0.083333333333333343
2570 535 -0.16666666666666669
2660 535 -0.083333333333333287
2662 535 -0.16666666666666669
2663 535 -0.083333333333333343
2664 535 -0.083333333333333315
2665 535 0.16666666666666669
2667 535 -0.083333333333333343
2758 535 -0.083333333333333329
536 536 2.666666666666667
537 536 -0.33333333333333337
567 536 -0.33333333333333337
2568 536 -0.083333333333333343
2569 536 -0.083333333333333343
2570 536 0.16666666666666669
2572 536 -0.083333333333333343
2573 536 -0.16666666666666669
2663 536 -0.083333333333333287
2665 536 -0.16666666666666669
2666 536 -0.083333333333333343
2667 536 -0.083333333333333315
2668 536 0.16666666666666669
2670 536 -0.083333333333333343
2761 536 -0.083333333333333329
537 537 2.666666666666667
538 537 -0.33333333333333337
568 537 -0.33333333333333337
2571 537 -0.083333333333333343
2572 537 -0.083333333333333343
2573 537 0.16666666666666669
2575 537 -0.083333333333333343
2576 537 -0.16666666666666669
2666 537 -0.083333333333333287
2668 537 -0.16666666666666669
2669 537 -0.083333333333333343
2670 537 -0.083333333333333315
2671 537 0.16666666666666669
2673 537 -0.083333333333333343
2764 537 -0.083333333333333329
538 538 2.666666666666667
539 538 -0.33333333333333337
569 538 -0.33333333333333337
2574 538 -0.083333333333333343
2575 538 -0.083333333333333343
2576 538 0.16666666666666669
2578 538 -0.083333333333333343
2579 538 -0.16666666666666669
2669 538 -0.083333333333333287
2671 538 -0.16666666666666669
2672 538 -0.083333333333333343
2673 538 -0.083333333333333315
2674 538 0.16666666666666669
2676 538 -0.083333333333333343
2767 538 -0.083333333333333329
539 539 2.666666666666667
540 539 -0.33333333333333337
570 539 -0.33333333333333337
2577 539 -0.083333333333333343
2578 539 -0.083333333333333343
2579 539 0.16666666666666669
2581 539 -0.083333333333333343
2582 539 -0.16666666666666669
2672 539 -0.083333333333333287
2674 539 -0.16666666666666669
2675 539 -0.083333333333333343
2676 539 -0.083333333333333315
2677 539 0.16666666666666669
2679 539 -0.083333333333333343
2770 539 -0.083333333333333329
540 540 2.666666666666667
541 540 -0.33333333333333337
571 540 -0.33333333333333337
2580 540 -0.083333333333333343
2581 540 -0.083333333333333343
2582 540 0.16666666666666669
2584 540 -0.083333333333333343
2585 540 -0.16666666666666669
2675 540 -0.083333333333333287
2677 540 -0.16666666666666669
2678 540 -0.083333333333333343
2679 540 -0.083333333333333315
2680 540 0.16666666666666669
2682 540 -0.083333333333333343
2773 540 -0.083333333333333329
541 541 2.666666666666667
542 541 -0.33333333333333337
572 541 -0.33333333333333337
2583 541 -0.083333333333333343
2584 541 -0.083333333333333343
2585 541 0.16666666666666669
2587 541 -0.083333333333333343
2588 541 -0.16666666666666669
2678 541 -0.083333333333333287
2680 541 -0.16666666666666669
2681 541 -0.083333333333333343
2682 541 -0.083333333333333315
2683 541 0.16666666666666669
2685 541 -0.083333333333333343
2776 541 -0.083333333333333329
542 542 2.666666666666667
543 542 -0.33333333333333337
573 542 -0.33333333333333337
2586 542 -0.083333333333333343
2587 542 -0.083333333333333343
2588 542 0.16666666666666669
2590 542 -0.083333333333333343
2591 542 -0.16666666666666669
2681 542 -0.083333333333333287
2683 542 -0.16666666666666669
2684 542 -0.083333333333333343
2685 542 -0.083333333333333315
2686 542 0.16666666666666669
2688 542 -0.083333333333333343
2779 542 -0.083333333333333329
543 543 2.666666666666667
544 543 -0.33333333333333337
574 543 -0.33333333333333337
2589 543 -0.083333333333333343
2590 543 -0.083333333333333343
2591 543 0.16666666666666669
2593 543 -0.083333333333333343
2594 543 -0.16666666666666669
2684 543 -0.083333333333333287
2686 543 -0.16666666666666669
2687 543 -0.083333333333333343
2688 543 -0.083333333333333315
2689 543 0.16666666666666669
2691 543 -0.083333333333333343
2782 543 -0.083333333333333329
544 544 2.666666666666667
545 544 -0.33333333333333337
575 544 -0.33333333333333337
2592 544 -0.083333333333333343
2593 544 -0.083333333333333343
2594 544 0.16666666666666669
2596 544 -0.083333333333333343
2597 544 -0.16666666666666669
2687 544 -0.083333333333333287
2689 544 -0.16666666666666669
2690 544 -0.083333333333333343
2691 544 -0.083333333333333315
2692 544 0.16666666666666669
2694 544 -0.083333333333333343
2785 544 -0.083333333333333329
545 545 2.666666666666667
546 545 -0.33333333333333337
576 545 -0.33333333333333337
2595 545 -0.083333333333333343
2596 545 -0.083333333333333343
2597 545 0.16666666666666669
2599 545 -0.083333333333333343
2600 545 -0.16666666666666669
2690 545 -0.083333333333333287
2692 545 -0.16666666666666669
2693 545 -0.083333333333333343
2694 545 -0.083333333333333315
2695 545 0.16666666666666669
2697 545 -0.083333333333333343
2788 545 -0.083333333333333329
546 546 2.666666666666667
547 546 -0.33333333333333337
577 546 -0.33333333333333337
2598 546 -0.083333333333333343
2599 546 -0.083333333333333343
2600 546 0.16666666666666669
2602 546 -0.083333333333333343
2603 546 -0.16666666666666669
2693 546 -0.083333333333333287
2695 546 -0.16666666666666669
2696 546 -0.083333333333333343
2697 546 -0.083333333333333315
2698 546 0.16666666666666669
2700 546 -0.083333333333333343
2791 546 -0.083333333333333329
547 547 2.666666666666667
548 547 -0.33333333333333337
578 547 -0.33333333333333337
2601 547 -0.083333333333333343
2602 547 -0.083333333333333343
2603 547 0.16666666666666669
2605 547 -0.083333333333333343
2606 547 -0.16666666666666669
2696 547 -0.083333333333333287
2698 547 -0.16666666666666669
2699 547 -0.083333333333333343
2700 547 -0.083333333333333315
2701 547 0.16666666666666669
2703 547 -0.083333333333333343
2794 547 -0.083333333333333329
548 548 2.666666666666667
549 548 -0.33333333333333337
579 548 -0.33333333333333337
2604 548 -0.083333333333333343
2605 548 -0.083333333333333343
2606 548 0.16666666666666669
2608 548 -0.083333333333333343
2609 548 -0.16666666666666669
2699 548 -0.083333333333333287
2701 548 -0.16666666666666669
2702 548 -0.083333333333333343
2703 548 -0.083333333333333315
2704 548 0.16666666666666669
2706 548 -0.083333333333333343
2797 548 -0.083333333333333329
549 549 2.666666666666667
550 549 -0.33333333333333337
580 549 -0.33333333333333337
2607 549 -0.083333333333333343
2608 549 -0.083333333333333343
2609 549 0.16666666666666669
2611 549 -0.083333333333333343
2612 549 -0.16666666666666669
2702 549 -0.083333333333333287
2704 549 -0.16666666666666669
2705 549 -0.083333333333333343
2706 549 -0.083333333333333315
2707 549 0.16666666666666669
2709 549 -0.083333333333333343
2800 549 -0.083333333333333329
550 550 2.666666666666667
551 550 -0.33333333333333337
581 550 -0.33333333333333337
2610 550 -0.083333333333333343
2611 550 -0.083333333333333343
2612 550 0.16666666666666669
2614 550 -0.083333333333333343
2615 550 -0.16666666666666669
2705 550 -0.083333333333333287
2707 550 -0.16666666666666669
2708 550 -0.083333333333333343
2709 550 -0.083333333333333315
2710 550 0.16666666666666669
2712 550 -0.083333333333333343
2803 550 -0.083333333333333329
551 551 2.666666666666667
552 551 -0.33333333333333337
582 551 -0.33333333333333337
2613 551 -0.083333333333333343
2614 551 -0.083333333333333343
2615 551 0.16666666666666669
2617 551 -0.083333333333333343
2618 551 -0.16666666666666669
2708 551 -0.083333333333333287
2710 551 -0.16666666666666669
2711 551 -0.083333333333333343
2712 551 -0.083333333333333315
2713 551 0.16666666666666669
2715 551 -0.083333333333333343
2806 551 -0.083333333333333329
552 552 2.666666666666667
553 552 -0.33333333333333337
583 552 -0.33333333333333337
2616 552 -0.083333333333333343
2617 552 -0.083333333333333343
2618 552 0.16666666666666669
2620 552 -0.083333333333333343
2621 552 -0.16666666666666669
2711 552 -0.083333333333333287
2713 552 -0.16666666666666669
2714 552 -0.083333333333333343
2715 552 -0.083333333333333315
2716 552 0.16666666666666669
2718 552 -0.083333333333333343
2809 552 -0.083333333333333329
553 553 2.666666666666667
554 553 -0.33333333333333337
584 553 -0.33333333333333337
2619 553 -0.083333333333333343
2620 553 -0.083333333333333343
2621 553 0.16666666666666669
2623 553 -0.083333333333333343
2624 553 -0.16666666666666669
2714 553 -0.083333333333333287
2716 553 -0.16666666666666669
2717 553 -0.083333333333333343
2718 553 -0.083333333333333315
2719 553 0.16666666666666669
2721 553 -0.083333333333333343
2812 553 -0.083333333333333329
554 554 2.666666666666667
555 554 -0.33333333333333337
585 554 -0.33333333333333337
2622 554 -0.083333333333333343
2623 554 -0.083333333333333343
2624 554 0.16666666666666669
2626 554 -0.083333333333333343
2627 554 -0.16666666666666669
2717 554 -0.083333333333333287
2719 554 -0.16666666666666669
2720 554 -0.083333333333333343
2721 554 -0.083333333333333315
2722 554 0.16666666666666669
2724 554 -0.083333333333333343
2815 554 -0.083333333333333329
555 555 2.666666666666667
556 555 -0.33333333333333337
586 555 -0.33333333333333337
2625 555 -0.083333333333333343
2626 555 -0.083333333333333343
2627 555 0.16666666666666669
2629 555 -0.083333333333333343
2630 555 -0.16666666666666669
2720 555 -0.083333333333333287
2722 555 -0.16666666666666669
2723 555 -0.083333333333333343
2724 555 -0.083333333333333315
2725 555 0.16666666666666669
2727 555 -0.083333333333333343
2818 555 -0.083333333333333329
556 556 2.666666666666667
557 556 -0.33333333333333337
587 556 -0.33333333333333337
2628 556 -0.083333333333333343
2629 556 -0.083333333333333343
2630 556 0.16666666666666669
2632 556 -0.083333333333333343
2633 556 -0.16666666666666669
2723 556 -0.083333333333333287
2725 556 -0.16666666666666669
2726 556 -0.083333333333333343
2727 556 -0.083333333333333315
2728 556 0.16666666666666669
2730 556 -0.083333333333333343
2821 556 -0.083333333333333329
557 557 2.666666666666667
558 557 -0.33333333333333337
588 557 -0.33333333333333337
2631 557 -0.083333333333333343
2632 557 -0.083333333333333343
2633 557 0.16666666666666669
2635 557 -0.083333333333333343
2636 557 -0.16666666666666669
2726 557 -0.083333333333333287
2728 557 -0.16666666666666669
2729 557 -0.083333333333333343
2730 557 -0.083333333333333315
2731 557 0.16666666666666669
2733 557 -0.083333333333333343
2824 557 -0.083333333333333329
558 558 2.666666666666667
589 558 -0.33333333333333337
2634 558 -0.083333333333333343
2635 558 -0.083333333333333343
2636 558 0.16666666666666669
2638 558 -0.083333333333333343
2639 558 -0.16666666666666669
2729 558 -0.083333333333333287
2731 558 -0.16666666666666669
2732 558 -0.083333333333333343
2733 558 -0.083333333333333315
2734 558 0.16666666666666669
2827 558 -0.083333333333333329
559 559 2.666666666666667
560 559 -0.33333333333333337
590 559 -0.33333333333333337
2640 559 -0.083333333333333343
2641 559 0.16666666666666669
2643 559 -0.083333333333333343
2644 559 -0.16666666666666669
2735 559 -0.083333333333333287
2736 559 -0.16666666666666669
2737 559 -0.083333333333333343
2738 559 -0.083333333333333315
2739 559 0.16666666666666669
2741 559 -0.083333333333333343
2832 559 -0.083333333333333329
560 560 2.666666666666667
561 560 -0.33333333333333337
591 560 -0.33333333333333337
2642 560 -0.083333333333333343
2643 560 -0.083333333333333343
2644 560 0.16666666666666669
2646 560 -0.083333333333333343
2647 560 -0.16666666666666669
2737 560 -0.083333333333333287
2739 560 -0.16666666666666669
2740 560 -0.083333333333333343
2741 560 -0.083333333333333315
2742 560 0.16666666666666669
2744 560 -0.083333333333333343
2835 560 -0.083333333333333329
561 561 2.666666666666667
562 561 -0.33333333333333337
592 561 -0.33333333333333337
2645 561 -0.083333333333333343
2646 561 -0.083333333333333343
2647 561 0.16666666666666669
2649 561 -0.083333333333333343
2650 561 -0.16666666666666669
2740 561 -0.083333333333333287
2742 561 -0.16666666666666669
2743 561 -0.083333333333333343
2744 561 -0.083333333333333315
2745 561 0.16666666666666669
2747 561 -0.083333333333333343
2838 561 -0.083333333333333329
562 562 2.666666666666667
563 562 -0.33333333333333337
593 562 -0.33333333333333337
2648 562 -0.083333333333333343
2649 562 -0.083333333333333343
2650 562 0.16666666666666669
2652 562 -0.083333333333333343
2653 562 -0.16666666666666669
2743 562 -0.083333333333333287
2745 562 -0.16666666666666669
2746 562 -0.083333333333333343
2747 562 -0.083333333333333315
2748 562 0.16666666666666669
2750 562 -0.083333333333333343
2841 562 -0.083333333333333329
563 563 2.666666666666667
564 563 -0.33333333333333337
594 563 -0.33333333333333337
2651 563 -0.083333333333333343
2652 563 -0.083333333333333343
2653 563 0.16666666666666669
2655 563 -0.083333333333333343
2656 563 -0.16666666666666669
2746 563 -0.083333333333333287
2748 563 -0.16666666666666669
2749 563 -0.083333333333333343
2750 563 -0.083333333333333315
2751 563 0.16666666666666669
2753 563 -0.083333333333333343
2844 563 -0.083333333333333329
564 564 2.666666666666667
565 564 -0.33333333333333337
595 564 -0.33333333333333337
2654 564 -0.083333333333333343
2655 564 -0.083333333333333343
2656 564 0.16666666666666669
2658 564 -0.083333333333333343
2659 564 -0.16666666666666669
2749 564 -0.083333333333333287
2751 564 -0.16666666666666669
2752 564 -0.083333333333333343
2753 564 -0.083333333333333315
2754 564 0.16666666666666669
2756 564 -0.083333333333333343
2847 564 -0.083333333333333329
565 565 2.666666666666667
566 565 -0.33333333333333337
596 565 -0.33333333333333337
2657 565 -0.083333333333333343
2658 565 -0.083333333333333343
2659 565 0.16666666666666669
2661 565 -0.083333333333333343
2662 565 -0.16666666666666669
2752 565 -0.083333333333333287
2754 565 -0.16666666666666669
2755 565 -0.083333333333333343
2756 565 -0.083333333333333315
2757 565 0.16666666666666669
2759 565 -0.083333333333333343
2850 565 -0.083333333333333329
566 566 2.666666666666667
567 566 -0.33333333333333337
597 566 -0.33333333333333337
2660 566 -0.083333333333333343
2661 566 -0.083333333333333343
2662 566 0.16666666666666669
2664 566 -0.083333333333333343
2665 566 -0.16666666666666669
2755 566 -0.083333333333333287
2757 566 -0.16666666666666669
2758 566 -0.083333333333333343
2759 566 -0.083333333333333315
2760 566 0.16666666666666669
2762 566 -0.083333333333333343
2853 566 -0.083333333333333329
567 567 2.666666666666667
568 567 -0.33333333333333337
598 567 -0.33333333333333337
2663 567 -0.083333333333333343
2664 567 -0.083333333333333343
2665 567 0.16666666666666669
2667 567 -0.083333333333333343
2668 567 -0.16666666666666669
2758 567 -0.083333333333333287
2760 567 -0.16666666666666669
2761 567 -0.083333333333333343
2762 567 -0.083333333333333315
2763 567 0.16666666666666669
2765 567 -0.083333333333333343
2856 567 -0.083333333333333329
568 568 2.666666666666667
569 568 -0.33333333333333337
599 568 -0.33333333333333337
2666 568 -0.083333333333333343
2667 568 -0.083333333333333343
2668 568 0.16666666666666669
2670 568 -0.083333333333333343
2671 568 -0.16666666666666669
2761 568 -0.083333333333333287
2763 568 -0.16666666666666669
2764 568 -0.083333333333333343
2765 568 -0.083333333333333315
2766 568 0.16666666666666669
2768 568 -0.083333333333333343
2859 568 -0.083333333333333329
569 569 2.666666666666667
570 569 -0.33333333333333337
600 569 -0.33333333333333337
2669 569 -0.083333333333333343
2670 569 -0.083333333333333343
2671 569 0.16666666666666669
2673 569 -0.083333333333333343
2674 569 -0.16666666666666669
2764 569 -0.083333333333333287
2766 569 -0.16666666666666669
2767 569 -0.083333333333333343
2768 569 -0.083333333333333315
2769 569 0.16666666666666669
2771 569 -0.083333333333333343
2862 569 -0.083333333333333329
570 570 2.666666666666667
571 570 -0.33333333333333337
601 570 -0.33333333333333337
2672 570 -0.083333333333333343
2673 570 -0.083333333333333343
2674 570 0.16666666666666669
2676 570 -0.083333333333333343
2677 570 -0.16666666666666669
2767 570 -0.083333333333333287
2769 570 -0.16666666666666669
2770 570 -0.083333333333333343
2771 570 -0.083333333333333315
2772 570 0.16666666666666669
2774 570 -0.083333333333333343
2865 570 -0.083333333333333329
571 571 2.666666666666667
572 571 -0.33333333333333337
602 571 -0.33333333333333337
2675 571 -0.083333333333333343
2676 571 -0.083333333333333343
2677 571 0.16666666666666669
2679 571 -0.083333333333333343
2680 571 -0.16666666666666669
2770 571 -0.083333333333333287
2772 571 -0.16666666666666669
2773 571 -0.083333333333333343
2774 571 -0.083333333333333315
2775 571 0.16666666666666669
2777 571 -0.083333333333333343
2868 571 -0.083333333333333329
572 572 2.666666666666667
573 572 -0.33333333333333337
603 572 -0.33333333333333337
2678 572 -0.083333333333333343
2679 572 -0.083333333333333343
2680 572 0.16666666666666669
2682 572 -0.083333333333333343
2683 572 -0.16666666666666669
2773 572 -0.083333333333333287
2775 572 -0.16666666666666669
2776 572 -0.083333333333333343
2777 572 -0.083333333333333315
2778 572 0.16666666666666669
2780 572 -0.083333333333333343
2871 572 -0.083333333333333329
573 573 2.666666666666667
574 573 -0.33333333333333337
604 573 -0.33333333333333337
2681 573 -0.083333333333333343
2682 573 -0.083333333333333343
2683 573 0.16666666666666669
2685 573 -0.083333333333333343
2686 573 -0.16666666666666669
2776 573 -0.083333333333333287
2778 573 -0.16666666666666669
2779 573 -0.083333333333333343
2780 573 -0.083333333333333315
2781 573 0.16666666666666669
2783 573 -0.083333333333333343
2874 573 -0.083333333333333329
574 574 2.666666666666667
575 574 -0.33333333333333337
605 574 -0.33333333333333337
2684 574 -0.083333333333333343
2685 574 -0.083333333333333343
2686 574 0.16666666666666669
2688 574 -0.083333333333333343
2689 574 -0.16666666666666669
2779 574 -0.083333333333333287
2781 574 -0.16666666666666669
2782 574 -0.083333333333333343
2783 574 -0.083333333333333315
2784 574 0.16666666666666669
2786 574 -0.083333333333333343
2877 574 -0.083333333333333329
575 575 2.666666666666667
576 575 -0.33333333333333337
606 575 -0.33333333333333337
2687 575 -0.083333333333333343
2688 575 -0.083333333333333343
2689 575 0.16666666666666669
2691 575 -0.083333333333333343
2692 575 -0.16666666666666669
2782 575 -0.083333333333333287
2784 575 -0.16666666666666669
2785 575 -0.083333333333333343
2786 575 -0.083333333333333315
2787 575 0.16666666666666669
2789 575 -0.083333333333333343
2880 575 -0.083333333333333329
576 576 2.666666666666667
577 576 -0.33333333333333337
607 576 -0.33333333333333337
2690 576 -0.083333333333333343
2691 576 -0.083333333333333343
2692 576 0.16666666666666669
2694 576 -0.083333333333333343
2695 576 -0.16666666666666669
2785 576 -0.083333333333333287
2787 576 -0.16666666666666669
2788 576 -0.083333333333333343
2789 576 -0.083333333333333315
2790 576 0.16666666666666669
2792 576 -0.083333333333333343
2883 576 -0.083333333333333329
577 577 2.666666666666667
578 577 -0.33333333333333337
608 577 -0.33333333333333337
2693 577 -0.083333333333333343
2694 577 -0.083333333333333343
2695 577 0.16666666666666669
2697 577 -0.083333333333333343
2698 577 -0.16666666666666669
2788 577 -0.083333333333333287
2790 577 -0.16666666666666669
2791 577 -0.083333333333333343
2792 577 -0.083333333333333315
2793 577 0.16666666666666669
2795 577 -0.083333333333333343
2886 577 -0.083333333333333329
578 578 2.666666666666667
579 578 -0.33333333333333337
609 578 -0.33333333333333337
2696 578 -0.083333333333333343
2697 578 -0.083333333333333343
2698 578 0.16666666666666669
2700 578 -0.083333333333333343
2701 578 -0.16666666666666669
2791 578 -0.083333333333333287
2793 578 -0.16666666666666669
2794 578 -0.083333333333333343
2795 578 -0.083333333333333315
2796 578 0.16666666666666669
2798 578 -0.083333333333333343
2889 578 -0.083333333333333329
579 579 2.666666666666667
580 579 -0.33333333333333337
610 579 -0.33333333333333337
2699 579 -0.083333333333333343
2700 579 -0.083333333333333343
2701 579 0.16666666666666669
2703 579 -0.083333333333333343
2704 579 -0.16666666666666669
2794 579 -0.083333333333333287
2796 579 -0.16666666666666669
2797 579 -0.083333333333333343
2798 579 -0.083333333333333315
2799 579 0.16666666666666669
2801 579 -0.083333333333333343
2892 579 -0.083333333333333329
580 580 2.666666666666667
581 580 -0.33333333333333337
611 580 -0.33333333333333337
2702 580 -0.083333333333333343
2703 580 -0.083333333333333343
2704 580 0.16666666666666669
2706 580 -0.083333333333333343
2707 580 -0.16666666666666669
2797 580 -0.083333333333333287
2799 580 -0.16666666666666669
2800 580 -0.083333333333333343
2801 580 -0.083333333333333315
2802 580 0.16666666666666669
2804 580 -0.083333333333333343
2895 580 -0.083333333333333329
581 581 2.666666666666667
582 581 -0.33333333333333337
612 581 -0.33333333333333337
2705 581 -0.083333333333333343
2706 581 -0.083333333333333343
2707 581 0.16666666666666669
2709 581 -0.083333333333333343
2710 581 -0.16666666666666669
2800 581 -0.083333333333333287
2802 581 -0.16666666666666669
2803 581 -0.083333333333333343
2804 581 -0.083333333333333315
2805 581 0.16666666666666669
2807 581 -0.083333333333333343
2898 581 -0.083333333333333329
582 582 2.666666666666667
583 582 -0.33333333333333337
613 582 -0.33333333333333337
2708 582 -0.083333333333333343
2709 582 -0.083333333333333343
2710 582 0.16666666666666669
2712 582 -0.083333333333333343
2713 582 -0.16666666666666669
2803 582 -0.083333333333333287
2805 582 -0.16666666666666669
2806 582 -0.083333333333333343
2807 582 -0.083333333333333315
2808 582 0.16666666666666669
2810 582 -0.083333333333333343
2901 582 -0.083333333333333329
583 583 2.666666666666667
584 583 -0.33333333333333337
614 583 -0.33333333333333337
2711 583 -0.083333333333333343
2712 583 -0.083333333333333343
2713 583 0.16666666666666669
2715 583 -0.083333333333333343
2716 583 -0.16666666666666669
2806 583 -0.083333333333333287
2808 583 -0.16666666666666669
2809 583 -0.083333333333333343
2810 583 -0.083333333333333315
2811 583 0.16666666666666669
2813 583 -0.083333333333333343
2904 583 -0.083333333333333329
584 584 2.666666666666667
585 584 -0.33333333333333337
615 584 -0.33333333333333337
2714 584 -0.083333333333333343
2715 584 -0.083333333333333343
2716 584 0.16666666666666669
2718 584 -0.083333333333333343
2719 584 -0.16666666666666669
2809 584 -0.083333333333333287
2811 584 -0.16666666666666669
2812 584 -0.083333333333333343
2813 584 -0.083333333333333315
2814 584 0.16666666666666669
2816 584 -0.083333333333333343
2907 584 -0.083333333333333329
585 585 2.666666666666667
586 585 -0.33333333333333337
616 585 -0.33333333333333337
2717 585 -0.083333333333333343
2718 585 -0.083333333333333343
2719 585 0.16666666666666669
2721 585 -0.083333333333333343
2722 585 -0.16666666666666669
2812 585 -0.083333333333333287
2814 585 -0.16666666666666669
2815 585 -0.083333333333333343
2816 585 -0.083333333333333315
2817 585 0.16666666666666669
2819 585 -0.083333333333333343
2910 585 -0.083333333333333329
586 586 2.666666666666667
587 586 -0.33333333333333337
617 586 -0.33333333333333337
2720 586 -0.083333333333333343
2721 586 -0.083333333333333343
2722 586 0.16666666666666669
2724 586 -0.083333333333333343
2725 586 -0.16666666666666669
2815 586 -0.083333333333333287
2817 586 -0.16666666666666669
2818 586 -0.083333333333333343
2819 586 -0.083333333333333315
2820 586 0.16666666666666669
2822 586 -0.083333333333333343
2913 586 -0.083333333333333329
587 587 2.666666666666667
588 587 -0.33333333333333337
618 587 -0.33333333333333337
2723 587 -0.083333333333333343
2724 587 -0.083333333333333343
2725 587 0.16666666666666669
2727 587 -0.083333333333333343
2728 587 -0.16666666666666669
2818 587 -0.083333333333333287
2820 587 -0.16666666666666669
2821 587 -0.083333333333333343
2822 587 -0.083333333333333315
2823 587 0.16666666666666669
2825 587 -0.083333333333333343
2916 587 -0.083333333333333329
588 588 2.666666666666667
589 588 -0.33333333333333337
619 588 -0.33333333333333337
2726 588 -0.083333333333333343
2727 588 -0.083333333333333343
2728 588 0.16666666666666669
2730 588 -0.083333333333333343
2731 588 -0.16666666666666669
2821 588 -0.083333333333333287
2823 588 -0.16666666666666669
2824 588 -0.083333333333333343
2825 588 -0.083333333333333315
2826 588 0.16666666666666669
2828 588 -0.083333333333333343
2919 588 -0.083333333333333329
589 589 2.666666666666667
620 589 -0.33333333333333337
2729 589 -0.083333333333333343
2730 589 -0.083333333333333343
2731 589 0.16666666666666669
2733 589 -0.083333333333333343
2734 589 -0.16666666666666669
2824 589 -0.083333333333333287
2826 589 -0.16666666666666669
2827 589 -0.083333333333333343
2828 589 -0.083333333333333315
2829 589 0.16666666666666669
2922 589 -0.083333333333333329
590 590 2.666666666666667
591 590 -0.33333333333333337
621 590 -0.33333333333333337
2735 590 -0.083333333333333343
2736 590 0.16666666666666669
2738 590 -0.083333333333333343
2739 590 -0.16666666666666669
2830 590 -0.083333333333333287
2831 590 -0.16666666666666669
2832 590 -0.083333333333333343
2833 590 -0.083333333333333315
2834 590 0.16666666666666669
2836 590 -0.083333333333333343
2927 590 -0.083333333333333329
591 591 2.666666666666667
592 591 -0.33333333333333337
622 591 -0.33333333333333337
2737 591 -0.083333333333333343
2738 591 -0.083333333333333343
2739 591 0.16666666666666669
2741 591 -0.083333333333333343
2742 591 -0.16666666666666669
2832 591 -0.083333333333333287
2834 591 -0.16666666666666669
2835 591 -0.083333333333333343
2836 591 -0.083333333333333315
2837 591 0.16666666666666669
2839 591 -0.083333333333333343
2930 591 -0.083333333333333329
592 592 2.666666666666667
593 592 -0.33333333333333337
623 592 -0.33333333333333337
2740 592 -0.083333333333333343
2741 592 -0.083333333333333343
2742 592 0.16666666666666669
2744 592 -0.083333333333333343
2745 592 -0.16666666666666669
2835 592 -0.083333333333333287
2837 592 -0.16666666666666669
2838 592 -0.083333333333333343
2839 592 -0.083333333333333315
2840 592 0.16666666666666669
2842 592 -0.083333333333333343
2933 592 -0.083333333333333329
593 593 2.666666666666667
594 593 -0.33333333333333337
624 593 -0.33333333333333337
2743 593 -0.083333333333333343
2744 593 -0.083333333333333343
2745 593 0.16666666666666669
2747 593 -0.083333333333333343
2748 593 -0.16666666666666669
2838 593 -0.083333333333333287
2840 593 -0.16666666666666669
2841 593 -0.083333333333333343
2842 593 -0.083333333333333315
2843 593 0.16666666666666669
2845 593 -0.083333333333333343
2936 593 -0.083333333333333329
594 594 2.666666666666667
595 594 -0.33333333333333337
625 594 -0.33333333333333337
2746 594 -0.083333333333333343
2747 594 -0.083333333333333343
2748 594 0.16666666666666669
2750 594 -0.083333333333333343
2751 594 -0.16666666666666669
2841 594 -0.083333333333333287
2843 594 -0.16666666666666669
2844 594 -0.083333333333333343
2845 594 -0.083333333333333315
2846 594 0.16666666666666669
2848 594 -0.083333333333333343
2939 594 -0.083333333333333329
595 595 2.666666666666667
596 595 -0.33333333333333337
626 595 -0.33333333333333337
2749 595 -0.083333333333333343
2750 595 -0.083333333333333343
2751 595 0.16666666666666669
2753 595 -0.083333333333333343
2754 595 -0.16666666666666669
2844 595 -0.083333333333333287
2846 595 -0.16666666666666669
2847 595 -0.083333333333333343
2848 595 -0.083333333333333315
2849 595 0.16666666666666669
2851 595 -0.083333333333333343
2942 595 -0.083333333333333329
596 596 2.666666666666667
597 596 -0.33333333333333337
627 596 -0.33333333333333337
2752 596 -0.083333333333333343
2753 596 -0.083333333333333343
2754 596 0.16666666666666669
2756 596 -0.083333333333333343
2757 596 -0.16666666666666669
2847 596 -0.083333333333333287
2849 596 -0.16666666666666669
2850 596 -0.083333333333333343
2851 596 -0.083333333333333315
2852 596 0.16666666666666669
2854 596 -0.083333333333333343
2945 596 -0.083333333333333329
597 597 2.666666666666667
598 597 -0.33333333333333337
628 597 -0.33333333333333337
2755 597 -0.083333333333333343
2756 597 -0.083333333333333343
2757 597 0.16666666666666669
2759 597 -0.083333333333333343
2760 597 -0.16666666666666669
2850 597 -0.083333333333333287
2852 597 -0.16666666666666669
2853 597 -0.083333333333333343
2854 597 -0.083333333333333315
2855 597 0.16666666666666669
2857 597 -0.083333333333333343
2948 597 -0.083333333333333329
598 598 2.666666666666667
599 598 -0.33333333333333337
629 598 -0.33333333333333337
2758 598 -0.083333333333333343
2759 598 -0.083333333333333343
2760 598 0.16666666666666669
2762 598 -0.083333333333333343
2763 598 -0.16666666666666669
2853 598 -0.083333333333333287
2855 598 -0.16666666666666669
2856 598 -0.083333333333333343
2857 598 -0.083333333333333315
2858 598 0.16666666666666669
2860 598 -0.083333333333333343
2951 598 -0.083333333333333329
599 599 2.666666666666667
600 599 -0.33333333333333337
630 599 -0.33333333333333337
2761 599 -0.083333333333333343
2762 599 -0.083333333333333343
2763 599 0.16666666666666669
2765 599 -0.083333333333333343
2766 599 -0.16666666666666669
2856 599 -0.083333333333333287
2858 599 -0.16666666666666669
2859 599 -0.083333333333333343
2860 599 -0.083333333333333315
2861 599 0.16666666666666669
2863 599 -0.083333333333333343
2954 599 -0.083333333333333329
600 600 2.666666666666667
601 600 -0.33333333333333337
631 600 -0.33333333333333337
2764 600 -0.083333333333333343
2765 600 -0.083333333333333343
2766 600 0.16666666666666669
2768 600 -0.083333333333333343
2769 600 -0.16666666666666669
2859 600 -0.083333333333333287
2861 600 -0.16666666666666669
2862 600 -0.083333333333333343
2863 600 -0.083333333333333315
2864 600 0.16666666666666669
2866 600 -0.083333333333333343
2957 600 -0.083333333333333329
601 601 2.666666666666667
602 601 -0.33333333333333337
632 601 -0.33333333333333337
2767 601 -0.083333333333333343
2768 601 -0.083333333333333343
2769 601 0.16666666666666669
2771 601 -0.083333333333333343
2772 601 -0.16666666666666669
2862 601 -0.083333333333333287
2864 601 -0.16666666666666669
2865 601 -0.083333333333333343
2866 601 -0.083333333333333315
2867 601 0.16666666666666669
2869 601 -0.083333333333333343
2960 601 -0.083333333333333329
602 602 2.666666666666667
603 602 -0.33333333333333337
633 602 -0.33333333333333337
2770 602 -0.083333333333333343
2771 602 -0.083333333333333343
2772 602 0.16666666666666669
2774 602 -0.083333333333333343
2775 602 -0.16666666666666669
2865 602 -0.083333333333333287
2867 602 -0.16666666666666669
2868 602 -0.083333333333333343
2869 602 -0.083333333333333315
2870 602 0.16666666666666669
2872 602 -0.083333333333333343
2963 602 -0.083333333333333329
603 603 2.666666666666667
604 603 -0.33333333333333337
634 603 -0.33333333333333337
2773 603 -0.083333333333333343
2774 603 -0.083333333333333343
2775 603 0.16666666666666669
2777 603 -0.083333333333333343
2778 603 -0.16666666666666669
2868 603 -0.083333333333333287
2870 603 -0.16666666666666669
2871 603 -0.083333333333333343
2872 603 -0.083333333333333315
2873 603 0.16666666666666669
2875 603 -0.083333333333333343
2966 603 -0.083333333333333329
604 604 2.666666666666667
605 604 -0.33333333333333337
635 604 -0.33333333333333337
2776 604 -0.083333333333333343
2777 604 -0.083333333333333343
2778 604 0.16666666666666669
2780 604 -0.083333333333333343
2781 604 -0.16666666666666669
2871 604 -0.083333333333333287
2873 604 -0.16666666666666669
2874 604 -0.083333333333333343
2875 604 -0.083333333333333315
2876 604 0.16666666666666669
2878 604 -0.083333333333333343
2969 604 -0.083333333333333329
605 605 2.666666666666667
606 605 -0.33333333333333337
636 605 -0.33333333333333337
2779 605 -0.083333333333333343
2780 605 -0.083333333333333343
2781 605 0.16666666666666669
2783 605 -0.083333333333333343
2784 605 -0.16666666666666669
2874 605 -0.083333333333333287
2876 605 -0.16666666666666669
2877 605 -0.083333333333333343
2878 605 -0.083333333333333315
2879 605 0.16666666666666669
2881 605 -0.083333333333333343
2972 605 -0.083333333333333329
606 606 2.666666666666667
607 606 -0.33333333333333337
637 606 -0.33333333333333337
2782 606 -0.083333333333333343
2783 606 -0.083333333333333343
2784 606 0.16666666666666669
2786 606 -0.083333333333333343
2787 606 -0.16666666666666669
2877 606 -0.083333333333333287
2879 606 -0.16666666666666669
2880 606 -0.083333333333333343
2881 606 -0.083333333333333315
2882 606 0.16666666666666669
2884 606 -0.083333333333333343
2975 606 -0.083333333333333329
607 607 2.666666666666667
608 607 -0.33333333333333337
638 607 -0.33333333333333337
2785 607 -0.083333333333333343
2786 607 -0.083333333333333343
2787 607 0.16666666666666669
2789 607 -0.083333333333333343
2790 607 -0.16666666666666669
2880 607 -0.083333333333333287
2882 607 -0.16666666666666669
2883 607 -0.083333333333333343
2884 607 -0.083333333333333315
2885 607 0.16666666666666669
2887 607 -0.083333333333333343
2978 607 -0.083333333333333329
608 608 2.666666666666667
609 608 -0.33333333333333337
639 608 -0.33333333333333337
2788 608 -0.083333333333333343
2789 608 -0.083333333333333343
2790 608 0.16666666666666669
2792 608 -0.083333333333333343
2793 608 -0.16666666666666669
2883 608 -0.083333333333333287
2885 608 -0.16666666666666669
2886 608 -0.083333333333333343
2887 608 -0.083333333333333315
2888 608 0.16666666666666669
2890 608 -0.083333333333333343
2981 608 -0.083333333333333329
609 609 2.666666666666667
610 609 -0.33333333333333337
640 609 -0.33333333333333337
2791 609 -0.083333333333333343
2792 609 -0.083333333333333343
2793 609 0.16666666666666669
2795 609 -0.083333333333333343
2796 609 -0.16666666666666669
2886 609 -0.083333333333333287
2888 609 -0.16666666666666669
2889 609 -0.083333333333333343
2890 609 -0.083333333333333315
2891 609 0.16666666666666669
2893 609 -0.083333333333333343
2984 609 -0.083333333333333329
610 610 2.666666666666667
611 610 -0.33333333333333337
641 610 -0.33333333333333337
2794 610 -0.083333333333333343
2795 610 -0.083333333333333343
2796 610 0.16666666666666669
2798 610 -0.083333333333333343
2799 610 -0.16666666666666669
2889 610 -0.083333333333333287
2891 610 -0.16666666666666669
2892 610 -0.083333333333333343
2893 610 -0.083333333333333315
2894 610 0.16666666666666669
2896 610 -0.083333333333333343
2987 610 -0.083333333333333329
611 611 2.666666666666667
612 611 -0.33333333333333337
642 611 -0.33333333333333337
2797 611 -0.083333333333333343
2798 611 -0.083333333333333343
2799 611 0.16666666666666669
2801 611 -0.083333333333333343
2802 611 -0.16666666666666669
2892 611 -0.083333333333333287
2894 611 -0.16666666666666669
2895 611 -0.083333333333333343
2896 611 -0.083333333333333315
2897 611 0.16666666666666669
2899 611 -0.083333333333333343
2990 611 -0.083333333333333329
612 612 2.666666666666667
613 612 -0.33333333333333337
643 612 -0.33333333333333337
2800 612 -0.083333333333333343
2801 612 -0.083333333333333343
2802 612 0.16666666666666669
2804 612 -0.083333333333333343
2805 612 -0.16666666666666669
2895 612 -0.083333333333333287
2897 612 -0.16666666666666669
2898 612 -0.083333333333333343
2899 612 -0.083333333333333315
2900 612 0.16666666666666669
2902 612 -0.083333333333333343
2993 612 -0.083333333333333329
613 613 2.666666666666667
614 613 -0.33333333333333337
644 613 -0.33333333333333337
2803 613 -0.083333333333333343
2804 613 -0.083333333333333343
2805 613 0.16666666666666669
2807 613 -0.083333333333333343
2808 613 -0.16666666666666669
2898 613 -0.083333333333333287
2900 613 -0.16666666666666669
2901 613 -0.083333333333333343
2902 613 -0.083333333333333315
2903 613 0.16666666666666669
2905 613 -0.083333333333333343
2996 613 -0.083333333333333329
614 614 2.666666666666667
615 614 -0.33333333333333337
645 614 -0.33333333333333337
2806 614 -0.083333333333333343
2807 614 -0.083333333333333343
2808 614 0.16666666666666669
2810 614 -0.083333333333333343
2811 614 -0.16666666666666669
2901 614 -0.083333333333333287
2903 614 -0.16666666666666669
2904 614 -0.083333333333333343
2905 614 -0.083333333333333315
2906 614 0.16666666666666669
2908 614 -0.083333333333333343
2999 614 -0.083333333333333329
615 615 2.666666666666667
616 615 -0.33333333333333337
646 615 -0.33333333333333337
2809 615 -0.083333333333333343
2810 615 -0.083333333333333343
2811 615 0.16666666666666669
2813 615 -0.083333333333333343
2814 615 -0.16666666666666669
2904 615 -0.083333333333333287
2906 615 -0.16666666666666669
2907 615 -0.083333333333333343
2908 615 -0.083333333333333315
2909 615 0.16666666666666669
2911 615 -0.083333333333333343
3002 615 -0.083333333333333329
616 616 2.666666666666667
617 616 -0.33333333333333337
647 616 -0.33333333333333337
2812 616 -0.083333333333333343
2813 616 -0.083333333333333343
2814 616 0.16666666666666669
2816 616 -0.083333333333333343
2817 616 -0.16666666666666669
2907 616 -0.083333333333333287
2909 616 -0.16666666666666669
2910 616 -0.083333333333333343
2911 616 -0.083333333333333315
2912 616 0.16666666666666669
2914 616 -0.083333333333333343
3005 616 -0.083333333333333329
617 617 2.666666666666667
618 617 -0.33333333333333337
648 617 -0.33333333333333337
2815 617 -0.083333333333333343
2816 617 -0.083333333333333343
2817 617 0.16666666666666669
2819 617 -0.083333333333333343
2820 617 -0.16666666666666669
2910 617 -0.083333333333333287
2912 617 -0.16666666666666669
2913 617 -0.083333333333333343
2914 617 -0.083333333333333315
2915 617 0.16666666666666669
2917 617 -0.083333333333333343
3008 617 -0.083333333333333329
618 618 2.666666666666667
619 618 -0.33333333333333337
649 618 -0.33333333333333337
2818 618 -0.083333333333333343
2819 618 -0.083333333333333343
2820 618 0.16666666666666669
2822 618 -0.083333333333333343
2823 618 -0.16666666666666669
2913 618 -0.083333333333333287
2915 618 -0.16666666666666669
2916 618 -0.083333333333333343
2917 618 -0.083333333333333315
2918 618 0.16666666666666669
2920 618 -0.083333333333333343
3011 618 -0.083333333333333329
619 619 2.666666666666667
620 619 -0.33333333333333337
650 619 -0.33333333333333337
2821 619 -0.083333333333333343
2822 619 -0.083333333333333343
2823 619 0.16666666666666669
2825 619 -0.083333333333333343
2826 619 -0.16666666666666669
2916 619 -0.083333333333333287
2918 619 -0.16666666666666669
2919 619 -0.083333333333333343
2920 619 -0.083333333333333315
2921 619 0.16666666666666669
2923 619 -0.083333333333333343
3014 619 -0.083333333333333329
620 620 2.666666666666667
651 620 -0.33333333333333337
2824 620 -0.083333333333333343
2825 620 -0.083333333333333343
2826 620 0.16666666666666669
2828 620 -0.083333333333333343
2829 620 -0.16666666666666669
2919 620 -0.083333333333333287
2921 620 -0.16666666666666669
2922 620 -0.083333333333333343
2923 620 -0.083333333333333315
2924 620 0.16666666666666669
3017 620 -0.083333333333333329
621 621 2.666666666666667
622 621 -0.33333333333333337
652 621 -0.33333333333333337
2830 621 -0.083333333333333343
2831 621 0.16666666666666669
2833 621 -0.083333333333333343
2834 621 -0.16666666666666669
2925 621 -0.083333333333333287
2926 621 -0.16666666666666669
2927 621 -0.083333333333333343
2928 621 -0.083333333333333315
2929 621 0.16666666666666669
2931 621 -0.083333333333333343
3022 621 -0.083333333333333329
622 622 2.666666666666667
623 622 -0.33333333333333337
653 622 -0.33333333333333337
2832 622 -0.083333333333333343
2833 622 -0.083333333333333343
2834 622 0.16666666666666669
2836 622 -0.083333333333333343
2837 622 -0.16666666666666669
2927 622 -0.083333333333333287
2929 622 -0.16666666666666669
2930 622 -0.083333333333333343
2931 622 -0.083333333333333315
2932 622 0.16666666666666669
2934 622 -0.083333333333333343
3025 622 -0.083333333333333329
623 623 2.666666666666667
624 623 -0.33333333333333337
654 623 -0.33333333333333337
2835 623 -0.083333333333333343
2836 623 -0.083333333333333343
2837 623 0.16666666666666669
2839 623 -0.083333333333333343
2840 623 -0.16666666666666669
2930 623 -0.083333333333333287
2932 623 -0.16666666666666669
2933 623 -0.083333333333333343
2934 623 -0.083333333333333315
2935 623 0.16666666666666669
2937 623 -0.083333333333333343
3028 623 -0.083333333333333329
624 624 2.666666666666667
625 624 -0.33333333333333337
655 624 -0.33333333333333337
2838 624 -0.083333333333333343
2839 624 -0.083333333333333343
2840 624 0.16666666666666669
2842 624 -0.083333333333333343
2843 624 -0.16666666666666669
2933 624 -0.083333333333333287
2935 624 -0.16666666666666669
2936 624 -0.083333333333333343
2937 624 -0.083333333333333315
2938 624 0.16666666666666669
2940 624 -0.083333333333333343
3031 624 -0.083333333333333329
625 625 2.666666666666667
626 625 -0.33333333333333337
656 625 -0.33333333333333337
2841 625 -0.083333333333333343
2842 625 -0.083333333333333343
2843 625 0.16666666666666669
2845 625 -0.083333333333333343
2846 625 -0.16666666666666669
2936 625 -0.083333333333333287
2938 625 -0.16666666666666669
2939 625 -0.083333333333333343
2940 625 -0.083333333333333315
2941 625 0.16666666666666669
2943 625 -0.083333333333333343
3034 625 -0.083333333333333329
626 626 2.666666666666667
627 626 -0.33333333333333337
657 626 -0.33333333333333337
2844 626 -0.083333333333333343
2845 626 -0.083333333333333343
2846 626 0.16666666666666669
2848 626 -0.083333333333333343
2849 626 -0.16666666666666669
2939 626 -0.083333333333333287
2941 626 -0.16666666666666669
2942 626 -0.083333333333333343
2943 626 -0.083333333333333315
2944 626 0.16666666666666669
2946 626 -0.083333333333333343
3037 626 -0.083333333333333329
627 627 2.666666666666667
628 627 -0.33333333333333337
658 627 -0.33333333333333337
2847 627 -0.083333333333333343
2848 627 -0.083333333333333343
2849 627 0.16666666666666669
2851 627 -0.083333333333333343
2852 627 -0.16666666666666669
2942 627 -0.083333333333333287
2944 627 -0.16666666666666669
2945 627 -0.083333333333333343
2946 627 -0.083333333333333315
2947 627 0.16666666666666669
2949 627 -0.083333333333333343
3040 627 -0.083333333333333329
628 628 2.666666666666667
629 628 -0.33333333333333337
659 628 -0.33333333333333337
2850 628 -0.083333333333333343
2851 628 -0.083333333333333343
2852 628 0.16666666666666669
2854 628 -0.083333333333333343
2855 628 -0.16666666666666669
2945 628 -0.083333333333333287
2947 628 -0.16666666666666669
2948 628 -0.083333333333333343
2949 628 -0.083333333333333315
2950 628 0.16666666666666669
2952 628 -0.083333333333333343
3043 628 -0.083333333333333329
629 629 2.666666666666667
630 629 -0.33333333333333337
660 629 -0.33333333333333337
2853 629 -0.083333333333333343
2854 629 -0.083333333333333343
2855 629 0.16666666666666669
2857 629 -0.083333333333333343
2858 629 -0.16666666666666669
2948 629 -0.083333333333333287
2950 629 -0.16666666666666669
2951 629 -0.083333333333333343
2952 629 -0.083333333333333315
2953 629 0.16666666666666669
2955 629 -0.083333333333333343
3046 629 -0.083333333333333329
630 630 2.666666666666667
631 630 -0.33333333333333337
661 630 -0.33333333333333337
2856 630 -0.083333333333333343
2857 630 -0.083333333333333343
2858 630 0.16666666666666669
2860 630 -0.083333333333333343
2861 630 -0.16666666666666669
2951 630 -0.083333333333333287
2953 630 -0.16666666666666669
2954 630 -0.083333333333333343
2955 630 -0.083333333333333315
2956 630 0.16666666666666669
2958 630 -0.083333333333333343
3049 630 -0.083333333333333329
631 631 2.666666666666667
632 631 -0.33333333333333337
662 631 -0.33333333333333337
2859 631 -0.083333333333333343
2860 631 -0.083333333333333343
2861 631 0.16666666666666669
2863 631 -0.083333333333333343
2864 631 -0.16666666666666669
2954 631 -0.083333333333333287
2956 631 -0.16666666666666669
2957 631 -0.083333333333333343
2958 631 -0.083333333333333315
2959 631 0.16666666666666669
2961 631 -0.083333333333333343
3052 631 -0.083333333333333329
632 632 2.666666666666667
633 632 -0.33333333333333337
663 632 -0.33333333333333337
2862 632 -0.083333333333333343
2863 632 -0.083333333333333343
2864 632 0.16666666666666669
2866 632 -0.083333333333333343
2867 632 -0.16666666666666669
2957 632 -0.083333333333333287
2959 632 -0.16666666666666669
2960 632 -0.083333333333333343
2961 632 -0.083333333333333315
2962 632 0.16666666666666669
2964 632 -0.083333333333333343
3055 632 -0.083333333333333329
633 633 2.666666666666667
634 633 -0.33333333333333337
664 633 -0.33333333333333337
2865 633 -0.083333333333333343
2866 633 -0.083333333333333343
2867 633 0.16666666666666669
2869 633 -0.083333333333333343
2870 633 -0.16666666666666669
2960 633 -0.083333333333333287
2962 633 -0.16666666666666669
2963 633 -0.083333333333333343
2964 633 -0.083333333333333315
2965 633 0.16666666666666669
2967 633 -0.083333333333333343
3058 633 -0.083333333333333329
634 634 2.666666666666667
635 634 -0.33333333333333337
665 634 -0.33333333333333337
2868 634 -0.083333333333333343
2869 634 -0.083333333333333343
2870 634 0.16666666666666669
2872 634 -0.083333333333333343
2873 634 -0.16666666666666669
2963 634 -0.083333333333333287
2965 634 -0.16666666666666669
2966 634 -0.083333333333333343
2967 634 -0.083333333333333315
2968 634 0.16666666666666669
2970 634 -0.083333333333333343
3061 634 -0.083333333333333329
635 635 2.666666666666667
636 635 -0.33333333333333337
666 635 -0.33333333333333337
2871 635 -0.083333333333333343
2872 635 -0.083333333333333343
2873 635 0.16666666666666669
2875 635 -0.083333333333333343
2876 635 -0.16666666666666669
2966 635 -0.083333333333333287
2968 635 -0.16666666666666669
2969 635 -0.083333333333333343
2970 635 -0.083333333333333315
2971 635 0.16666666666666669
2973 635 -0.083333333333333343
3064 635 -0.083333333333333329
636 636 2.666666666666667
637 636 -0.33333333333333337
667 636 -0.33333333333333337
2874 636 -0.083333333333333343
2875 636 -0.083333333333333343
2876 636 0.16666666666666669
2878 636 -0.083333333333333343
2879 636 -0.16666666666666669
2969 636 -0.083333333333333287
2971 636 -0.16666666666666669
2972 636 -0.083333333333333343
2973 636 -0.083333333333333315
2974 636 0.16666666666666669
2976 636 -0.083333333333333343
3067 636 -0.083333333333333329
637 637 2.666666666666667
638 637 -0.33333333333333337
668 637 -0.33333333333333337
2877 637 -0.083333333333333343
2878 637 -0.083333333333333343
2879 637 0.16666666666666669
2881 637 -0.083333333333333343
2882 637 -0.16666666666666669
2972 637 -0.083333333333333287
2974 637 -0.16666666666666669
2975 637 -0.083333333333333343
2976 637 -0.083333333333333315
2977 637 0.16666666666666669
2979 637 -0.083333333333333343
3070 637 -0.083333333333333329
638 638 2.666666666666667
639 638 -0.33333333333333337
669 638 -0.33333333333333337
2880 638 -0.083333333333333343
2881 638 -0.083333333333333343
2882 638 0.16666666666666669
2884 638 -0.083333333333333343
2885 638 -0.16666666666666669
2975 638 -0.083333333333333287
2977 638 -0.16666666666666669
2978 638 -0.083333333333333343
2979 638 -0.083333333333333315
2980 638 0.16666666666666669
2982 638 -0.083333333333333343
3073 638 -0.083333333333333329
639 639 2.666666666666667
640 639 -0.33333333333333337
670 639 -0.33333333333333337
2883 639 -0.083333333333333343
2884 639 -0.083333333333333343
2885 639 0.16666666666666669
2887 639 -0.083333333333333343
2888 639 -0.16666666666666669
2978 639 -0.083333333333333287
2980 639 -0.16666666666666669
2981 639 -0.083333333333333343
2982 639 -0.083333333333333315
2983 639 0.16666666666666669
2985 639 -0.083333333333333343
3076 639 -0.083333333333333329
640 640 2.666666666666667
641 640 -0.33333333333333337
671 640 -0.33333333333333337
2886 640 -0.083333333333333343
2887 640 -0.083333333333333343
2888 640 0.16666666666666669
2890 640 -0.083333333333333343
2891 640 -0.16666666666666669
2981 640 -0.083333333333333287
2983 640 -0.16666666666666669
2984 640 -0.083333333333333343
2985 640 -0.083333333333333315
2986 640 0.16666666666666669
2988 640 -0.083333333333333343
3079 640 -0.083333333333333329
641 641 2.666666666666667
642 641 -0.33333333333333337
672 641 -0.33333333333333337
2889 641 -0.083333333333333343
2890 641 -0.083333333333333343
2891 641 0.16666666666666669
2893 641 -0.083333333333333343
2894 641 -0.16666666666666669
2984 641 -0.083333333333333287
2986 641 -0.16666666666666669
2987 641 -0.083333333333333343
2988 641 -0.083333333333333315
2989 641 0.16666666666666669
2991 641 -0.083333333333333343
3082 641 -0.083333333333333329
642 642 2.666666666666667
643 642 -0.33333333333333337
673 642 -0.33333333333333337
2892 642 -0.083333333333333343
2893 642 -0.083333333333333343
2894 642 0.16666666666666669
2896 642 -0.083333333333333343
2897 642 -0.16666666666666669
2987 642 -0.083333333333333287
2989 642 -0.16666666666666669
2990 642 -0.083333333333333343
2991 642 -0.083333333333333315
2992 642 0.16666666666666669
2994 642 -0.083333333333333343
3085 642 -0.083333333333333329
643 643 2.666666666666667
644 643 -0.33333333333333337
674 643 -0.33333333333333337
2895 643 -0.083333333333333343
2896 643 -0.083333333333333343
2897 643 0.16666666666666669
2899 643 -0.083333333333333343
2900 643 -0.16666666666666669
2990 643 -0.083333333333333287
2992 643 -0.16666666666666669
2993 643 -0.083333333333333343
2994 643 -0.083333333333333315
2995 643 0.16666666666666669
2997 643 -0.083333333333333343
3088 643 -0.083333333333333329
644 644 2.666666666666667
645 644 -0.33333333333333337
675 644 -0.33333333333333337
2898 644 -0.083333333333333343
2899 644 -0.083333333333333343
2900 644 0.16666666666666669
2902 644 -0.083333333333333343
2903 644 -0.16666666666666669
2993 644 -0.083333333333333287
2995 644 -0.16666666666666669
2996 644 -0.083333333333333343
2997 644 -0.083333333333333315
2998 644 0.16666666666666669
3000 644 -0.083333333333333343
3091 644 -0.083333333333333329
645 645 2.666666666666667
646 645 -0.33333333333333337
676 645 -0.33333333333333337
2901 645 -0.083333333333333343
2902 645 -0.083333333333333343
2903 645 0.16666666666666669
2905 645 -0.083333333333333343
2906 645 -0.16666666666666669
2996 645 -0.083333333333333287
2998 645 -0.16666666666666669
2999 645 -0.083333333333333343
3000 645 -0.083333333333333315
3001 645 0.16666666666666669
3003 645 -0.083333333333333343
3094 645 -0.083333333333333329
646 646 2.666666666666667
647 646 -0.33333333333333337
677 646 -0.33333333333333337
2904 646 -0.083333333333333343
2905 646 -0.083333333333333343
2906 646 0.16666666666666669
2908 646 -0.083333333333333343
2909 646 -0.16666666666666669
2999 646 -0.083333333333333287
3001 646 -0.16666666666666669
3002 646 -0.083333333333333343
3003 646 -0.083333333333333315
3004 646 0.16666666666666669
3006 646 -0.083333333333333343
3097 646 -0.083333333333333329
647 647 2.666666666666667
648 647 -0.33333333333333337
678 647 -0.33333333333333337
2907 647 -0.083333333333333343
2908 647 -0.083333333333333343
2909 647 0.16666666666666669
2911 647 -0.083333333333333343
2912 647 -0.16666666666666669
3002 647 -0.083333333333333287
3004 647 -0.16666666666666669
3005 647 -0.083333333333333343
3006 647 -0.083333333333333315
3007 647 0.16666666666666669
3009 647 -0.083333333333333343
3100 647 -0.083333333333333329
648 648 2.666666666666667
649 648 -0.33333333333333337
679 648 -0.33333333333333337
2910 648 -0.083333333333333343
2911 648 -0.083333333333333343
2912 648 0.16666666666666669
2914 648 -0.083333333333333343
2915 648 -0.16666666666666669
3005 648 -0.083333333333333287
3007 648 -0.16666666666666669
3008 648 -0.083333333333333343
3009 648 -0.083333333333333315
3010 648 0.16666666666666669
3012 648 -0.083333333333333343
3103 648 -0.083333333333333329
649 649 2.666666666666667
650 649 -0.33333333333333337
680 649 -0.33333333333333337
2913 649 -0.083333333333333343
2914 649 -0.083333333333333343
2915 649 0.16666666666666669
2917 649 -0.083333333333333343
2918 649 -0.16666666666666669
3008 649 -0.083333333333333287
3010 649 -0.16666666666666669
3011 649 -0.083333333333333343
3012 649 -0.083333333333333315
3013 649 0.16666666666666669
3015 649 -0.083333333333333343
3106 649 -0.083333333333333329
650 650 2.666666666666667
651 650 -0.33333333333333337
681 650 -0.33333333333333337
2916 650 -0.083333333333333343
2917 650 -0.083333333333333343
2918 650 0.16666666666666669
2920 650 -0.083333333333333343
2921 650 -0.16666666666666669
3011 650 -0.083333333333333287
3013 650 -0.16666666666666669
3014 650 -0.083333333333333343
3015 650 -0.083333333333333315
3016 650 0.16666666666666669
3018 650 -0.083333333333333343
3109 650 -0.083333333333333329
651 651 2.666666666666667
682 651 -0.33333333333333337
2919 651 -0.083333333333333343
2920 651 -0.083333333333333343
2921 651 0.16666666666666669
2923 651 -0.083333333333333343
2924 651 -0.16666666666666669
3014 651 -0.083333333333333287
3016 651 -0.16666666666666669
3017 651 -0.083333333333333343
3018 651 -0.083333333333333315
3019 651 0.16666666666666669
3112 651 -0.083333333333333329
652 652 2.666666666666667
653 652 -0.33333333333333337
683 652 -0.33333333333333337
2925 652 -0.083333333333333343
2926 652 0.16666666666666669
2928 652 -0.083333333333333343
2929 652 -0.16666666666666669
3020 652 -0.083333333333333287
3021 652 -0.16666666666666669
3022 652 -0.083333333333333343
3023 652 -0.083333333333333315
3024 652 0.16666666666666669
3026 652 -0.083333333333333343
3117 652 -0.083333333333333329
653 653 2.666666666666667
654 653 -0.33333333333333337
684 653 -0.33333333333333337
2927 653 -0.083333333333333343
2928 653 -0.083333333333333343
2929 653 0.16666666666666669
2931 653 -0.083333333333333343
2932 653 -0.16666666666666669
3022 653 -0.083333333333333287
3024 653 -0.16666666666666669
3025 653 -0.083333333333333343
3026 653 -0.083333333333333315
3027 653 0.16666666666666669
3029 653 -0.083333333333333343
3120 653 -0.083333333333333329
654 654 2.666666666666667
655 654 -0.33333333333333337
685 654 -0.33333333333333337
2930 654 -0.083333333333333343
2931 654 -0.083333333333333343
2932 654 0.16666666666666669
2934 654 -0.083333333333333343
2935 654 -0.16666666666666669
3025 654 -0.083333333333333287
3027 654 -0.16666666666666669
3028 654 -0.083333333333333343
3029 654 -0.083333333333333315
3030 654 0.16666666666666669
3032 654 -0.083333333333333343
3123 654 -0.083333333333333329
655 655 2.666666666666667
656 655 -0.33333333333333337
686 655 -0.33333333333333337
2933 655 -0.083333333333333343
2934 655 -0.083333333333333343
2935 655 0.16666666666666669
2937 655 -0.083333333333333343
2938 655 -0.16666666666666669
3028 655 -0.083333333333333287
3030 655 -0.16666666666666669
3031 655 -0.083333333333333343
3032 655 -0.083333333333333315
3033 655 0.16666666666666669
3035 655 -0.083333333333333343
3126 655 -0.083333333333333329
656 656 2.666666666666667
657 656 -0.33333333333333337
687 656 -0.33333333333333337
2936 656 -0.083333333333333343
2937 656 -0.083333333333333343
2938 656 0.16666666666666669
2940 656 -0.083333333333333343
2941 656 -0.16666666666666669
3031 656 -0.083333333333333287
3033 656 -0.16666666666666669
3034 656 -0.083333333333333343
3035 656 -0.083333333333333315
3036 656 0.16666666666666669
3038 656 -0.083333333333333343
3129 656 -0.083333333333333329
657 657 2.666666666666667
658 657 -0.33333333333333337
688 657 -0.33333333333333337
2939 657 -0.083333333333333343
2940 657 -0.083333333333333343
2941 657 0.16666666666666669
2943 657 -0.083333333333333343
2944 657 -0.16666666666666669
3034 657 -0.083333333333333287
3036 657 -0.16666666666666669
3037 657 -0.083333333333333343
3038 657 -0.083333333333333315
3039 657 0.16666666666666669
3041 657 -0.083333333333333343
3132 657 -0.083333333333333329
658 658 2.666666666666667
659 658 -0.33333333333333337
689 658 -0.33333333333333337
2942 658 -0.083333333333333343
2943 658 -0.083333333333333343
2944 658 0.16666666666666669
2946 658 -0.083333333333333343
2947 658 -0.16666666666666669
3037 658 -0.083333333333333287
3039 658 -0.16666666666666669
3040 658 -0.083333333333333343
3041 658 -0.083333333333333315
3042 658 0.16666666666666669
3044 658 -0.083333333333333343
3135 658 -0.083333333333333329
659 659 2.666666666666667
660 659 -0.33333333333333337
690 659 -0.33333333333333337
2945 659 -0.083333333333333343
2946 659 -0.083333333333333343
2947 659 0.16666666666666669
2949 659 -0.083333333333333343
2950 659 -0.16666666666666669
3040 659 -0.083333333333333287
3042 659 -0.16666666666666669
3043 659 -0.083333333333333343
3044 659 -0.083333333333333315
3045 659 0.16666666666666669
3047 659 -0.083333333333333343
3138 659 -0.083333333333333329
660 660 2.666666666666667
661 660 -0.33333333333333337
691 660 -0.33333333333333337
2948 660 -0.083333333333333343
2949 660 -0.083333333333333343
2950 660 0.16666666666666669
2952 660 -0.083333333333333343
2953 660 -0.16666666666666669
3043 660 -0.083333333333333287
3045 660 -0.16666666666666669
3046 660 -0.083333333333333343
3047 660 -0.083333333333333315
3048 660 0.16666666666666669
3050 660 -0.083333333333333343
3141 660 -0.083333333333333329
661 661 2.666666666666667
662 661 -0.33333333333333337
692 661 -0.33333333333333337
2951 661 -0.083333333333333343
2952 661 -0.083333333333333343
2953 661 0.16666666666666669
2955 661 -0.083333333333333343
2956 661 -0.16666666666666669
3046 661 -0.083333333333333287
3048 661 -0.16666666666666669
3049 661 -0.083333333333333343
3050 661 -0.083333333333333315
3051 661 0.16666666666666669
3053 661 -0.083333333333333343
3144 661 -0.083333333333333329
662 662 2.666666666666667
663 662 -0.33333333333333337
693 662 -0.33333333333333337
2954 662 -0.083333333333333343
2955 662 -0.083333333333333343
2956 662 0.16666666666666669
2958 662 -0.083333333333333343
2959 662 -0.16666666666666669
3049 662 -0.083333333333333287
3051 662 -0.16666666666666669
3052 662 -0.083333333333333343
3053 662 -0.083333333333333315
3054 662 0.16666666666666669
3056 662 -0.083333333333333343
3147 662 -0.083333333333333329
663 663 2.666666666666667
664 663 -0.33333333333333337
694 663 -0.33333333333333337
2957 663 -0.083333333333333343
2958 663 -0.083333333333333343
2959 663 0.16666666666666669
2961 663 -0.083333333333333343
2962 663 -0.16666666666666669
3052 663 -0.083333333333333287
3054 663 -0.16666666666666669
3055 663 -0.083333333333333343
3056 663 -0.083333333333333315
3057 663 0.16666666666666669
3059 663 -0.083333333333333343
3150 663 -0.083333333333333329
664 664 2.666666666666667
665 664 -0.33333333333333337
695 664 -0.33333333333333337
2960 664 -0.083333333333333343
2961 664 -0.083333333333333343
2962 664 0.16666666666666669
2964 664 -0.083333333333333343
2965 664 -0.16666666666666669
3055 664 -0.083333333333333287
3057 664 -0.16666666666666669
3058 664 -0.083333333333333343
3059 664 -0.083333333333333315
3060 664 0.16666666666666669
3062 664 -0.083333333333333343
3153 664 -0.083333333333333329
665 665 2.666666666666667
666 665 -0.33333333333333337
696 665 -0.33333333333333337
2963 665 -0.083333333333333343
2964 665 -0.083333333333333343
2965 665 0.16666666666666669
2967 665 -0.083333333333333343
2968 665 -0.16666666666666669
3058 665 -0.083333333333333287
3060 665 -0.16666666666666669
3061 665 -0.083333333333333343
3062 665 -0.083333333333333315
3063 665 0.16666666666666669
3065 665 -0.083333333333333343
3156 665 -0.083333333333333329
666 666 2.666666666666667
667 666 -0.33333333333333337
697 666 -0.33333333333333337
2966 666 -0.083333333333333343
2967 666 -0.083333333333333343
2968 666 0.16666666666666669
2970 666 -0.083333333333333343
2971 666 -0.16666666666666669
3061 666 -0.083333333333333287
3063 666 -0.16666666666666669
3064 666 -0.083333333333333343
3065 666 -0.083333333333333315
3066 666 0.16666666666666669
3068 666 -0.083333333333333343
3159 666 -0.083333333333333329
667 667 2.666666666666667
668 667 -0.33333333333333337
698 667 -0.33333333333333337
2969 667 -0.083333333333333343
2970 667 -0.083333333333333343
2971 667 0.16666666666666669
2973 667 -0.083333333333333343
2974 667 -0.16666666666666669
3064 667 -0.083333333333333287
3066 667 -0.16666666666666669
3067 667 -0.083333333333333343
3068 667 -0.083333333333333315
3069 667 0.16666666666666669
3071 667 -0.083333333333333343
3162 667 -0.083333333333333329
668 668 2.666666666666667
669 668 -0.33333333333333337
699 668 -0.33333333333333337
2972 668 -0.083333333333333343
2973 668 -0.083333333333333343
2974 668 0.16666666666666669
2976 668 -0.083333333333333343
2977 668 -0.16666666666666669
3067 668 -0.083333333333333287
3069 668 -0.16666666666666669
3070 668 -0.083333333333333343
3071 668 -0.083333333333333315
3072 668 0.16666666666666669
3074 668 -0.083333333333333343
3165 668 -0.083333333333333329
669 669 2.666666666666667
670 669 -0.33333333333333337
700 669 -0.33333333333333337
2975 669 -0.083333333333333343
2976 669 -0.083333333333333343
2977 669 0.16666666666666669
2979 669 -0.083333333333333343
2980 669 -0.16666666666666669
3070 669 -0.083333333333333287
3072 669 -0.16666666666666669
3073 669 -0.083333333333333343
3074 669 -0.083333333333333315
3075 669 0.16666666666666669
3077 669 -0.083333333333333343
3168 669 -0.083333333333333329
670 670 2.666666666666667
671 670 -0.33333333333333337
701 670 -0.33333333333333337
2978 670 -0.083333333333333343
2979 670 -0.083333333333333343
2980 670 0.16666666666666669
2982 670 -0.083333333333333343
2983 670 -0.16666666666666669
3073 670 -0.083333333333333287
3075 670 -0.16666666666666669
3076 670 -0.083333333333333343
3077 670 -0.083333333333333315
3078 670 0.16666666666666669
3080 670 -0.083333333333333343
3171 670 -0.083333333333333329
671 671 2.666666666666667
672 671 -0.33333333333333337
702 671 -0.33333333333333337
2981 671 -0.083333333333333343
2982 671 -0.083333333333333343
2983 671 0.16666666666666669
2985 671 -0.083333333333333343
2986 671 -0.16666666666666669
3076 671 -0.083333333333333287
3078 671 -0.16666666666666669
3079 671 -0.083333333333333343
3080 671 -0.083333333333333315
3081 671 0.16666666666666669
3083 671 -0.083333333333333343
3174 671 -0.083333333333333329
672 672 2.666666666666667
673 672 -0.33333333333333337
703 672 -0.33333333333333337
2984 672 -0.083333333333333343
2985 672 -0.083333333333333343
2986 672 0.16666666666666669
2988 672 -0.083333333333333343
2989 672 -0.16666666666666669
3079 672 -0.083333333333333287
3081 672 -0.16666666666666669
3082 672 -0.083333333333333343
3083 672 -0.083333333333333315
3084 672 0.16666666666666669
3086 672 -0.083333333333333343
3177 672 -0.083333333333333329
673 673 2.666666666666667
674 673 -0.33333333333333337
704 673 -0.33333333333333337
2987 673 -0.083333333333333343
2988 673 -0.083333333333333343
2989 673 0.16666666666666669
2991 673 -0.083333333333333343
2992 673 -0.16666666666666669
3082 673 -0.083333333333333287
3084 673 -0.16666666666666669
3085 673 -0.083333333333333343
3086 673 -0.083333333333333315
3087 673 0.16666666666666669
3089 673 -0.083333333333333343
3180 673 -0.083333333333333329
674 674 2.666666666666667
675 674 -0.33333333333333337
705 674 -0.33333333333333337
2990 674 -0.083333333333333343
2991 674 -0.083333333333333343
2992 674 0.16666666666666669
2994 674 -0.083333333333333343
2995 674 -0.16666666666666669
3085 674 -0.083333333333333287
3087 674 -0.16666666666666669
3088 674 -0.083333333333333343
3089 674 -0.083333333333333315
3090 674 0.16666666666666669
3092 674 -0.083333333333333343
3183 674 -0.083333333333333329
675 675 2.666666666666667
676 675 -0.33333333333333337
706 675 -0.33333333333333337
2993 675 -0.083333333333333343
2994 675 -0.083333333333333343
2995 675 0.16666666666666669
2997 675 -0.083333333333333343
2998 675 -0.16666666666666669
3088 675 -0.083333333333333287
3090 675 -0.16666666666666669
3091 675 -0.083333333333333343
3092 675 -0.083333333333333315
3093 675 0.16666666666666669
3095 675 -0.083333333333333343
3186 675 -0.083333333333333329
676 676 2.666666666666667
677 676 -0.33333333333333337
707 676 -0.33333333333333337
2996 676 -0.083333333333333343
2997 676 -0.083333333333333343
2998 676 0.16666666666666669
3000 676 -0.083333333333333343
3001 676 -0.16666666666666669
3091 676 -0.083333333333333287
3093 676 -0.16666666666666669
3094 676 -0.083333333333333343
3095 676 -0.083333333333333315
3096 676 0.16666666666666669
3098 676 -0.083333333333333343
3189 676 -0.083333333333333329
677 677 2.666666666666667
678 677 -0.33333333333333337
708 677 -0.33333333333333337
2999 677 -0.083333333333333343
3000 677 -0.083333333333333343
3001 677 0.16666666666666669
3003 677 -0.083333333333333343
3004 677 -0.16666666666666669
3094 677 -0.083333333333333287
3096 677 -0.16666666666666669
3097 677 -0.083333333333333343
3098 677 -0.083333333333333315
3099 677 0.16666666666666669
3101 677 -0.083333333333333343
3192 677 -0.083333333333333329
678 678 2.666666666666667
679 678 -0.33333333333333337
709 678 -0.33333333333333337
3002 678 -0.083333333333333343
3003 678 -0.083333333333333343
3004 678 0.16666666666666669
3006 678 -0.083333333333333343
3007 678 -0.16666666666666669
3097 678 -0.083333333333333287
3099 678 -0.16666666666666669
3100 678 -0.083333333333333343
3101 678 -0.083333333333333315
3102 678 0.16666666666666669
3104 678 -0.083333333333333343
3195 678 -0.083333333333333329
679 679 2.666666666666667
680 679 -0.33333333333333337
710 679 -0.33333333333333337
3005 679 -0.083333333333333343
3006 679 -0.083333333333333343
3007 679 0.16666666666666669
3009 679 -0.083333333333333343
3010 679 -0.16666666666666669
3100 679 -0.083333333333333287
3102 679 -0.16666666666666669
3103 679 -0.083333333333333343
3104 679 -0.083333333333333315
3105 679 0.16666666666666669
3107 679 -0.083333333333333343
3198 679 -0.083333333333333329
680 680 2.666666666666667
681 680 -0.33333333333333337
711 680 -0.33333333333333337
3008 680 -0.083333333333333343
3009 680 -0.083333333333333343
3010 680 0.16666666666666669
3012 680 -0.083333333333333343
3013 680 -0.16666666666666669
3103 680 -0.083333333333333287
3105 680 -0.16666666666666669
3106 680 -0.083333333333333343
3107 680 -0.083333333333333315
3108 680 0.16666666666666669
3110 680 -0.083333333333333343
3201 680 -0.083333333333333329
681 681 2.666666666666667
682 681 -0.33333333333333337
712 681 -0.33333333333333337
3011 681 -0.083333333333333343
3012 681 -0.083333333333333343
3013 681 0.16666666666666669
3015 681 -0.083333333333333343
3016 681 -0.16666666666666669
3106 681 -0.083333333333333287
3108 681 -0.16666666666666669
3109 681 -0.083333333333333343
3110 681 -0.083333333333333315
3111 681 0.16666666666666669
3113 681 -0.083333333333333343
3204 681 -0.083333333333333329
682 682 2.666666666666667
713 682 -0.33333333333333337
3014 682 -0.083333333333333343
3015 682 -0.083333333333333343
3016 682 0.16666666666666669
3018 682 -0.083333333333333343
3019 682 -0.16666666666666669
3109 682 -0.083333333333333287
3111 682 -0.16666666666666669
3112 682 -0.083333333333333343
3113 682 -0.083333333333333315
3114 682 0.16666666666666669
3207 682 -0.083333333333333329
683 683 2.666666666666667
684 683 -0.33333333333333337
714 683 -0.33333333333333337
3020 683 -0.083333333333333343
3021 683 0.16666666666666669
3023 683 -0.083333333333333343
3024 683 -0.16666666666666669
3115 683 -0.083333333333333287
3116 683 -0.16666666666666669
3117 683 -0.083333333333333343
3118 683 -0.083333333333333315
3119 683 0.16666666666666669
3121 683 -0.083333333333333343
3212 683 -0.083333333333333329
684 684 2.666666666666667
685 684 -0.33333333333333337
715 684 -0.33333333333333337
3022 684 -0.083333333333333343
3023 684 -0.083333333333333343
3024 684 0.16666666666666669
3026 684 -0.083333333333333343
3027 684 -0.16666666666666669
3117 684 -0.083333333333333287
3119 684 -0.16666666666666669
3120 684 -0.083333333333333343
3121 684 -0.083333333333333315
3122 684 0.16666666666666669
3124 684 -0.083333333333333343
3215 684 -0.083333333333333329
685 685 2.666666666666667
686 685 -0.33333333333333337
716 685 -0.33333333333333337
3025 685 -0.083333333333333343
3026 685 -0.083333333333333343
3027 685 0.16666666666666669
3029 685 -0.083333333333333343
3030 685 -0.16666666666666669
3120 685 -0.083333333333333287
3122 685 -0.16666666666666669
3123 685 -0.083333333333333343
3124 685 -0.083333333333333315
3125 685 0.16666666666666669
3127 685 -0.083333333333333343
3218 685 -0.083333333333333329
686 686 2.666666666666667
687 686 -0.33333333333333337
717 686 -0.33333333333333337
3028 686 -0.083333333333333343
3029 686 -0.083333333333333343
3030 686 0.16666666666666669
3032 686 -0.083333333333333343
3033 686 -0.16666666666666669
3123 686 -0.083333333333333287
3125 686 -0.16666666666666669
3126 686 -0.083333333333333343
3127 686 -0.083333333333333315
3128 686 0.16666666666666669
3130 686 -0.083333333333333343
3221 686 -0.083333333333333329
687 687 2.666666666666667
688 687 -0.33333333333333337
718 687 -0.33333333333333337
3031 687 -0.083333333333333343
3032 687 -0.083333333333333343
3033 687 0.16666666666666669
3035 687 -0.083333333333333343
3036 687 -0.16666666666666669
3126 687 -0.083333333333333287
3128 687 -0.16666666666666669
3129 687 -0.083333333333333343
3130 687 -0.083333333333333315
3131 687 0.16666666666666669
3133 687 -0.083333333333333343
3224 687 -0.083333333333333329
688 688 2.666666666666667
689 688 -0.33333333333333337
719 688 -0.33333333333333337
3034 688 -0.083333333333333343
3035 688 -0.083333333333333343
3036 688 0.16666666666666669
3038 688 -0.083333333333333343
3039 688 -0.16666666666666669
3129 688 -0.083333333333333287
3131 688 -0.16666666666666669
3132 688 -0.083333333333333343
3133 688 -0.083333333333333315
3134 688 0.16666666666666669
3136 688 -0.083333333333333343
3227 688 -0.083333333333333329
689 689 2.666666666666667
690 689 -0.33333333333333337
720 689 -0.33333333333333337
3037 689 -0.083333333333333343
3038 689 -0.083333333333333343
3039 689 0.16666666666666669
3041 689 -0.083333333333333343
3042 689 -0.16666666666666669
3132 689 -0.083333333333333287
3134 689 -0.16666666666666669
3135 689 -0.083333333333333343
3136 689 -0.083333333333333315
3137 689 0.16666666666666669
3139 689 -0.083333333333333343
3230 689 -0.083333333333333329
690 690 2.666666666666667
691 690 -0.33333333333333337
721 690 -0.33333333333333337
3040 690 -0.083333333333333343
3041 690 -0.083333333333333343
3042 690 0.16666666666666669
3044 690 -0.083333333333333343
3045 690 -0.16666666666666669
3135 690 -0.083333333333333287
3137 690 -0.16666666666666669
3138 690 -0.083333333333333343
3139 690 -0.083333333333333315
3140 690 0.16666666666666669
3142 690 -0.083333333333333343
3233 690 -0.083333333333333329
691 691 2.666666666666667
692 691 -0.33333333333333337
722 691 -0.33333333333333337
3043 691 -0.083333333333333343
3044 691 -0.083333333333333343
3045 691 0.16666666666666669
3047 691 -0.083333333333333343
3048 691 -0.16666666666666669
3138 691 -0.083333333333333287
3140 691 -0.16666666666666669
3141 691 -0.083333333333333343
3142 691 -0.083333333333333315
3143 691 0.16666666666666669
3145 691 -0.083333333333333343
3236 691 -0.083333333333333329
692 692 2.666666666666667
693 692 -0.33333333333333337
723 692 -0.33333333333333337
3046 692 -0.083333333333333343
3047 692 -0.083333333333333343
3048 692 0.16666666666666669
3050 692 -0.083333333333333343
3051 692 -0.16666666666666669
3141 692 -0.083333333333333287
3143 692 -0.16666666666666669
3144 692 -0.083333333333333343
3145 692 -0.083333333333333315
3146 692 0.16666666666666669
3148 692 -0.083333333333333343
3239 692 -0.083333333333333329
693 693 2.666666666666667
694 693 -0.33333333333333337
724 693 -0.33333333333333337
3049 693 -0.083333333333333343
3050 693 -0.083333333333333343
3051 693 0.16666666666666669
3053 693 -0.083333333333333343
3054 693 -0.16666666666666669
3144 693 -0.083333333333333287
3146 693 -0.16666666666666669
3147 693 -0.083333333333333343
3148 693 -0.083333333333333315
3149 693 0.16666666666666669
3151 693 -0.083333333333333343
3242 693 -0.083333333333333329
694 694 2.666666666666667
695 694 -0.33333333333333337
725 694 -0.33333333333333337
3052 694 -0.083333333333333343
3053 694 -0.083333333333333343
3054 694 0.16666666666666669
3056 694 -0.083333333333333343
3057 694 -0.16666666666666669
3147 694 -0.083333333333333287
3149 694 -0.16666666666666669
3150 694 -0.083333333333333343
3151 694 -0.083333333333333315
3152 694 0.16666666666666669
3154 694 -0.083333333333333343
3245 694 -0.083333333333333329
695 695 2.666666666666667
696 695 -0.33333333333333337
726 695 -0.33333333333333337
3055 695 -0.083333333333333343
3056 695 -0.083333333333333343
3057 695 0.16666666666666669
3059 695 -0.083333333333333343
3060 695 -0.16666666666666669
3150 695 -0.083333333333333287
3152 695 -0.16666666666666669
3153 695 -0.083333333333333343
3154 695 -0.083333333333333315
3155 695 0.16666666666666669
3157 695 -0.083333333333333343
3248 695 -0.083333333333333329
696 696 2.666666666666667
697 696 -0.33333333333333337
727 696 -0.33333333333333337
3058 696 -0.083333333333333343
3059 696 -0.083333333333333343
3060 696 0.16666666666666669
3062 696 -0.083333333333333343
3063 696 -0.16666666666666669
3153 696 -0.083333333333333287
3155 696 -0.16666666666666669
3156 696 -0.083333333333333343
3157 696 -0.083333333333333315
3158 696 0.16666666666666669
3160 696 -0.083333333333333343
3251 696 -0.083333333333333329
697 697 2.666666666666667
698 697 -0.33333333333333337
728 697 -0.33333333333333337
3061 697 -0.083333333333333343
3062 697 -0.083333333333333343
3063 697 0.16666666666666669
3065 697 -0.083333333333333343
3066 697 -0.16666666666666669
3156 697 -0.083333333333333287
3158 697 -0.16666666666666669
3159 697 -0.083333333333333343
3160 697 -0.083333333333333315
3161 697 0.16666666666666669
3163 697 -0.083333333333333343
3254 697 -0.083333333333333329
698 698 2.666666666666667
699 698 -0.33333333333333337
729 698 -0.33333333333333337
3064 698 -0.083333333333333343
3065 698 -0.083333333333333343
3066 698 0.16666666666666669
3068 698 -0.083333333333333343
3069 698 -0.16666666666666669
3159 698 -0.083333333333333287
3161 698 -0.16666666666666669
3162 698 -0.083333333333333343
3163 698 -0.083333333333333315
3164 698 0.16666666666666669
3166 698 -0.083333333333333343
3257 698 -0.083333333333333329
699 699 2.666666666666667
700 699 -0.33333333333333337
730 699 -0.33333333333333337
3067 699 -0.083333333333333343
3068 699 -0.083333333333333343
3069 699 0.16666666666666669
3071 699 -0.083333333333333343
3072 699 -0.16666666666666669
3162 699 -0.083333333333333287
3164 699 -0.16666666666666669
3165 699 -0.083333333333333343
3166 699 -0.083333333333333315
3167 699 0.16666666666666669
3169 699 -0.083333333333333343
3260 699 -0.083333333333333329
700 700 2.666666666666667
701 700 -0.33333333333333337
731 700 -0.33333333333333337
3070 700 -0.083333333333333343
3071 700 -0.083333333333333343
3072 700 0.16666666666666669
3074 700 -0.083333333333333343
3075 700 -0.16666666666666669
3165 700 -0.083333333333333287
3167 700 -0.16666666666666669
3168 700 -0.083333333333333343
3169 700 -0.083333333333333315
3170 700 0.16666666666666669
3172 700 -0.083333333333333343
3263 700 -0.083333333333333329
701 701 2.666666666666667
702 701 -0.33333333333333337
732 701 -0.33333333333333337
3073 701 -0.083333333333333343
3074 701 -0.083333333333333343
3075 701 0.16666666666666669
3077 701 -0.083333333333333343
3078 701 -0.16666666666666669
3168 701 -0.083333333333333287
3170 701 -0.16666666666666669
3171 701 -0.083333333333333343
3172 701 -0.083333333333333315
3173 701 0.16666666666666669
3175 701 -0.083333333333333343
3266 701 -0.083333333333333329
702 702 2.666666666666667
703 702 -0.33333333333333337
733 702 -0.33333333333333337
3076 702 -0.083333333333333343
3077 702 -0.083333333333333343
3078 702 0.16666666666666669
3080 702 -0.083333333333333343
3081 702 -0.16666666666666669
3171 702 -0.083333333333333287
3173 702 -0.16666666666666669
3174 702 -0.083333333333333343
3175 702 -0.083333333333333315
3176 702 0.16666666666666669
3178 702 -0.083333333333333343
3269 702 -0.083333333333333329
703 703 2.666666666666667
704 703 -0.33333333333333337
734 703 -0.33333333333333337
3079 703 -0.083333333333333343
3080 703 -0.083333333333333343
3081 703 0.16666666666666669
3083 703 -0.083333333333333343
3084 703 -0.16666666666666669
3174 703 -0.083333333333333287
3176 703 -0.16666666666666669
3177 703 -0.083333333333333343
3178 703 -0.083333333333333315
3179 703 0.16666666666666669
3181 703 -0.083333333333333343
3272 703 -0.083333333333333329
704 704 2.666666666666667
705 704 -0.33333333333333337
735 704 -0.33333333333333337
3082 704 -0.083333333333333343
3083 704 -0.083333333333333343
3084 704 0.16666666666666669
3086 704 -0.083333333333333343
3087 704 -0.16666666666666669
3177 704 -0.083333333333333287
3179 704 -0.16666666666666669
3180 704 -0.083333333333333343
3181 704 -0.083333333333333315
3182 704 0.16666666666666669
3184 704 -0.083333333333333343
3275 704 -0.083333333333333329
705 705 2.666666666666667
706 705 -0.33333333333333337
736 705 -0.33333333333333337
3085 705 -0.083333333333333343
3086 705 -0.083333333333333343
3087 705 0.16666666666666669
3089 705 -0.083333333333333343
3090 705 -0.16666666666666669
3180 705 -0.083333333333333287
3182 705 -0.16666666666666669
3183 705 -0.083333333333333343
3184 705 -0.083333333333333315
3185 705 0.16666666666666669
3187 705 -0.083333333333333343
3278 705 -0.083333333333333329
706 706 2.666666666666667
707 706 -0.33333333333333337
737 706 -0.33333333333333337
3088 706 -0.083333333333333343
3089 706 -0.083333333333333343
3090 706 0.16666666666666669
3092 706 -0.083333333333333343
3093 706 -0.16666666666666669
3183 706 -0.083333333333333287
3185 706 -0.16666666666666669
3186 706 -0.083333333333333343
3187 706 -0.083333333333333315
3188 706 0.16666666666666669
3190 706 -0.083333333333333343
3281 706 -0.083333333333333329
707 707 2.666666666666667
708 707 -0.33333333333333337
738 707 -0.33333333333333337
3091 707 -0.083333333333333343
3092 707 -0.083333333333333343
3093 707 0.16666666666666669
3095 707 -0.083333333333333343
3096 707 -0.16666666666666669
3186 707 -0.083333333333333287
3188 707 -0.16666666666666669
3189 707 -0.083333333333333343
3190 707 -0.083333333333333315
3191 707 0.16666666666666669
3193 707 -0.083333333333333343
3284 707 -0.083333333333333329
708 708 2.666666666666667
709 708 -0.33333333333333337
739 708 -0.33333333333333337
3094 708 -0.083333333333333343
3095 708 -0.083333333333333343
3096 708 0.16666666666666669
3098 708 -0.083333333333333343
3099 708 -0.16666666666666669
3189 708 -0.083333333333333287
3191 708 -0.16666666666666669
3192 708 -0.083333333333333343
3193 708 -0.083333333333333315
3194 708 0.16666666666666669
3196 708 -0.083333333333333343
3287 708 -0.083333333333333329
709 709 2.666666666666667
710 709 -0.33333333333333337
740 709 -0.33333333333333337
3097 709 -0.083333333333333343
3098 709 -0.083333333333333343
3099 709 0.16666666666666669
3101 709 -0.083333333333333343
3102 709 -0.16666666666666669
3192 709 -0.083333333333333287
3194 709 -0.16666666666666669
3195 709 -0.083333333333333343
3196 709 -0.083333333333333315
3197 709 0.16666666666666669
3199 709 -0.083333333333333343
3290 709 -0.083333333333333329
710 710 2.666666666666667
711 710 -0.33333333333333337
741 710 -0.33333333333333337
3100 710 -0.083333333333333343
3101 710 -0.083333333333333343
3102 710 0.16666666666666669
3104 710 -0.083333333333333343
3105 710 -0.16666666666666669
3195 710 -0.083333333333333287
3197 710 -0.16666666666666669
3198 710 -0.083333333333333343
3199 710 -0.083333333333333315
3200 710 0.16666666666666669
3202 710 -0.083333333333333343
3293 710 -0.083333333333333329
711 711 2.666666666666667
712 711 -0.33333333333333337
742 711 -0.33333333333333337
3103 711 -0.083333333333333343
3104 711 -0.083333333333333343
3105 711 0.16666666666666669
3107 711 -0.083333333333333343
3108 711 -0.16666666666666669
3198 711 -0.083333333333333287
3200 711 -0.16666666666666669
3201 711 -0.083333333333333343
3202 711 -0.083333333333333315
3203 711 0.16666666666666669
3205 711 -0.083333333333333343
3296 711 -0.083333333333333329
712 712 2.666666666666667
713 712 -0.33333333333333337
743 712 -0.33333333333333337
3106 712 -0.083333333333333343
3107 712 -0.083333333333333343
3108 712 0.16666666666666669
3110 712 -0.083333333333333343
3111 712 -0.16666666666666669
3201 712 -0.083333333333333287
3203 712 -0.16666666666666669
3204 712 -0.083333333333333343
3205 712 -0.083333333333333315
3206 712 0.16666666666666669
3208 712 -0.083333333333333343
3299 712 -0.083333333333333329
713 713 2.666666666666667
744 713 -0.33333333333333337
3109 713 -0.083333333333333343
3110 713 -0.083333333333333343
3111 713 0.16666666666666669
3113 713 -0.083333333333333343
3114 713 -0.16666666666666669
3204 713 -0.083333333333333287
3206 713 -0.16666666666666669
3207 713 -0.083333333333333343
3208 713 -0.083333333333333315
3209 713 0.16666666666666669
3302 713 -0.083333333333333329
714 714 2.666666666666667
715 714 -0.33333333333333337
745 714 -0.33333333333333337
3115 714 -0.083333333333333343
3116 714 0.16666666666666669
3118 714 -0.083333333333333343
3119 714 -0.16666666666666669
3210 714 -0.083333333333333287
3211 714 -0.16666666666666669
3212 714 -0.083333333333333343
3213 714 -0.083333333333333315
3214 714 0.16666666666666669
3216 714 -0.083333333333333343
3307 714 -0.083333333333333329
715 715 2.666666666666667
716 715 -0.33333333333333337
746 715 -0.33333333333333337
3117 715 -0.083333333333333343
3118 715 -0.083333333333333343
3119 715 0.16666666666666669
3121 715 -0.083333333333333343
3122 715 -0.16666666666666669
3212 715 -0.083333333333333287
3214 715 -0.16666666666666669
3215 715 -0.083333333333333343
3216 715 -0.083333333333333315
3217 715 0.16666666666666669
3219 715 -0.083333333333333343
3310 715 -0.083333333333333329
716 716 2.666666666666667
717 716 -0.33333333333333337
747 716 -0.33333333333333337
3120 716 -0.083333333333333343
3121 716 -0.083333333333333343
3122 716 0.16666666666666669
3124 716 -0.083333333333333343
3125 716 -0.16666666666666669
3215 716 -0.083333333333333287
3217 716 -0.16666666666666669
3218 716 -0.083333333333333343
3219 716 -0.083333333333333315
3220 716 0.16666666666666669
3222 716 -0.083333333333333343
3313 716 -0.083333333333333329
717 717 2.666666666666667
718 717 -0.33333333333333337
748 717 -0.33333333333333337
3123 717 -0.083333333333333343
3124 717 -0.083333333333333343
3125 717 0.16666666666666669
3127 717 -0.083333333333333343
3128 717 -0.16666666666666669
3218 717 -0.083333333333333287
3220 717 -0.16666666666666669
3221 717 -0.083333333333333343
3222 717 -0.083333333333333315
3223 717 0.16666666666666669
3225 717 -0.083333333333333343
3316 717 -0.083333333333333329
718 718 2.666666666666667
719 718 -0.33333333333333337
749 718 -0.33333333333333337
3126 718 -0.083333333333333343
3127 718 -0.083333333333333343
3128 718 0.16666666666666669
3130 718 -0.083333333333333343
3131 718 -0.16666666666666669
3221 718 -0.083333333333333287
3223 718 -0.16666666666666669
3224 718 -0.083333333333333343
3225 718 -0.083333333333333315
3226 718 0.16666666666666669
3228 718 -0.083333333333333343
3319 718 -0.083333333333333329
719 719 2.666666666666667
720 719 -0.33333333333333337
750 719 -0.33333333333333337
3129 719 -0.083333333333333343
3130 719 -0.083333333333333343
3131 719 0.16666666666666669
3133 719 -0.083333333333333343
3134 719 -0.16666666666666669
3224 719 -0.083333333333333287
3226 719 -0.16666666666666669
3227 719 -0.083333333333333343
3228 719 -0.083333333333333315
3229 719 0.16666666666666669
3231 719 -0.083333333333333343
3322 719 -0.083333333333333329
720 720 2.666666666666667
721 720 -0.33333333333333337
751 720 -0.33333333333333337
3132 720 -0.083333333333333343
3133 720 -0.083333333333333343
3134 720 0.16666666666666669
3136 720 -0.083333333333333343
3137 720 -0.16666666666666669
3227 720 -0.083333333333333287
3229 720 -0.16666666666666669
3230 720 -0.083333333333333343
3231 720 -0.083333333333333315
3232 720 0.16666666666666669
3234 720 -0.083333333333333343
3325 720 -0.083333333333333329
721 721 2.666666666666667
722 721 -0.33333333333333337
752 721 -0.33333333333333337
3135 721 -0.083333333333333343
3136 721 -0.083333333333333343
3137 721 0.16666666666666669
3139 721 -0.083333333333333343
3140 721 -0.16666666666666669
3230 721 -0.083333333333333287
3232 721 -0.16666666666666669
3233 721 -0.083333333333333343
3234 721 -0.083333333333333315
3235 721 0.16666666666666669
3237 721 -0.083333333333333343
3328 721 -0.083333333333333329
722 722 2.666666666666667
723 722 -0.33333333333333337
753 722 -0.33333333333333337
3138 722 -0.083333333333333343
3139 722 -0.083333333333333343
3140 722 0.16666666666666669
3142 722 -0.083333333333333343
3143 722 -0.16666666666666669
3233 722 -0.083333333333333287
3235 722 -0.16666666666666669
3236 722 -0.083333333333333343
3237 722 -0.083333333333333315
3238 722 0.16666666666666669
3240 722 -0.083333333333333343
3331 722 -0.083333333333333329
723 723 2.666666666666667
724 723 -0.33333333333333337
754 723 -0.33333333333333337
3141 723 -0.083333333333333343
3142 723 -0.083333333333333343
3143 723 0.16666666666666669
3145 723 -0.083333333333333343
3146 723 -0.16666666666666669
3236 723 -0.083333333333333287
3238 723 -0.16666666666666669
3239 723 -0.083333333333333343
3240 723 -0.083333333333333315
3241 723 0.16666666666666669
3243 723 -0.083333333333333343
3334 723 -0.083333333333333329
724 724 2.666666666666667
725 724 -0.33333333333333337
755 724 -0.33333333333333337
3144 724 -0.083333333333333343
3145 724 -0.083333333333333343
3146 724 0.16666666666666669
3148 724 -0.083333333333333343
3149 724 -0.16666666666666669
3239 724 -0.083333333333333287
3241 724 -0.16666666666666669
3242 724 -0.083333333333333343
3243 724 -0.083333333333333315
3244 724 0.16666666666666669
3246 724 -0.083333333333333343
3337 724 -0.083333333333333329
725 725 2.666666666666667
726 725 -0.33333333333333337
756 725 -0.33333333333333337
3147 725 -0.083333333333333343
3148 725 -0.083333333333333343
3149 725 0.16666666666666669
3151 725 -0.083333333333333343
3152 725 -0.16666666666666669
3242 725 -0.083333333333333287
3244 725 -0.16666666666666669
3245 725 -0.083333333333333343
3246 725 -0.083333333333333315
3247 725 0.16666666666666669
3249 725 -0.083333333333333343
3340 725 -0.083333333333333329
726 726 2.666666666666667
727 726 -0.33333333333333337
757 726 -0.33333333333333337
3150 726 -0.083333333333333343
3151 726 -0.083333333333333343
3152 726 0.16666666666666669
3154 726 -0.083333333333333343
3155 726 -0.16666666666666669
3245 726 -0.083333333333333287
3247 726 -0.16666666666666669
3248 726 -0.083333333333333343
3249 726 -0.083333333333333315
3250 726 0.16666666666666669
3252 726 -0.083333333333333343
3343 726 -0.083333333333333329
727 727 2.666666666666667
728 727 -0.33333333333333337
758 727 -0.33333333333333337
3153 727 -0.083333333333333343
3154 727 -0.083333333333333343
3155 727 0.16666666666666669
3157 727 -0.083333333333333343
3158 727 -0.16666666666666669
3248 727 -0.083333333333333287
3250 727 -0.16666666666666669
3251 727 -0.083333333333333343
3252 727 -0.083333333333333315
3253 727 0.16666666666666669
3255 727 -0.083333333333333343
3346 727 -0.083333333333333329
728 728 2.666666666666667
729 728 -0.33333333333333337
759 728 -0.33333333333333337
3156 728 -0.083333333333333343
3157 728 -0.083333333333333343
3158 728 0.16666666666666669
3160 728 -0.083333333333333343
3161 728 -0.16666666666666669
3251 728 -0.083333333333333287
3253 728 -0.16666666666666669
3254 728 -0.083333333333333343
3255 728 -0.083333333333333315
3256 728 0.16666666666666669
3258 728 -0.083333333333333343
3349 728 -0.083333333333333329
729 729 2.666666666666667
730 729 -0.33333333333333337
760 729 -0.33333333333333337
3159 729 -0.083333333333333343
3160 729 -0.083333333333333343
3161 729 0.16666666666666669
3163 729 -0.083333333333333343
3164 729 -0.16666666666666669
3254 729 -0.083333333333333287
3256 729 -0.16666666666666669
3257 729 -0.083333333333333343
3258 729 -0.083333333333333315
3259 729 0.16666666666666669
3261 729 -0.083333333333333343
3352 729 -0.083333333333333329
730 730 2.666666666666667
731 730 -0.33333333333333337
761 730 -0.33333333333333337
3162 730 -0.083333333333333343
3163 730 -0.083333333333333343
3164 730 0.16666666666666669
3166 730 -0.083333333333333343
3167 730 -0.16666666666666669
3257 730 -0.083333333333333287
3259 730 -0.16666666666666669
3260 730 -0.083333333333333343
3261 730 -0.083333333333333315
3262 730 0.16666666666666669
3264 730 -0.083333333333333343
3355 730 -0.083333333333333329
731 731 2.666666666666667
732 731 -0.33333333333333337
762 731 -0.33333333333333337
3165 731 -0.083333333333333343
3166 731 -0.083333333333333343
3167 731 0.16666666666666669
3169 731 -0.083333333333333343
3170 731 -0.16666666666666669
3260 731 -0.083333333333333287
3262 731 -0.16666666666666669
3263 731 -0.083333333333333343
3264 731 -0.083333333333333315
3265 731 0.16666666666666669
3267 731 -0.083333333333333343
3358 731 -0.083333333333333329
732 732 2.666666666666667
733 732 -0.33333333333333337
763 732 -0.33333333333333337
3168 732 -0.083333333333333343
3169 732 -0.083333333333333343
3170 732 0.16666666666666669
3172 732 -0.083333333333333343
3173 732 -0.16666666666666669
3263 732 -0.083333333333333287
3265 732 -0.16666666666666669
3266 732 -0.083333333333333343
3267 732 -0.083333333333333315
3268 732 0.16666666666666669
3270 732 -0.083333333333333343
3361 732 -0.083333333333333329
733 733 2.666666666666667
734 733 -0.33333333333333337
764 733 -0.33333333333333337
3171 733 -0.083333333333333343
3172 733 -0.083333333333333343
3173 733 0.16666666666666669
3175 733 -0.083333333333333343
3176 733 -0.16666666666666669
3266 733 -0.083333333333333287
3268 733 -0.16666666666666669
3269 733 -0.083333333333333343
3270 733 -0.083333333333333315
3271 733 0.16666666666666669
3273 733 -0.083333333333333343
3364 733 -0.083333333333333329
734 734 2.666666666666667
735 734 -0.33333333333333337
765 734 -0.33333333333333337
3174 734 -0.083333333333333343
3175 734 -0.083333333333333343
3176 734 0.16666666666666669
3178 734 -0.083333333333333343
3179 734 -0.16666666666666669
3269 734 -0.083333333333333287
3271 734 -0.16666666666666669
3272 734 -0.083333333333333343
3273 734 -0.083333333333333315
3274 734 0.16666666666666669
3276 734 -0.083333333333333343
3367 734 -0.083333333333333329
735 735 2.666666666666667
736 735 -0.33333333333333337
766 735 -0.33333333333333337
3177 735 -0.083333333333333343
3178 735 -0.083333333333333343
3179 735 0.16666666666666669
3181 735 -0.083333333333333343
3182 735 -0.16666666666666669
3272 735 -0.083333333333333287
3274 735 -0.16666666666666669
3275 735 -0.083333333333333343
3276 735 -0.083333333333333315
3277 735 0.16666666666666669
3279 735 -0.083333333333333343
3370 735 -0.083333333333333329
736 736 2.666666666666667
737 736 -0.33333333333333337
767 736 -0.33333333333333337
3180 736 -0.083333333333333343
3181 736 -0.083333333333333343
3182 736 0.16666666666666669
3184 736 -0.083333333333333343
3185 736 -0.16666666666666669
3275 736 -0.083333333333333287
3277 736 -0.16666666666666669
3278 736 -0.083333333333333343
3279 736 -0.083333333333333315
3280 736 0.16666666666666669
3282 736 -0.083333333333333343
3373 736 -0.083333333333333329
737 737 2.666666666666667
738 737 -0.33333333333333337
768 737 -0.33333333333333337
3183 737 -0.083333333333333343
3184 737 -0.083333333333333343
3185 737 0.16666666666666669
3187 737 -0.083333333333333343
3188 737 -0.16666666666666669
3278 737 -0.083333333333333287
3280 737 -0.16666666666666669
3281 737 -0.083333333333333343
3282 737 -0.083333333333333315
3283 737 0.16666666666666669
3285 737 -0.083333333333333343
3376 737 -0.083333333333333329
738 738 2.666666666666667
739 738 -0.33333333333333337
769 738 -0.33333333333333337
3186 738 -0.083333333333333343
3187 738 -0.083333333333333343
3188 738 0.16666666666666669
3190 738 -0.083333333333333343
3191 738 -0.16666666666666669
3281 738 -0.083333333333333287
3283 738 -0.16666666666666669
3284 738 -0.083333333333333343
3285 738 -0.083333333333333315
3286 738 0.16666666666666669
3288 738 -0.083333333333333343
3379 738 -0.083333333333333329
739 739 2.666666666666667
740 739 -0.33333333333333337
770 739 -0.33333333333333337
3189 739 -0.083333333333333343
3190 739 -0.083333333333333343
3191 739 0.16666666666666669
3193 739 -0.083333333333333343
3194 739 -0.16666666666666669
3284 739 -0.083333333333333287
3286 739 -0.16666666666666669
3287 739 -0.083333333333333343
3288 739 -0.083333333333333315
3289 739 0.16666666666666669
3291 739 -0.083333333333333343
3382 739 -0.083333333333333329
740 740 2.666666666666667
741 740 -0.33333333333333337
771 740 -0.33333333333333337
3192 740 -0.083333333333333343
3193 740 -0.083333333333333343
3194 740 0.16666666666666669
3196 740 -0.083333333333333343
3197 740 -0.16666666666666669
3287 740 -0.083333333333333287
3289 740 -0.16666666666666669
3290 740 -0.083333333333333343
3291 740 -0.083333333333333315
3292 740 0.16666666666666669
3294 740 -0.083333333333333343
3385 740 -0.083333333333333329
741 741 2.666666666666667
742 741 -0.33333333333333337
772 741 -0.33333333333333337
3195 741 -0.083333333333333343
3196 741 -0.083333333333333343
3197 741 0.16666666666666669
3199 741 -0.083333333333333343
3200 741 -0.16666666666666669
3290 741 -0.083333333333333287
3292 741 -0.16666666666666669
3293 741 -0.083333333333333343
3294 741 -0.083333333333333315
3295 741 0.16666666666666669
3297 741 -0.083333333333333343
3388 741 -0.083333333333333329
742 742 2.666666666666667
743 742 -0.33333333333333337
773 742 -0.33333333333333337
3198 742 -0.083333333333333343
3199 742 -0.083333333333333343
3200 742 0.16666666666666669
3202 742 -0.083333333333333343
3203 742 -0.16666666666666669
3293 742 -0.083333333333333287
3295 742 -0.16666666666666669
3296 742 -0.083333333333333343
3297 742 -0.083333333333333315
3298 742 0.16666666666666669
3300 742 -0.083333333333333343
3391 742 -0.083333333333333329
743 743 2.666666666666667
744 743 -0.33333333333333337
774 743 -0.33333333333333337
3201 743 -0.083333333333333343
3202 743 -0.083333333333333343
3203 743 0.16666666666666669
3205 743 -0.083333333333333343
3206 743 -0.16666666666666669
3296 743 -0.083333333333333287
3298 743 -0.16666666666666669
3299 743 -0.083333333333333343
3300 743 -0.083333333333333315
3301 743 0.16666666666666669
3303 743 -0.083333333333333343
3394 743 -0.083333333333333329
744 744 2.666666666666667
775 744 -0.33333333333333337
3204 744 -0.083333333333333343
3205 744 -0.083333333333333343
3206 744 0.16666666666666669
3208 744 -0.083333333333333343
3209 744 -0.16666666666666669
3299 744 -0.083333333333333287
3301 744 -0.16666666666666669
3302 744 -0.083333333333333343
3303 744 -0.083333333333333315
3304 744 0.16666666666666669
3397 744 -0.083333333333333329
745 745 2.666666666666667
746 745 -0.33333333333333337
776 745 -0.33333333333333337
3210 745 -0.083333333333333343
3211 745 0.16666666666666669
3213 745 -0.083333333333333343
3214 745 -0.16666666666666669
3305 745 -0.083333333333333287
3306 745 -0.16666666666666669
3307 745 -0.083333333333333343
3308 745 -0.083333333333333315
3309 745 0.16666666666666669
3311 745 -0.083333333333333343
3402 745 -0.083333333333333329
746 746 2.666666666666667
747 746 -0.33333333333333337
777 746 -0.33333333333333337
3212 746 -0.083333333333333343
3213 746 -0.083333333333333343
3214 746 0.16666666666666669
3216 746 -0.083333333333333343
3217 746 -0.16666666666666669
3307 746 -0.083333333333333287
3309 746 -0.16666666666666669
3310 746 -0.083333333333333343
3311 746 -0.083333333333333315
3312 746 0.16666666666666669
3314 746 -0.083333333333333343
3405 746 -0.083333333333333329
747 747 2.666666666666667
748 747 -0.33333333333333337
778 747 -0.33333333333333337
3215 747 -0.083333333333333343
3216 747 -0.083333333333333343
3217 747 0.16666666666666669
3219 747 -0.083333333333333343
3220 747 -0.16666666666666669
3310 747 -0.083333333333333287
3312 747 -0.16666666666666669
3313 747 -0.083333333333333343
3314 747 -0.083333333333333315
3315 747 0.16666666666666669
3317 747 -0.083333333333333343
3408 747 -0.083333333333333329
748 748 2.666666666666667
749 748 -0.33333333333333337
779 748 -0.33333333333333337
3218 748 -0.083333333333333343
3219 748 -0.083333333333333343
3220 748 0.16666666666666669
3222 748 -0.083333333333333343
3223 748 -0.16666666666666669
3313 748 -0.083333333333333287
3315 748 -0.16666666666666669
3316 748 -0.083333333333333343
3317 748 -0.083333333333333315
3318 748 0.16666666666666669
3320 748 -0.083333333333333343
3411 748 -0.083333333333333329
749 749 2.666666666666667
750 749 -0.33333333333333337
780 749 -0.33333333333333337
3221 749 -0.083333333333333343
3222 749 -0.083333333333333343
3223 749 0.16666666666666669
3225 749 -0.083333333333333343
3226 749 -0.16666666666666669
3316 749 -0.083333333333333287
3318 749 -0.16666666666666669
3319 749 -0.083333333333333343
3320 749 -0.083333333333333315
3321 749 0.16666666666666669
3323 749 -0.083333333333333343
3414 749 -0.083333333333333329
750 750 2.666666666666667
751 750 -0.33333333333333337
781 750 -0.33333333333333337
3224 750 -0.083333333333333343
3225 750 -0.083333333333333343
3226 750 0.16666666666666669
3228 750 -0.083333333333333343
3229 750 -0.16666666666666669
3319 750 -0.083333333333333287
3321 750 -0.16666666666666669
3322 750 -0.083333333333333343
3323 750 -0.083333333333333315
3324 750 0.16666666666666669
3326 750 -0.083333333333333343
3417 750 -0.083333333333333329
751 751 2.666666666666667
752 751 -0.33333333333333337
782 751 -0.33333333333333337
3227 751 -0.083333333333333343
3228 751 -0.083333333333333343
3229 751 0.16666666666666669
3231 751 -0.083333333333333343
3232 751 -0.16666666666666669
3322 751 -0.083333333333333287
3324 751 -0.16666666666666669
3325 751 -0.083333333333333343
3326 751 -0.083333333333333315
3327 751 0.16666666666666669
3329 751 -0.083333333333333343
3420 751 -0.083333333333333329
752 752 2.666666666666667
753 752 -0.33333333333333337
783 752 -0.33333333333333337
3230 752 -0.083333333333333343
3231 752 -0.083333333333333343
3232 752 0.16666666666666669
3234 752 -0.083333333333333343
3235 752 -0.16666666666666669
3325 752 -0.083333333333333287
3327 752 -0.16666666666666669
3328 752 -0.083333333333333343
3329 752 -0.083333333333333315
3330 752 0.16666666666666669
3332 752 -0.083333333333333343
3423 752 -0.083333333333333329
753 753 2.666666666666667
754 753 -0.33333333333333337
784 753 -0.33333333333333337
3233 753 -0.083333333333333343
3234 753 -0.083333333333333343
3235 753 0.16666666666666669
3237 753 -0.083333333333333343
3238 753 -0.16666666666666669
3328 753 -0.083333333333333287
3330 753 -0.16666666666666669
3331 753 -0.083333333333333343
3332 753 -0.083333333333333315
3333 753 0.16666666666666669
3335 753 -0.083333333333333343
3426 753 -0.083333333333333329
754 754 2.666666666666667
755 754 -0.33333333333333337
785 754 -0.33333333333333337
3236 754 -0.083333333333333343
3237 754 -0.083333333333333343
3238 754 0.16666666666666669
3240 754 -0.083333333333333343
3241 754 -0.16666666666666669
3331 754 -0.083333333333333287
3333 754 -0.16666666666666669
3334 754 -0.083333333333333343
3335 754 -0.083333333333333315
3336 754 0.16666666666666669
3338 754 -0.083333333333333343
3429 754 -0.083333333333333329
755 755 2.666666666666667
756 755 -0.33333333333333337
786 755 -0.33333333333333337
3239 755 -0.083333333333333343
3240 755 -0.083333333333333343
3241 755 0.16666666666666669
3243 755 -0.083333333333333343
3244 755 -0.16666666666666669
3334 755 -0.083333333333333287
3336 755 -0.16666666666666669
3337 755 -0.083333333333333343
3338 755 -0.083333333333333315
3339 755 0.16666666666666669
3341 755 -0.083333333333333343
3432 755 -0.083333333333333329
756 756 2.666666666666667
757 756 -0.33333333333333337
787 756 -0.33333333333333337
3242 756 -0.083333333333333343
3243 756 -0.083333333333333343
3244 756 0.16666666666666669
3246 756 -0.083333333333333343
3247 756 -0.16666666666666669
3337 756 -0.083333333333333287
3339 756 -0.16666666666666669
3340 756 -0.083333333333333343
3341 756 -0.083333333333333315
3342 756 0.16666666666666669
3344 756 -0.083333333333333343
3435 756 -0.083333333333333329
757 757 2.666666666666667
758 757 -0.33333333333333337
788 757 -0.33333333333333337
3245 757 -0.083333333333333343
3246 757 -0.083333333333333343
3247 757 0.16666666666666669
3249 757 -0.083333333333333343
3250 757 -0.16666666666666669
3340 757 -0.083333333333333287
3342 757 -0.16666666666666669
3343 757 -0.083333333333333343
3344 757 -0.083333333333333315
3345 757 0.16666666666666669
3347 757 -0.083333333333333343
3438 757 -0.083333333333333329
758 758 2.666666666666667
759 758 -0.33333333333333337
789 758 -0.33333333333333337
3248 758 -0.083333333333333343
3249 758 -0.083333333333333343
3250 758 0.16666666666666669
3252 758 -0.083333333333333343
3253 758 -0.16666666666666669
3343 758 -0.083333333333333287
3345 758 -0.16666666666666669
3346 758 -0.083333333333333343
3347 758 -0.083333333333333315
3348 758 0.16666666666666669
3350 758 -0.083333333333333343
3441 758 -0.083333333333333329
759 759 2.666666666666667
760 759 -0.33333333333333337
790 759 -0.33333333333333337
3251 759 -0.083333333333333343
3252 759 -0.083333333333333343
3253 759 0.16666666666666669
3255 759 -0.083333333333333343
3256 759 -0.16666666666666669
3346 759 -0.083333333333333287
3348 759 -0.16666666666666669
3349 759 -0.083333333333333343
3350 759 -0.083333333333333315
3351 759 0.16666666666666669
3353 759 -0.083333333333333343
3444 759 -0.083333333333333329
760 760 2.666666666666667
761 760 -0.33333333333333337
791 760 -0.33333333333333337
3254 760 -0.083333333333333343
3255 760 -0.083333333333333343
3256 760 0.16666666666666669
3258 760 -0.083333333333333343
3259 760 -0.16666666666666669
3349 760 -0.083333333333333287
3351 760 -0.16666666666666669
3352 760 -0.083333333333333343
3353 760 -0.083333333333333315
3354 760 0.16666666666666669
3356 760 -0.083333333333333343
3447 760 -0.083333333333333329
761 761 2.666666666666667
762 761 -0.33333333333333337
792 761 -0.33333333333333337
3257 761 -0.083333333333333343
3258 761 -0.083333333333333343
3259 761 0.16666666666666669
3261 761 -0.083333333333333343
3262 761 -0.16666666666666669
3352 761 -0.083333333333333287
3354 761 -0.16666666666666669
3355 761 -0.083333333333333343
3356 761 -0.083333333333333315
3357 761 0.16666666666666669
3359 761 -0.083333333333333343
3450 761 -0.083333333333333329
762 762 2.666666666666667
763 762 -0.33333333333333337
793 762 -0.33333333333333337
3260 762 -0.083333333333333343
3261 762 -0.083333333333333343
3262 762 0.16666666666666669
3264 762 -0.083333333333333343
3265 762 -0.16666666666666669
3355 762 -0.083333333333333287
3357 762 -0.16666666666666669
3358 762 -0.083333333333333343
3359 762 -0.083333333333333315
3360 762 0.16666666666666669
3362 762 -0.083333333333333343
3453 762 -0.083333333333333329
763 763 2.666666666666667
764 763 -0.33333333333333337
794 763 -0.33333333333333337
3263 763 -0.083333333333333343
3264 763 -0.083333333333333343
3265 763 0.16666666666666669
3267 763 -0.083333333333333343
3268 763 -0.16666666666666669
3358 763 -0.083333333333333287
3360 763 -0.16666666666666669
3361 763 -0.083333333333333343
3362 763 -0.083333333333333315
3363 763 0.16666666666666669
3365 763 -0.083333333333333343
3456 763 -0.083333333333333329
764 764 2.666666666666667
765 764 -0.33333333333333337
795 764 -0.33333333333333337
3266 764 -0.083333333333333343
3267 764 -0.083333333333333343
3268 764 0.16666666666666669
3270 764 -0.083333333333333343
3271 764 -0.16666666666666669
3361 764 -0.083333333333333287
3363 764 -0.16666666666666669
3364 764 -0.083333333333333343
3365 764 -0.083333333333333315
3366 764 0.16666666666666669
3368 764 -0.083333333333333343
3459 764 -0.083333333333333329
765 765 2.666666666666667
766 765 -0.33333333333333337
796 765 -0.33333333333333337
3269 765 -0.083333333333333343
3270 765 -0.083333333333333343
3271 765 0.16666666666666669
3273 765 -0.083333333333333343
3274 765 -0.16666666666666669
3364 765 -0.083333333333333287
3366 765 -0.16666666666666669
3367 765 -0.083333333333333343
3368 765 -0.083333333333333315
3369 765 0.16666666666666669
3371 765 -0.083333333333333343
3462 765 -0.083333333333333329
766 766 2.666666666666667
767 766 -0.33333333333333337
797 766 -0.33333333333333337
3272 766 -0.083333333333333343
3273 766 -0.083333333333333343
3274 766 0.16666666666666669
3276 766 -0.083333333333333343
3277 766 -0.16666666666666669
3367 766 -0.083333333333333287
3369 766 -0.16666666666666669
3370 766 -0.083333333333333343
3371 766 -0.083333333333333315
3372 766 0.16666666666666669
3374 766 -0.083333333333333343
3465 766 -0.083333333333333329
767 767 2.666666666666667
768 767 -0.33333333333333337
798 767 -0.33333333333333337
3275 767 -0.083333333333333343
3276 767 -0.083333333333333343
3277 767 0.16666666666666669
3279 767 -0.083333333333333343
3280 767 -0.16666666666666669
3370 767 -0.083333333333333287
3372 767 -0.16666666666666669
3373 767 -0.083333333333333343
3374 767 -0.083333333333333315
3375 767 0.16666666666666669
3377 767 -0.083333333333333343
3468 767 -0.083333333333333329
768 768 2.666666666666667
769 768 -0.33333333333333337
799 768 -0.33333333333333337
3278 768 -0.083333333333333343
3279 768 -0.083333333333333343
3280 768 0.16666666666666669
3282 768 -0.083333333333333343
3283 768 -0.16666666666666669
3373 768 -0.083333333333333287
3375 768 -0.16666666666666669
3376 768 -0.083333333333333343
3377 768 -0.083333333333333315
3378 768 0.16666666666666669
3380 768 -0.083333333333333343
3471 768 -0.083333333333333329
769 769 2.666666666666667
770 769 -0.33333333333333337
800 769 -0.33333333333333337
3281 769 -0.083333333333333343
3282 769 -0.083333333333333343
3283 769 0.16666666666666669
3285 769 -0.083333333333333343
3286 769 -0.16666666666666669
3376 769 -0.083333333333333287
3378 769 -0.16666666666666669
3379 769 -0.083333333333333343
3380 769 -0.083333333333333315
3381 769 0.16666666666666669
3383 769 -0.083333333333333343
3474 769 -0.083333333333333329
770 770 2.666666666666667
771 770 -0.33333333333333337
801 770 -0.33333333333333337
3284 770 -0.083333333333333343
3285 770 -0.083333333333333343
3286 770 0.16666666666666669
3288 770 -0.083333333333333343
3289 770 -0.16666666666666669
3379 770 -0.083333333333333287
3381 770 -0.16666666666666669
3382 770 -0.083333333333333343
3383 770 -0.083333333333333315
3384 770 0.16666666666666669
3386 770 -0.083333333333333343
3477 770 -0.083333333333333329
771 771 2.666666666666667
772 771 -0.33333333333333337
802 771 -0.33333333333333337
3287 771 -0.083333333333333343
3288 771 -0.083333333333333343
3289 771 0.16666666666666669
3291 771 -0.083333333333333343
3292 771 -0.16666666666666669
3382 771 -0.083333333333333287
3384 771 -0.16666666666666669
3385 771 -0.083333333333333343
3386 771 -0.083333333333333315
3387 771 0.16666666666666669
3389 771 -0.083333333333333343
3480 771 -0.083333333333333329
772 772 2.666666666666667
773 772 -0.33333333333333337
803 772 -0.33333333333333337
3290 772 -0.083333333333333343
3291 772 -0.083333333333333343
3292 772 0.16666666666666669
3294 772 -0.083333333333333343
3295 772 -0.16666666666666669
3385 772 -0.083333333333333287
3387 772 -0.16666666666666669
3388 772 -0.083333333333333343
3389 772 -0.083333333333333315
3390 772 0.16666666666666669
3392 772 -0.083333333333333343
3483 772 -0.083333333333333329
773 773 2.666666666666667
774 773 -0.33333333333333337
804 773 -0.33333333333333337
3293 773 -0.083333333333333343
3294 773 -0.083333333333333343
3295 773 0.16666666666666669
3297 773 -0.083333333333333343
3298 773 -0.16666666666666669
3388 773 -0.083333333333333287
3390 773 -0.16666666666666669
3391 773 -0.083333333333333343
3392 773 -0.083333333333333315
3393 773 0.16666666666666669
3395 773 -0.083333333333333343
3486 773 -0.083333333333333329
774 774 2.666666666666667
775 774 -0.33333333333333337
805 774 -0.33333333333333337
3296 774 -0.083333333333333343
3297 774 -0.083333333333333343
3298 774 0.16666666666666669
3300 774 -0.083333333333333343
3301 774 -0.16666666666666669
3391 774 -0.083333333333333287
3393 774 -0.16666666666666669
3394 774 -0.083333333333333343
3395 774 -0.083333333333333315
3396 774 0.16666666666666669
3398 774 -0.083333333333333343
3489 774 -0.083333333333333329
775 775 2.666666666666667
806 775 -0.33333333333333337
3299 775 -0.083333333333333343
3300 775 -0.083333333333333343
3301 775 0.16666666666666669
3303 775 -0.083333333333333343
3304 775 -0.16666666666666669
3394 775 -0.083333333333333287
3396 775 -0.16666666666666669
3397 775 -0.083333333333333343
3398 775 -0.083333333333333315
3399 775 0.16666666666666669
3492 775 -0.083333333333333329
776 776 2.666666666666667
777 776 -0.33333333333333337
807 776 -0.33333333333333337
3305 776 -0.083333333333333343
3306 776 0.16666666666666669
3308 776 -0.083333333333333343
3309 776 -0.16666666666666669
3400 776 -0.083333333333333287
3401 776 -0.16666666666666669
3402 776 -0.083333333333333343
3403 776 -0.083333333333333315
3404 776 0.16666666666666669
3406 776 -0.083333333333333343
3497 776 -0.083333333333333329
777 777 2.666666666666667
778 777 -0.33333333333333337
808 777 -0.33333333333333337
3307 777 -0.083333333333333343
3308 777 -0.083333333333333343
3309 777 0.16666666666666669
3311 777 -0.083333333333333343
3312 777 -0.16666666666666669
3402 777 -0.083333333333333287
3404 777 -0.16666666666666669
3405 777 -0.083333333333333343
3406 777 -0.083333333333333315
3407 777 0.16666666666666669
3409 777 -0.083333333333333343
3500 777 -0.083333333333333329
778 778 2.666666666666667
779 778 -0.33333333333333337
809 778 -0.33333333333333337
3310 778 -0.083333333333333343
3311 778 -0.083333333333333343
3312 778 0.16666666666666669
3314 778 -0.083333333333333343
3315 778 -0.16666666666666669
3405 778 -0.083333333333333287
3407 778 -0.16666666666666669
3408 778 -0.083333333333333343
3409 778 -0.083333333333333315
3410 778 0.16666666666666669
3412 778 -0.083333333333333343
3503 778 -0.083333333333333329
779 779 2.666666666666667
780 779 -0.33333333333333337
810 779 -0.33333333333333337
3313 779 -0.083333333333333343
3314 779 -0.083333333333333343
3315 779 0.16666666666666669
3317 779 -0.083333333333333343
3318 779 -0.16666666666666669
3408 779 -0.083333333333333287
3410 779 -0.16666666666666669
3411 779 -0.083333333333333343
3412 779 -0.083333333333333315
3413 779 0.16666666666666669
3415 779 -0.083333333333333343
3506 779 -0.083333333333333329
780 780 2.666666666666667
781 780 -0.33333333333333337
811 780 -0.33333333333333337
3316 780 -0.083333333333333343
3317 780 -0.083333333333333343
3318 780 0.16666666666666669
3320 780 -0.083333333333333343
3321 780 -0.16666666666666669
3411 780 -0.083333333333333287
3413 780 -0.16666666666666669
3414 780 -0.083333333333333343
3415 780 -0.083333333333333315
3416 780 0.16666666666666669
3418 780 -0.083333333333333343
3509 780 -0.083333333333333329
781 781 2.666666666666667
782 781 -0.33333333333333337
812 781 -0.33333333333333337
3319 781 -0.083333333333333343
3320 781 -0.083333333333333343
3321 781 0.16666666666666669
3323 781 -0.083333333333333343
3324 781 -0.16666666666666669
3414 781 -0.083333333333333287
3416 781 -0.16666666666666669
3417 781 -0.083333333333333343
3418 781 -0.083333333333333315
3419 781 0.16666666666666669
3421 781 -0.083333333333333343
3512 781 -0.083333333333333329
782 782 2.666666666666667
783 782 -0.33333333333333337
813 782 -0.33333333333333337
3322 782 -0.083333333333333343
3323 782 -0.083333333333333343
3324 782 0.16666666666666669
3326 782 -0.083333333333333343
3327 782 -0.16666666666666669
3417 782 -0.083333333333333287
3419 782 -0.16666666666666669
3420 782 -0.083333333333333343
3421 782 -0.083333333333333315
3422 782 0.16666666666666669
3424 782 -0.083333333333333343
3515 782 -0.083333333333333329
783 783 2.666666666666667
784 783 -0.33333333333333337
814 783 -0.33333333333333337
3325 783 -0.083333333333333343
3326 783 -0.083333333333333343
3327 783 0.16666666666666669
3329 783 -0.083333333333333343
3330 783 -0.16666666666666669
3420 783 -0.083333333333333287
3422 783 -0.16666666666666669
3423 783 -0.083333333333333343
3424 783 -0.083333333333333315
3425 783 0.16666666666666669
3427 783 -0.083333333333333343
3518 783 -0.083333333333333329
784 784 2.666666666666667
785 784 -0.33333333333333337
815 784 -0.33333333333333337
3328 784 -0.083333333333333343
3329 784 -0.083333333333333343
3330 784 0.16666666666666669
3332 784 -0.083333333333333343
3333 784 -0.16666666666666669
3423 784 -0.083333333333333287
3425 784 -0.16666666666666669
3426 784 -0.083333333333333343
3427 784 -0.083333333333333315
3428 784 0.16666666666666669
3430 784 -0.083333333333333343
3521 784 -0.083333333333333329
785 785 2.666666666666667
786 785 -0.33333333333333337
816 785 -0.33333333333333337
3331 785 -0.083333333333333343
3332 785 -0.083333333333333343
3333 785 0.16666666666666669
3335 785 -0.083333333333333343
3336 785 -0.16666666666666669
3426 785 -0.083333333333333287
3428 785 -0.16666666666666669
3429 785 -0.083333333333333343
3430 785 -0.083333333333333315
3431 785 0.16666666666666669
3433 785 -0.083333333333333343
3524 785 -0.083333333333333329
786 786 2.666666666666667
787 786 -0.33333333333333337
817 786 -0.33333333333333337
3334 786 -0.083333333333333343
3335 786 -0.083333333333333343
3336 786 0.16666666666666669
3338 786 -0.083333333333333343
3339 786 -0.16666666666666669
3429 786 -0.083333333333333287
3431 786 -0.16666666666666669
3432 786 -0.083333333333333343
3433 786 -0.083333333333333315
3434 786 0.16666666666666669
3436 786 -0.083333333333333343
3527 786 -0.083333333333333329
787 787 2.666666666666667
788 787 -0.33333333333333337
818 787 -0.33333333333333337
3337 787 -0.083333333333333343
3338 787 -0.083333333333333343
3339 787 0.16666666666666669
3341 787 -0.083333333333333343
3342 787 -0.16666666666666669
3432 787 -0.083333333333333287
3434 787 -0.16666666666666669
3435 787 -0.083333333333333343
3436 787 -0.083333333333333315
3437 787 0.16666666666666669
3439 787 -0.083333333333333343
3530 787 -0.083333333333333329
788 788 2.666666666666667
789 788 -0.33333333333333337
819 788 -0.33333333333333337
3340 788 -0.083333333333333343
3341 788 -0.083333333333333343
3342 788 0.16666666666666669
3344 788 -0.083333333333333343
3345 788 -0.16666666666666669
3435 788 -0.083333333333333287
3437 788 -0.16666666666666669
3438 788 -0.083333333333333343
3439 788 -0.083333333333333315
3440 788 0.16666666666666669
3442 788 -0.083333333333333343
3533 788 -0.083333333333333329
789 789 2.666666666666667
790 789 -0.33333333333333337
820 789 -0.33333333333333337
3343 789 -0.083333333333333343
3344 789 -0.083333333333333343
3345 789 0.16666666666666669
3347 789 -0.083333333333333343
3348 789 -0.16666666666666669
3438 789 -0.083333333333333287
3440 789 -0.16666666666666669
3441 789 -0.083333333333333343
3442 789 -0.083333333333333315
3443 789 0.16666666666666669
3445 789 -0.083333333333333343
3536 789 -0.083333333333333329
790 790 2.666666666666667
791 790 -0.33333333333333337
821 790 -0.33333333333333337
3346 790 -0.083333333333333343
3347 790 -0.083333333333333343
3348 790 0.16666666666666669
3350 790 -0.083333333333333343
3351 790 -0.16666666666666669
3441 790 -0.083333333333333287
3443 790 -0.16666666666666669
3444 790 -0.083333333333333343
3445 790 -0.083333333333333315
3446 790 0.16666666666666669
3448 790 -0.083333333333333343
3539 790 -0.083333333333333329
791 791 2.666666666666667
792 791 -0.33333333333333337
822 791 -0.33333333333333337
3349 791 -0.083333333333333343
3350 791 -0.083333333333333343
3351 791 0.16666666666666669
3353 791 -0.083333333333333343
3354 791 -0.16666666666666669
3444 791 -0.083333333333333287
3446 791 -0.16666666666666669
3447 791 -0.083333333333333343
3448 791 -0.083333333333333315
3449 791 0.16666666666666669
3451 791 -0.083333333333333343
3542 791 -0.083333333333333329
792 792 2.666666666666667
793 792 -0.33333333333333337
823 792 -0.33333333333333337
3352 792 -0.083333333333333343
3353 792 -0.083333333333333343
3354 792 0.16666666666666669
3356 792 -0.083333333333333343
3357 792 -0.16666666666666669
3447 792 -0.083333333333333287
3449 792 -0.16666666666666669
3450 792 -0.083333333333333343
3451 792 -0.083333333333333315
3452 792 0.16666666666666669
3454 792 -0.083333333333333343
3545 792 -0.083333333333333329
793 793 2.666666666666667
794 793 -0.33333333333333337
824 793 -0.33333333333333337
3355 793 -0.083333333333333343
3356 793 -0.083333333333333343
3357 793 0.16666666666666669
3359 793 -0.083333333333333343
3360 793 -0.16666666666666669
3450 793 -0.083333333333333287
3452 793 -0.16666666666666669
3453 793 -0.083333333333333343
3454 793 -0.083333333333333315
3455 793 0.16666666666666669
3457 793 -0.083333333333333343
3548 793 -0.083333333333333329
794 794 2.666666666666667
795 794 -0.33333333333333337
825 794 -0.33333333333333337
3358 794 -0.083333333333333343
3359 794 -0.083333333333333343
3360 794 0.16666666666666669
3362 794 -0.083333333333333343
3363 794 -0.16666666666666669
3453 794 -0.083333333333333287
3455 794 -0.16666666666666669
3456 794 -0.083333333333333343
3457 794 -0.083333333333333315
3458 794 0.16666666666666669
3460 794 -0.083333333333333343
3551 794 -0.083333333333333329
795 795 2.666666666666667
796 795 -0.33333333333333337
826 795 -0.33333333333333337
3361 795 -0.083333333333333343
3362 795 -0.083333333333333343
3363 795 0.16666666666666669
3365 795 -0.083333333333333343
3366 795 -0.16666666666666669
3456 795 -0.083333333333333287
3458 795 -0.16666666666666669
3459 795 -0.083333333333333343
3460 795 -0.083333333333333315
3461 795 0.16666666666666669
3463 795 -0.083333333333333343
3554 795 -0.083333333333333329
796 796 2.666666666666667
797 796 -0.33333333333333337
827 796 -0.33333333333333337
3364 796 -0.083333333333333343
3365 796 -0.083333333333333343
3366 796 0.16666666666666669
3368 796 -0.083333333333333343
3369 796 -0.16666666666666669
3459 796 -0.083333333333333287
3461 796 -0.16666666666666669
3462 796 -0.083333333333333343
3463 796 -0.083333333333333315
3464 796 0.16666666666666669
3466 796 -0.083333333333333343
3557 796 -0.083333333333333329
797 797 2.666666666666667
798 797 -0.33333333333333337
828 797 -0.33333333333333337
3367 797 -0.083333333333333343
3368 797 -0.083333333333333343
3369 797 0.16666666666666669
3371 797 -0.083333333333333343
3372 797 -0.16666666666666669
3462 797 -0.083333333333333287
3464 797 -0.16666666666666669
3465 797 -0.083333333333333343
3466 797 -0.083333333333333315
3467 797 0.16666666666666669
3469 797 -0.083333333333333343
3560 797 -0.083333333333333329
798 798 2.666666666666667
799 798 -0.33333333333333337
829 798 -0.33333333333333337
3370 798 -0.083333333333333343
3371 798 -0.083333333333333343
3372 798 0.16666666666666669
3374 798 -0.083333333333333343
3375 798 -0.16666666666666669
3465 798 -0.083333333333333287
3467 798 -0.16666666666666669
3468 798 -0.083333333333333343
3469 798 -0.083333333333333315
3470 798 0.16666666666666669
3472 798 -0.083333333333333343
3563 798 -0.083333333333333329
799 799 2.666666666666667
800 799 -0.33333333333333337
830 799 -0.33333333333333337
3373 799 -0.083333333333333343
3374 799 -0.083333333333333343
3375 799 0.16666666666666669
3377 799 -0.083333333333333343
3378 799 -0.16666666666666669
3468 799 -0.083333333333333287
3470 799 -0.16666666666666669
3471 799 -0.083333333333333343
3472 799 -0.083333333333333315
3473 799 0.16666666666666669
3475 799 -0.083333333333333343
3566 799 -0.083333333333333329
800 800 2.666666666666667
801 800 -0.33333333333333337
831 800 -0.33333333333333337
3376 800 -0.083333333333333343
3377 800 -0.083333333333333343
3378 800 0.16666666666666669
3380 800 -0.083333333333333343
3381 800 -0.16666666666666669
3471 800 -0.083333333333333287
3473 800 -0.16666666666666669
3474 800 -0.083333333333333343
3475 800 -0.083333333333333315
3476 800 0.16666666666666669
3478 800 -0.083333333333333343
3569 800 -0.083333333333333329
801 801 2.666666666666667
802 801 -0.33333333333333337
832 801 -0.33333333333333337
3379 801 -0.083333333333333343
3380 801 -0.083333333333333343
3381 801 0.16666666666666669
3383 801 -0.083333333333333343
3384 801 -0.16666666666666669
3474 801 -0.083333333333333287
3476 801 -0.16666666666666669
3477 801 -0.083333333333333343
3478 801 -0.083333333333333315
3479 801 0.16666666666666669
3481 801 -0.083333333333333343
3572 801 -0.083333333333333329
802 802 2.666666666666667
803 802 -0.33333333333333337
833 802 -0.33333333333333337
3382 802 -0.083333333333333343
3383 802 -0.083333333333333343
3384 802 0.16666666666666669
3386 802 -0.083333333333333343
3387 802 -0.16666666666666669
3477 802 -0.083333333333333287
3479 802 -0.16666666666666669
3480 802 -0.083333333333333343
3481 802 -0.083333333333333315
3482 802 0.16666666666666669
3484 802 -0.083333333333333343
3575 802 -0.083333333333333329
803 803 2.666666666666667
804 803 -0.33333333333333337
834 803 -0.33333333333333337
3385 803 -0.083333333333333343
3386 803 -0.083333333333333343
3387 803 0.16666666666666669
3389 803 -0.083333333333333343
3390 803 -0.16666666666666669
3480 803 -0.083333333333333287
3482 803 -0.16666666666666669
3483 803 -0.083333333333333343
3484 803 -0.083333333333333315
3485 803 0.16666666666666669
3487 803 -0.083333333333333343
3578 803 -0.083333333333333329
804 804 2.666666666666667
805 804 -0.33333333333333337
835 804 -0.33333333333333337
3388 804 -0.083333333333333343
3389 804 -0.083333333333333343
3390 804 0.16666666666666669
3392 804 -0.083333333333333343
3393 804 -0.16666666666666669
3483 804 -0.083333333333333287
3485 804 -0.16666666666666669
3486 804 -0.083333333333333343
3487 804 -0.083333333333333315
3488 804 0.16666666666666669
3490 804 -0.083333333333333343
3581 804 -0.083333333333333329
805 805 2.666666666666667
806 805 -0.33333333333333337
836 805 -0.33333333333333337
3391 805 -0.083333333333333343
3392 805 -0.083333333333333343
3393 805 0.16666666666666669
3395 805 -0.083333333333333343
3396 805 -0.16666666666666669
3486 805 -0.083333333333333287
3488 805 -0.16666666666666669
3489 805 -0.083333333333333343
3490 805 -0.083333333333333315
3491 805 0.16666666666666669
3493 805 -0.083333333333333343
3584 805 -0.083333333333333329
806 806 2.666666666666667
837 806 -0.33333333333333337
3394 806 -0.083333333333333343
3395 806 -0.083333333333333343
3396 806 0.16666666666666669
3398 806 -0.083333333333333343
3399 806 -0.16666666666666669
3489 806 -0.083333333333333287
3491 806 -0.16666666666666669
3492 806 -0.083333333333333343
3493 806 -0.083333333333333315
3494 806 0.16666666666666669
3587 806 -0.083333333333333329
807 807 2.666666666666667
808 807 -0.33333333333333337
838 807 -0.33333333333333337
3400 807 -0.083333333333333343
3401 807 0.16666666666666669
3403 807 -0.083333333333333343
3404 807 -0.16666666666666669
3495 807 -0.083333333333333287
3496 807 -0.16666666666666669
3497 807 -0.083333333333333343
3498 807 -0.083333333333333315
3499 807 0.16666666666666669
3501 807 -0.083333333333333343
3592 807 -0.083333333333333329
808 808 2.666666666666667
809 808 -0.33333333333333337
839 808 -0.33333333333333337
3402 808 -0.083333333333333343
3403 808 -0.083333333333333343
3404 808 0.16666666666666669
3406 808 -0.083333333333333343
3407 808 -0.16666666666666669
3497 808 -0.083333333333333287
3499 808 -0.16666666666666669
3500 808 -0.083333333333333343
3501 808 -0.083333333333333315
3502 808 0.16666666666666669
3504 808 -0.083333333333333343
3595 808 -0.083333333333333329
809 809 2.666666666666667
810 809 -0.33333333333333337
840 809 -0.33333333333333337
3405 809 -0.083333333333333343
3406 809 -0.083333333333333343
3407 809 0.16666666666666669
3409 809 -0.083333333333333343
3410 809 -0.16666666666666669
3500 809 -0.083333333333333287
3502 809 -0.16666666666666669
3503 809 -0.083333333333333343
3504 809 -0.083333333333333315
3505 809 0.16666666666666669
3507 809 -0.083333333333333343
3598 809 -0.083333333333333329
810 810 2.666666666666667
811 810 -0.33333333333333337
841 810 -0.33333333333333337
3408 810 -0.083333333333333343
3409 810 -0.083333333333333343
3410 810 0.16666666666666669
3412 810 -0.083333333333333343
3413 810 -0.16666666666666669
3503 810 -0.083333333333333287
3505 810 -0.16666666666666669
3506 810 -0.083333333333333343
3507 810 -0.083333333333333315
3508 810 0.16666666666666669
3510 810 -0.083333333333333343
3601 810 -0.083333333333333329
811 811 2.666666666666667
812 811 -0.33333333333333337
842 811 -0.33333333333333337
3411 811 -0.083333333333333343
3412 811 -0.083333333333333343
3413 811 0.16666666666666669
3415 811 -0.083333333333333343
3416 811 -0.16666666666666669
3506 811 -0.083333333333333287
3508 811 -0.16666666666666669
3509 811 -0.083333333333333343
3510 811 -0.083333333333333315
3511 811 0.16666666666666669
3513 811 -0.083333333333333343
3604 811 -0.083333333333333329
812 812 2.666666666666667
813 812 -0.33333333333333337
843 812 -0.33333333333333337
3414 812 -0.083333333333333343
3415 812 -0.083333333333333343
3416 812 0.16666666666666669
3418 812 -0.083333333333333343
3419 812 -0.16666666666666669
3509 812 -0.083333333333333287
3511 812 -0.16666666666666669
3512 812 -0.083333333333333343
3513 812 -0.083333333333333315
3514 812 0.16666666666666669
3516 812 -0.083333333333333343
3607 812 -0.083333333333333329
813 813 2.666666666666667
814 813 -0.33333333333333337
844 813 -0.33333333333333337
3417 813 -0.083333333333333343
3418 813 -0.083333333333333343
3419 813 0.16666666666666669
3421 813 -0.083333333333333343
3422 813 -0.16666666666666669
3512 813 -0.083333333333333287
3514 813 -0.16666666666666669
3515 813 -0.083333333333333343
3516 813 -0.083333333333333315
3517 813 0.16666666666666669
3519 813 -0.083333333333333343
3610 813 -0.083333333333333329
814 814 2.666666666666667
815 814 -0.33333333333333337
845 814 -0.33333333333333337
3420 814 -0.083333333333333343
3421 814 -0.083333333333333343
3422 814 0.16666666666666669
3424 814 -0.083333333333333343
3425 814 -0.16666666666666669
3515 814 -0.083333333333333287
3517 814 -0.16666666666666669
3518 814 -0.083333333333333343
3519 814 -0.083333333333333315
3520 814 0.16666666666666669
3522 814 -0.083333333333333343
3613 814 -0.083333333333333329
815 815 2.666666666666667
816 815 -0.33333333333333337
846 815 -0.33333333333333337
3423 815 -0.083333333333333343
3424 815 -0.083333333333333343
3425 815 0.16666666666666669
3427 815 -0.083333333333333343
3428 815 -0.16666666666666669
3518 815 -0.083333333333333287
3520 815 -0.16666666666666669
3521 815 -0.083333333333333343
3522 815 -0.083333333333333315
3523 815 0.16666666666666669
3525 815 -0.083333333333333343
3616 815 -0.083333333333333329
816 816 2.666666666666667
817 816 -0.33333333333333337
847 816 -0.33333333333333337
3426 816 -0.083333333333333343
3427 816 -0.083333333333333343
3428 816 0.16666666666666669
3430 816 -0.083333333333333343
3431 816 -0.16666666666666669
3521 816 -0.083333333333333287
3523 816 -0.16666666666666669
3524 816 -0.083333333333333343
3525 816 -0.083333333333333315
3526 816 0.16666666666666669
3528 816 -0.083333333333333343
3619 816 -0.083333333333333329
817 817 2.666666666666667
818 817 -0.33333333333333337
848 817 -0.33333333333333337
3429 817 -0.083333333333333343
3430 817 -0.083333333333333343
3431 817 0.16666666666666669
3433 817 -0.083333333333333343
3434 817 -0.16666666666666669
3524 817 -0.083333333333333287
3526 817 -0.16666666666666669
3527 817 -0.083333333333333343
3528 817 -0.083333333333333315
3529 817 0.16666666666666669
3531 817 -0.083333333333333343
3622 817 -0.083333333333333329
818 818 2.666666666666667
819 818 -0.33333333333333337
849 818 -0.33333333333333337
3432 818 -0.083333333333333343
3433 818 -0.083333333333333343
3434 818 0.16666666666666669
3436 818 -0.083333333333333343
3437 818 -0.16666666666666669
3527 818 -0.083333333333333287
3529 818 -0.16666666666666669
3530 818 -0.083333333333333343
3531 818 -0.083333333333333315
3532 818 0.16666666666666669
3534 818 -0.083333333333333343
3625 818 -0.083333333333333329
819 819 2.666666666666667
820 819 -0.33333333333333337
850 819 -0.33333333333333337
3435 819 -0.083333333333333343
3436 819 -0.083333333333333343
3437 819 0.16666666666666669
3439 819 -0.083333333333333343
3440 819 -0.16666666666666669
3530 819 -0.083333333333333287
3532 819 -0.16666666666666669
3533 819 -0.083333333333333343
3534 819 -0.083333333333333315
3535 819 0.16666666666666669
3537 819 -0.083333333333333343
3628 819 -0.083333333333333329
820 820 2.666666666666667
821 820 -0.33333333333333337
851 820 -0.33333333333333337
3438 820 -0.083333333333333343
3439 820 -0.083333333333333343
3440 820 0.16666666666666669
3442 820 -0.083333333333333343
3443 820 -0.16666666666666669
3533 820 -0.083333333333333287
3535 820 -0.16666666666666669
3536 820 -0.083333333333333343
3537 820 -0.083333333333333315
3538 820 0.16666666666666669
3540 820 -0.083333333333333343
3631 820 -0.083333333333333329
821 821 2.666666666666667
822 821 -0.33333333333333337
852 821 -0.33333333333333337
3441 821 -0.083333333333333343
3442 821 -0.083333333333333343
3443 821 0.16666666666666669
3445 821 -0.083333333333333343
3446 821 -0.16666666666666669
3536 821 -0.083333333333333287
3538 821 -0.16666666666666669
3539 821 -0.083333333333333343
3540 821 -0.083333333333333315
3541 821 0.16666666666666669
3543 821 -0.083333333333333343
3634 821 -0.083333333333333329
822 822 2.666666666666667
823 822 -0.33333333333333337
853 822 -0.33333333333333337
3444 822 -0.083333333333333343
3445 822 -0.083333333333333343
3446 822 0.16666666666666669
3448 822 -0.083333333333333343
3449 822 -0.16666666666666669
3539 822 -0.083333333333333287
3541 822 -0.16666666666666669
3542 822 -0.083333333333333343
3543 822 -0.083333333333333315
3544 822 0.16666666666666669
3546 822 -0.083333333333333343
3637 822 -0.083333333333333329
823 823 2.666666666666667
824 823 -0.33333333333333337
854 823 -0.33333333333333337
3447 823 -0.083333333333333343
3448 823 -0.083333333333333343
3449 823 0.16666666666666669
3451 823 -0.083333333333333343
3452 823 -0.16666666666666669
3542 823 -0.083333333333333287
3544 823 -0.16666666666666669
3545 823 -0.083333333333333343
3546 823 -0.083333333333333315
3547 823 0.16666666666666669
3549 823 -0.083333333333333343
3640 823 -0.083333333333333329
824 824 2.666666666666667
825 824 -0.33333333333333337
855 824 -0.33333333333333337
3450 824 -0.083333333333333343
3451 824 -0.083333333333333343
3452 824 0.16666666666666669
3454 824 -0.083333333333333343
3455 824 -0.16666666666666669
3545 824 -0.083333333333333287
3547 824 -0.16666666666666669
3548 824 -0.083333333333333343
3549 824 -0.083333333333333315
3550 824 0.16666666666666669
3552 824 -0.083333333333333343
3643 824 -0.083333333333333329
825 825 2.666666666666667
826 825 -0.33333333333333337
856 825 -0.33333333333333337
3453 825 -0.083333333333333343
3454 825 -0.083333333333333343
3455 825 0.16666666666666669
3457 825 -0.083333333333333343
3458 825 -0.16666666666666669
3548 825 -0.083333333333333287
3550 825 -0.16666666666666669
3551 825 -0.083333333333333343
3552 825 -0.083333333333333315
3553 825 0.16666666666666669
3555 825 -0.083333333333333343
3646 825 -0.083333333333333329
826 826 2.666666666666667
827 826 -0.33333333333333337
857 826 -0.33333333333333337
3456 826 -0.083333333333333343
3457 826 -0.083333333333333343
3458 826 0.16666666666666669
3460 826 -0.083333333333333343
3461 826 -0.16666666666666669
3551 826 -0.083333333333333287
3553 826 -0.16666666666666669
3554 826 -0.083333333333333343
3555 826 -0.083333333333333315
3556 826 0.16666666666666669
3558 826 -0.083333333333333343
3649 826 -0.083333333333333329
827 827 2.666666666666667
828 827 -0.33333333333333337
858 827 -0.33333333333333337
3459 827 -0.083333333333333343
3460 827 -0.083333333333333343
3461 827 0.16666666666666669
3463 827 -0.083333333333333343
3464 827 -0.16666666666666669
3554 827 -0.083333333333333287
3556 827 -0.16666666666666669
3557 827 -0.083333333333333343
3558 827 -0.083333333333333315
3559 827 0.16666666666666669
3561 827 -0.083333333333333343
3652 827 -0.083333333333333329
828 828 2.666666666666667
829 828 -0.33333333333333337
859 828 -0.33333333333333337
3462 828 -0.083333333333333343
3463 828 -0.083333333333333343
3464 828 0.16666666666666669
3466 828 -0.083333333333333343
3467 828 -0.16666666666666669
3557 828 -0.083333333333333287
3559 828 -0.16666666666666669
3560 828 -0.083333333333333343
3561 828 -0.083333333333333315
3562 828 0.16666666666666669
3564 828 -0.083333333333333343
3655 828 -0.083333333333333329
829 829 2.666666666666667
830 829 -0.33333333333333337
860 829 -0.33333333333333337
3465 829 -0.083333333333333343
3466 829 -0.083333333333333343
3467 829 0.16666666666666669
3469 829 -0.083333333333333343
3470 829 -0.16666666666666669
3560 829 -0.083333333333333287
3562 829 -0.16666666666666669
3563 829 -0.083333333333333343
3564 829 -0.083333333333333315
3565 829 0.16666666666666669
3567 829 -0.083333333333333343
3658 829 -0.083333333333333329
830 830 2.666666666666667
831 830 -0.33333333333333337
861 830 -0.33333333333333337
3468 830 -0.083333333333333343
3469 830 -0.083333333333333343
3470 830 0.16666666666666669
3472 830 -0.083333333333333343
3473 830 -0.16666666666666669
3563 830 -0.083333333333333287
3565 830 -0.16666666666666669
3566 830 -0.083333333333333343
3567 830 -0.083333333333333315
3568 830 0.16666666666666669
3570 830 -0.083333333333333343
3661 830 -0.083333333333333329
831 831 2.666666666666667
832 831 -0.33333333333333337
862 831 -0.33333333333333337
3471 831 -0.083333333333333343
3472 831 -0.083333333333333343
3473 831 0.16666666666666669
3475 831 -0.083333333333333343
3476 831 -0.16666666666666669
3566 831 -0.083333333333333287
3568 831 -0.16666666666666669
3569 831 -0.083333333333333343
3570 831 -0.083333333333333315
3571 831 0.16666666666666669
3573 831 -0.083333333333333343
3664 831 -0.083333333333333329
832 832 2.666666666666667
833 832 -0.33333333333333337
863 832 -0.33333333333333337
3474 832 -0.083333333333333343
3475 832 -0.083333333333333343
3476 832 0.16666666666666669
3478 832 -0.083333333333333343
3479 832 -0.16666666666666669
3569 832 -0.083333333333333287
3571 832 -0.16666666666666669
3572 832 -0.083333333333333343
3573 832 -0.083333333333333315
3574 832 0.16666666666666669
3576 832 -0.083333333333333343
3667 832 -0.083333333333333329
833 833 2.666666666666667
834 833 -0.33333333333333337
864 833 -0.33333333333333337
3477 833 -0.083333333333333343
3478 833 -0.083333333333333343
3479 833 0.16666666666666669
3481 833 -0.083333333333333343
3482 833 -0.16666666666666669
3572 833 -0.083333333333333287
3574 833 -0.16666666666666669
3575 833 -0.083333333333333343
3576 833 -0.083333333333333315
3577 833 0.16666666666666669
3579 833 -0.083333333333333343
3670 833 -0.083333333333333329
834 834 2.666666666666667
835 834 -0.33333333333333337
865 834 -0.33333333333333337
3480 834 -0.083333333333333343
3481 834 -0.083333333333333343
3482 834 0.16666666666666669
3484 834 -0.083333333333333343
3485 834 -0.16666666666666669
3575 834 -0.083333333333333287
3577 834 -0.16666666666666669
3578 834 -0.083333333333333343
3579 834 -0.083333333333333315
3580 834 0.16666666666666669
3582 834 -0.083333333333333343
3673 834 -0.083333333333333329
835 835 2.666666666666667
836 835 -0.33333333333333337
866 835 -0.33333333333333337
3483 835 -0.083333333333333343
3484 835 -0.083333333333333343
3485 835 0.16666666666666669
3487 835 -0.083333333333333343
3488 835 -0.16666666666666669
3578 835 -0.083333333333333287
3580 835 -0.16666666666666669
3581 835 -0.083333333333333343
3582 835 -0.083333333333333315
3583 835 0.16666666666666669
3585 835 -0.083333333333333343
3676 835 -0.083333333333333329
836 836 2.666666666666667
837 836 -0.33333333333333337
867 836 -0.33333333333333337
3486 836 -0.083333333333333343
3487 836 -0.083333333333333343
3488 836 0.16666666666666669
3490 836 -0.083333333333333343
3491 836 -0.16666666666666669
3581 836 -0.083333333333333287
3583 836 -0.16666666666666669
3584 836 -0.083333333333333343
3585 836 -0.083333333333333315
3586 836 0.16666666666666669
3588 836 -0.083333333333333343
3679 836 -0.083333333333333329
837 837 2.666666666666667
868 837 -0.33333333333333337
3489 837 -0.083333333333333343
3490 837 -0.083333333333333343
3491 837 0.16666666666666669
3493 837 -0.083333333333333343
3494 837 -0.16666666666666669
3584 837 -0.083333333333333287
3586 837 -0.16666666666666669
3587 837 -0.083333333333333343
3588 837 -0.083333333333333315
3589 837 0.16666666666666669
3682 837 -0.083333333333333329
838 838 2.666666666666667
839 838 -0.33333333333333337
869 838 -0.33333333333333337
3495 838 -0.083333333333333343
3496 838 0.16666666666666669
3498 838 -0.083333333333333343
3499 838 -0.16666666666666669
3590 838 -0.083333333333333287
3591 838 -0.16666666666666669
3592 838 -0.083333333333333343
3593 838 -0.083333333333333315
3594 838 0.16666666666666669
3596 838 -0.083333333333333343
3687 838 -0.083333333333333329
839 839 2.666666666666667
840 839 -0.33333333333333337
870 839 -0.33333333333333337
3497 839 -0.083333333333333343
3498 839 -0.083333333333333343
3499 839 0.16666666666666669
3501 839 -0.083333333333333343
3502 839 -0.16666666666666669
3592 839 -0.083333333333333287
3594 839 -0.16666666666666669
3595 839 -0.083333333333333343
3596 839 -0.083333333333333315
3597 839 0.16666666666666669
3599 839 -0.083333333333333343
3690 839 -0.083333333333333329
840 840 2.666666666666667
841 840 -0.33333333333333337
871 840 -0.33333333333333337
3500 840 -0.083333333333333343
3501 840 -0.083333333333333343
3502 840 0.16666666666666669
3504 840 -0.083333333333333343
3505 840 -0.16666666666666669
3595 840 -0.083333333333333287
3597 840 -0.16666666666666669
3598 840 -0.083333333333333343
3599 840 -0.083333333333333315
3600 840 0.16666666666666669
3602 840 -0.083333333333333343
3693 840 -0.083333333333333329
841 841 2.666666666666667
842 841 -0.33333333333333337
872 841 -0.33333333333333337
3503 841 -0.083333333333333343
3504 841 -0.083333333333333343
3505 841 0.16666666666666669
3507 841 -0.083333333333333343
3508 841 -0.16666666666666669
3598 841 -0.083333333333333287
3600 841 -0.16666666666666669
3601 841 -0.083333333333333343
3602 841 -0.083333333333333315
3603 841 0.16666666666666669
3605 841 -0.083333333333333343
3696 841 -0.083333333333333329
842 842 2.666666666666667
843 842 -0.33333333333333337
873 842 -0.33333333333333337
3506 842 -0.083333333333333343
3507 842 -0.083333333333333343
3508 842 0.16666666666666669
3510 842 -0.083333333333333343
3511 842 -0.16666666666666669
3601 842 -0.083333333333333287
3603 842 -0.16666666666666669
3604 842 -0.083333333333333343
3605 842 -0.083333333333333315
3606 842 0.16666666666666669
3608 842 -0.083333333333333343
3699 842 -0.083333333333333329
843 843 2.666666666666667
844 843 -0.33333333333333337
874 843 -0.33333333333333337
3509 843 -0.083333333333333343
3510 843 -0.083333333333333343
3511 843 0.16666666666666669
3513 843 -0.083333333333333343
3514 843 -0.16666666666666669
3604 843 -0.083333333333333287
3606 843 -0.16666666666666669
3607 843 -0.083333333333333343
3608 843 -0.083333333333333315
3609 843 0.16666666666666669
3611 843 -0.083333333333333343
3702 843 -0.083333333333333329
844 844 2.666666666666667
845 844 -0.33333333333333337
875 844 -0.33333333333333337
3512 844 -0.083333333333333343
3513 844 -0.083333333333333343
3514 844 0.16666666666666669
3516 844 -0.083333333333333343
3517 844 -0.16666666666666669
3607 844 -0.083333333333333287
3609 844 -0.16666666666666669
3610 844 -0.083333333333333343
3611 844 -0.083333333333333315
3612 844 0.16666666666666669
3614 844 -0.083333333333333343
3705 844 -0.083333333333333329
845 845 2.666666666666667
846 845 -0.33333333333333337
876 845 -0.33333333333333337
3515 845 -0.083333333333333343
3516 845 -0.083333333333333343
3517 845 0.16666666666666669
3519 845 -0.083333333333333343
3520 845 -0.16666666666666669
3610 845 -0.083333333333333287
3612 845 -0.16666666666666669
3613 845 -0.083333333333333343
3614 845 -0.083333333333333315
3615 845 0.16666666666666669
3617 845 -0.083333333333333343
3708 845 -0.083333333333333329
846 846 2.666666666666667
847 846 -0.33333333333333337
877 846 -0.33333333333333337
3518 846 -0.083333333333333343
3519 846 -0.083333333333333343
3520 846 0.16666666666666669
3522 846 -0.083333333333333343
3523 846 -0.16666666666666669
3613 846 -0.083333333333333287
3615 846 -0.16666666666666669
3616 846 -0.083333333333333343
3617 846 -0.083333333333333315
3618 846 0.16666666666666669
3620 846 -0.083333333333333343
3711 846 -0.083333333333333329
847 847 2.666666666666667
848 847 -0.33333333333333337
878 847 -0.33333333333333337
3521 847 -0.083333333333333343
3522 847 -0.083333333333333343
3523 847 0.16666666666666669
3525 847 -0.083333333333333343
3526 847 -0.16666666666666669
3616 847 -0.083333333333333287
3618 847 -0.16666666666666669
3619 847 -0.083333333333333343
3620 847 -0.083333333333333315
3621 847 0.16666666666666669
3623 847 -0.083333333333333343
3714 847 -0.083333333333333329
848 848 2.666666666666667
849 848 -0.33333333333333337
879 848 -0.33333333333333337
3524 848 -0.083333333333333343
3525 848 -0.083333333333333343
3526 848 0.16666666666666669
3528 848 -0.083333333333333343
3529 848 -0.16666666666666669
3619 848 -0.083333333333333287
3621 848 -0.16666666666666669
3622 848 -0.083333333333333343
3623 848 -0.083333333333333315
3624 848 0.16666666666666669
3626 848 -0.083333333333333343
3717 848 -0.083333333333333329
849 849 2.666666666666667
850 849 -0.33333333333333337
880 849 -0.33333333333333337
3527 849 -0.083333333333333343
3528 849 -0.083333333333333343
3529 849 0.16666666666666669
3531 849 -0.083333333333333343
3532 849 -0.16666666666666669
3622 849 -0.083333333333333287
3624 849 -0.16666666666666669
3625 849 -0.083333333333333343
3626 849 -0.083333333333333315
3627 849 0.16666666666666669
3629 849 -0.083333333333333343
3720 849 -0.083333333333333329
850 850 2.666666666666667
851 850 -0.33333333333333337
881 850 -0.33333333333333337
3530 850 -0.083333333333333343
3531 850 -0.083333333333333343
3532 850 0.16666666666666669
3534 850 -0.083333333333333343
3535 850 -0.16666666666666669
3625 850 -0.083333333333333287
3627 850 -0.16666666666666669
3628 850 -0.083333333333333343
3629 850 -0.083333333333333315
3630 850 0.16666666666666669
3632 850 -0.083333333333333343
3723 850 -0.083333333333333329
851 851 2.666666666666667
852 851 -0.33333333333333337
882 851 -0.33333333333333337
3533 851 -0.083333333333333343
3534 851 -0.083333333333333343
3535 851 0.16666666666666669
3537 851 -0.083333333333333343
3538 851 -0.16666666666666669
3628 851 -0.083333333333333287
3630 851 -0.16666666666666669
3631 851 -0.083333333333333343
3632 851 -0.083333333333333315
3633 851 0.16666666666666669
3635 851 -0.083333333333333343
3726 851 -0.083333333333333329
852 852 2.666666666666667
853 852 -0.33333333333333337
883 852 -0.33333333333333337
3536 852 -0.083333333333333343
3537 852 -0.083333333333333343
3538 852 0.16666666666666669
3540 852 -0.083333333333333343
3541 852 -0.16666666666666669
3631 852 -0.083333333333333287
3633 852 -0.16666666666666669
3634 852 -0.083333333333333343
3635 852 -0.083333333333333315
3636 852 0.16666666666666669
3638 852 -0.083333333333333343
3729 852 -0.083333333333333329
853 853 2.666666666666667
854 853 -0.33333333333333337
884 853 -0.33333333333333337
3539 853 -0.083333333333333343
3540 853 -0.083333333333333343
3541 853 0.16666666666666669
3543 853 -0.083333333333333343
3544 853 -0.16666666666666669
3634 853 -0.083333333333333287
3636 853 -0.16666666666666669
3637 853 -0.083333333333333343
3638 853 -0.083333333333333315
3639 853 0.16666666666666669
3641 853 -0.083333333333333343
3732 853 -0.083333333333333329
854 854 2.666666666666667
855 854 -0.33333333333333337
885 854 -0.33333333333333337
3542 854 -0.083333333333333343
3543 854 -0.083333333333333343
3544 854 0.16666666666666669
3546 854 -0.083333333333333343
3547 854 -0.16666666666666669
3637 854 -0.083333333333333287
3639 854 -0.16666666666666669
3640 854 -0.083333333333333343
3641 854 -0.083333333333333315
3642 854 0.16666666666666669
3644 854 -0.083333333333333343
3735 854 -0.083333333333333329
855 855 2.666666666666667
856 855 -0.33333333333333337
886 855 -0.33333333333333337
3545 855 -0.083333333333333343
3546 855 -0.083333333333333343
3547 855 0.16666666666666669
3549 855 -0.083333333333333343
3550 855 -0.16666666666666669
3640 855 -0.083333333333333287
3642 855 -0.16666666666666669
3643 855 -0.083333333333333343
3644 855 -0.083333333333333315
3645 855 0.16666666666666669
3647 855 -0.083333333333333343
3738 855 -0.083333333333333329
856 856 2.666666666666667
857 856 -0.33333333333333337
887 856 -0.33333333333333337
3548 856 -0.083333333333333343
3549 856 -0.083333333333333343
3550 856 0.16666666666666669
3552 856 -0.083333333333333343
3553 856 -0.16666666666666669
3643 856 -0.083333333333333287
3645 856 -0.16666666666666669
3646 856 -0.083333333333333343
3647 856 -0.083333333333333315
3648 856 0.16666666666666669
3650 856 -0.083333333333333343
3741 856 -0.083333333333333329
857 857 2.666666666666667
858 857 -0.33333333333333337
888 857 -0.33333333333333337
3551 857 -0.083333333333333343
3552 857 -0.083333333333333343
3553 857 0.16666666666666669
3555 857 -0.083333333333333343
3556 857 -0.16666666666666669
3646 857 -0.083333333333333287
3648 857 -0.16666666666666669
3649 857 -0.083333333333333343
3650 857 -0.083333333333333315
3651 857 0.16666666666666669
3653 857 -0.083333333333333343
3744 857 -0.083333333333333329
858 858 2.666666666666667
859 858 -0.33333333333333337
889 858 -0.33333333333333337
3554 858 -0.083333333333333343
3555 858 -0.083333333333333343
3556 858 0.16666666666666669
3558 858 -0.083333333333333343
3559 858 -0.16666666666666669
3649 858 -0.083333333333333287
3651 858 -0.16666666666666669
3652 858 -0.083333333333333343
3653 858 -0.083333333333333315
3654 858 0.16666666666666669
3656 858 -0.083333333333333343
3747 858 -0.083333333333333329
859 859 2.666666666666667
860 859 -0.33333333333333337
890 859 -0.33333333333333337
3557 859 -0.083333333333333343
3558 859 -0.083333333333333343
3559 859 0.16666666666666669
3561 859 -0.083333333333333343
3562 859 -0.16666666666666669
3652 859 -0.083333333333333287
3654 859 -0.16666666666666669
3655 859 -0.083333333333333343
3656 859 -0.083333333333333315
3657 859 0.16666666666666669
3659 859 -0.083333333333333343
3750 859 -0.083333333333333329
860 860 2.666666666666667
861 860 -0.33333333333333337
891 860 -0.33333333333333337
3560 860 -0.083333333333333343
3561 860 -0.083333333333333343
3562 860 0.16666666666666669
3564 860 -0.083333333333333343
3565 860 -0.16666666666666669
3655 860 -0.083333333333333287
3657 860 -0.16666666666666669
3658 860 -0.083333333333333343
3659 860 -0.083333333333333315
3660 860 0.16666666666666669
3662 860 -0.083333333333333343
3753 860 -0.083333333333333329
861 861 2.666666666666667
862 861 -0.33333333333333337
892 861 -0.33333333333333337
3563 861 -0.083333333333333343
3564 861 -0.083333333333333343
3565 861 0.16666666666666669
3567 861 -0.083333333333333343
3568 861 -0.16666666666666669
3658 861 -0.083333333333333287
3660 861 -0.16666666666666669
3661 861 -0.083333333333333343
3662 861 -0.083333333333333315
3663 861 0.16666666666666669
3665 861 -0.083333333333333343
3756 861 -0.083333333333333329
862 862 2.666666666666667
863 862 -0.33333333333333337
893 862 -0.33333333333333337
3566 862 -0.083333333333333343
3567 862 -0.083333333333333343
3568 862 0.16666666666666669
3570 862 -0.083333333333333343
3571 862 -0.16666666666666669
3661 862 -0.083333333333333287
3663 862 -0.16666666666666669
3664 862 -0.083333333333333343
3665 862 -0.083333333333333315
3666 862 0.16666666666666669
3668 862 -0.083333333333333343
3759 862 -0.083333333333333329
863 863 2.666666666666667
864 863 -0.33333333333333337
894 863 -0.33333333333333337
3569 863 -0.083333333333333343
3570 863 -0.083333333333333343
3571 863 0.16666666666666669
3573 863 -0.083333333333333343
3574 863 -0.16666666666666669
3664 863 -0.083333333333333287
3666 863 -0.16666666666666669
3667 863 -0.083333333333333343
3668 863 -0.083333333333333315
3669 863 0.16666666666666669
3671 863 -0.083333333333333343
3762 863 -0.083333333333333329
864 864 2.666666666666667
865 864 -0.33333333333333337
895 864 -0.33333333333333337
3572 864 -0.083333333333333343
3573 864 -0.083333333333333343
3574 864 0.16666666666666669
3576 864 -0.083333333333333343
3577 864 -0.16666666666666669
3667 864 -0.083333333333333287
3669 864 -0.16666666666666669
3670 864 -0.083333333333333343
3671 864 -0.083333333333333315
3672 864 0.16666666666666669
3674 864 -0.083333333333333343
3765 864 -0.083333333333333329
865 865 2.666666666666667
866 865 -0.33333333333333337
896 865 -0.33333333333333337
3575 865 -0.083333333333333343
3576 865 -0.083333333333333343
3577 865 0.16666666666666669
3579 865 -0.083333333333333343
3580 865 -0.16666666666666669
3670 865 -0.083333333333333287
3672 865 -0.16666666666666669
3673 865 -0.083333333333333343
3674 865 -0.083333333333333315
3675 865 0.16666666666666669
3677 865 -0.083333333333333343
3768 865 -0.083333333333333329
866 866 2.666666666666667
867 866 -0.33333333333333337
897 866 -0.33333333333333337
3578 866 -0.083333333333333343
3579 866 -0.083333333333333343
3580 866 0.16666666666666669
3582 866 -0.083333333333333343
3583 866 -0.16666666666666669
3673 866 -0.083333333333333287
3675 866 -0.16666666666666669
3676 866 -0.083333333333333343
3677 866 -0.083333333333333315
3678 866 0.16666666666666669
3680 866 -0.083333333333333343
3771 866 -0.083333333333333329
867 867 2.666666666666667
868 867 -0.33333333333333337
898 867 -0.33333333333333337
3581 867 -0.083333333333333343
3582 867 -0.083333333333333343
3583 867 0.16666666666666669
3585 867 -0.083333333333333343
3586 867 -0.16666666666666669
3676 867 -0.083333333333333287
3678 867 -0.16666666666666669
3679 867 -0.083333333333333343
3680 867 -0.083333333333333315
3681 867 0.16666666666666669
3683 867 -0.083333333333333343
3774 867 -0.083333333333333329
868 868 2.666666666666667
899 868 -0.33333333333333337
3584 868 -0.083333333333333343
3585 868 -0.083333333333333343
3586 868 0.16666666666666669
3588 868 -0.083333333333333343
3589 868 -0.16666666666666669
3679 868 -0.083333333333333287
3681 868 -0.16666666666666669
3682 868 -0.083333333333333343
3683 868 -0.083333333333333315
3684 868 0.16666666666666669
3777 868 -0.083333333333333329
869 869 2.666666666666667
870 869 -0.33333333333333337
900 869 -0.33333333333333337
3590 869 -0.083333333333333343
3591 869 0.16666666666666669
3593 869 -0.083333333333333343
3594 869 -0.16666666666666669
3685 869 -0.083333333333333287
3686 869 -0.16666666666666669
3687 869 -0.083333333333333343
3688 869 -0.083333333333333315
3689 869 0.16666666666666669
3691 869 -0.083333333333333343
3782 869 -0.083333333333333329
870 870 2.666666666666667
871 870 -0.33333333333333337
901 870 -0.33333333333333337
3592 870 -0.083333333333333343
3593 870 -0.083333333333333343
3594 870 0.16666666666666669
3596 870 -0.083333333333333343
3597 870 -0.16666666666666669
3687 870 -0.083333333333333287
3689 870 -0.16666666666666669
3690 870 -0.083333333333333343
3691 870 -0.083333333333333315
3692 870 0.16666666666666669
3694 870 -0.083333333333333343
3785 870 -0.083333333333333329
871 871 2.666666666666667
872 871 -0.33333333333333337
902 871 -0.33333333333333337
3595 871 -0.083333333333333343
3596 871 -0.083333333333333343
3597 871 0.16666666666666669
3599 871 -0.083333333333333343
3600 871 -0.16666666666666669
3690 871 -0.083333333333333287
3692 871 -0.16666666666666669
3693 871 -0.083333333333333343
3694 871 -0.083333333333333315
3695 871 0.16666666666666669
3697 871 -0.083333333333333343
3788 871 -0.083333333333333329
872 872 2.666666666666667
873 872 -0.33333333333333337
903 872 -0.33333333333333337
3598 872 -0.083333333333333343
3599 872 -0.083333333333333343
3600 872 0.16666666666666669
3602 872 -0.083333333333333343
3603 872 -0.16666666666666669
3693 872 -0.083333333333333287
3695 872 -0.16666666666666669
3696 872 -0.083333333333333343
3697 872 -0.083333333333333315
3698 872 0.16666666666666669
3700 872 -0.083333333333333343
3791 872 -0.083333333333333329
873 873 2.666666666666667
874 873 -0.33333333333333337
904 873 -0.33333333333333337
3601 873 -0.083333333333333343
3602 873 -0.083333333333333343
3603 873 0.16666666666666669
3605 873 -0.083333333333333343
3606 873 -0.16666666666666669
3696 873 -0.083333333333333287
3698 873 -0.16666666666666669
3699 873 -0.083333333333333343
3700 873 -0.083333333333333315
3701 873 0.16666666666666669
3703 873 -0.083333333333333343
3794 873 -0.083333333333333329
874 874 2.666666666666667
875 874 -0.33333333333333337
905 874 -0.33333333333333337
3604 874 -0.083333333333333343
3605 874 -0.083333333333333343
3606 874 0.16666666666666669
3608 874 -0.083333333333333343
3609 874 -0.16666666666666669
3699 874 -0.083333333333333287
3701 874 -0.16666666666666669
3702 874 -0.083333333333333343
3703 874 -0.083333333333333315
3704 874 0.16666666666666669
3706 874 -0.083333333333333343
3797 874 -0.083333333333333329
875 875 2.666666666666667
876 875 -0.33333333333333337
906 875 -0.33333333333333337
3607 875 -0.083333333333333343
3608 875 -0.083333333333333343
3609 875 0.16666666666666669
3611 875 -0.083333333333333343
3612 875 -0.16666666666666669
3702 875 -0.083333333333333287
3704 875 -0.16666666666666669
3705 875 -0.083333333333333343
3706 875 -0.083333333333333315
3707 875 0.16666666666666669
3709 875 -0.083333333333333343
3800 875 -0.083333333333333329
876 876 2.666666666666667
877 876 -0.33333333333333337
907 876 -0.33333333333333337
3610 876 -0.083333333333333343
3611 876 -0.083333333333333343
3612 876 0.16666666666666669
3614 876 -0.083333333333333343
3615 876 -0.16666666666666669
3705 876 -0.083333333333333287
3707 876 -0.16666666666666669
3708 876 -0.083333333333333343
3709 876 -0.083333333333333315
3710 876 0.16666666666666669
3712 876 -0.083333333333333343
3803 876 -0.083333333333333329
877 877 2.666666666666667
878 877 -0.33333333333333337
908 877 -0.33333333333333337
3613 877 -0.083333333333333343
3614 877 -0.083333333333333343
3615 877 0.16666666666666669
3617 877 -0.083333333333333343
3618 877 -0.16666666666666669
3708 877 -0.083333333333333287
3710 877 -0.16666666666666669
3711 877 -0.083333333333333343
3712 877 -0.083333333333333315
3713 877 0.16666666666666669
3715 877 -0.083333333333333343
3806 877 -0.083333333333333329
878 878 2.666666666666667
879 878 -0.33333333333333337
909 878 -0.33333333333333337
3616 878 -0.083333333333333343
3617 878 -0.083333333333333343
3618 878 0.16666666666666669
3620 878 -0.083333333333333343
3621 878 -0.16666666666666669
3711 878 -0.083333333333333287
3713 878 -0.16666666666666669
3714 878 -0.083333333333333343
3715 878 -0.083333333333333315
3716 878 0.16666666666666669
3718 878 -0.083333333333333343
3809 878 -0.083333333333333329
879 879 2.666666666666667
880 879 -0.33333333333333337
910 879 -0.33333333333333337
3619 879 -0.083333333333333343
3620 879 -0.083333333333333343
3621 879 0.16666666666666669
3623 879 -0.083333333333333343
3624 879 -0.16666666666666669
3714 879 -0.083333333333333287
3716 879 -0.16666666666666669
3717 879 -0.083333333333333343
3718 879 -0.083333333333333315
3719 879 0.16666666666666669
3721 879 -0.083333333333333343
3812 879 -0.083333333333333329
880 880 2.666666666666667
881 880 -0.33333333333333337
911 880 -0.33333333333333337
3622 880 -0.083333333333333343
3623 880 -0.083333333333333343
3624 880 0.16666666666666669
3626 880 -0.083333333333333343
3627 880 -0.16666666666666669
3717 880 -0.083333333333333287
3719 880 -0.16666666666666669
3720 880 -0.083333333333333343
3721 880 -0.083333333333333315
3722 880 0.16666666666666669
3724 880 -0.083333333333333343
3815 880 -0.083333333333333329
881 881 2.666666666666667
882 881 -0.33333333333333337
912 881 -0.33333333333333337
3625 881 -0.083333333333333343
3626 881 -0.083333333333333343
3627 881 0.16666666666666669
3629 881 -0.083333333333333343
3630 881 -0.16666666666666669
3720 881 -0.083333333333333287
3722 881 -0.16666666666666669
3723 881 -0.083333333333333343
3724 881 -0.083333333333333315
3725 881 0.16666666666666669
3727 881 -0.083333333333333343
3818 881 -0.083333333333333329
882 882 2.666666666666667
883 882 -0.33333333333333337
913 882 -0.33333333333333337
3628 882 -0.083333333333333343
3629 882 -0.083333333333333343
3630 882 0.16666666666666669
3632 882 -0.083333333333333343
3633 882 -0.16666666666666669
3723 882 -0.083333333333333287
3725 882 -0.16666666666666669
3726 882 -0.083333333333333343
3727 882 -0.083333333333333315
3728 882 0.16666666666666669
3730 882 -0.083333333333333343
3821 882 -0.083333333333333329
883 883 2.666666666666667
884 883 -0.33333333333333337
914 883 -0.33333333333333337
3631 883 -0.083333333333333343
3632 883 -0.083333333333333343
3633 883 0.16666666666666669
3635 883 -0.083333333333333343
3636 883 -0.16666666666666669
3726 883 -0.083333333333333287
3728 883 -0.16666666666666669
3729 883 -0.083333333333333343
3730 883 -0.083333333333333315
3731 883 0.16666666666666669
3733 883 -0.083333333333333343
3824 883 -0.083333333333333329
884 884 2.666666666666667
885 884 -0.33333333333333337
915 884 -0.33333333333333337
3634 884 -0.083333333333333343
3635 884 -0.083333333333333343
3636 884 0.16666666666666669
3638 884 -0.083333333333333343
3639 884 -0.16666666666666669
3729 884 -0.083333333333333287
3731 884 -0.16666666666666669
3732 884 -0.083333333333333343
3733 884 -0.083333333333333315
3734 884 0.16666666666666669
3736 884 -0.083333333333333343
3827 884 -0.083333333333333329
885 885 2.666666666666667
886 885 -0.33333333333333337
916 885 -0.33333333333333337
3637 885 -0.083333333333333343
3638 885 -0.083333333333333343
3639 885 0.16666666666666669
3641 885 -0.083333333333333343
3642 885 -0.16666666666666669
3732 885 -0.083333333333333287
3734 885 -0.16666666666666669
3735 885 -0.083333333333333343
3736 885 -0.083333333333333315
3737 885 0.16666666666666669
3739 885 -0.083333333333333343
3830 885 -0.083333333333333329
886 886 2.666666666666667
887 886 -0.33333333333333337
917 886 -0.33333333333333337
3640 886 -0.083333333333333343
3641 886 -0.083333333333333343
3642 886 0.16666666666666669
3644 886 -0.083333333333333343
3645 886 -0.16666666666666669
3735 886 -0.083333333333333287
3737 886 -0.16666666666666669
3738 886 -0.083333333333333343
3739 886 -0.083333333333333315
3740 886 0.16666666666666669
3742 886 -0.083333333333333343
3833 886 -0.083333333333333329
887 887 2.666666666666667
888 887 -0.33333333333333337
918 887 -0.33333333333333337
3643 887 -0.083333333333333343
3644 887 -0.083333333333333343
3645 887 0.16666666666666669
3647 887 -0.083333333333333343
3648 887 -0.16666666666666669
3738 887 -0.083333333333333287
3740 887 -0.16666666666666669
3741 887 -0.083333333333333343
3742 887 -0.083333333333333315
3743 887 0.16666666666666669
3745 887 -0.083333333333333343
3836 887 -0.083333333333333329
888 888 2.666666666666667
889 888 -0.33333333333333337
919 888 -0.33333333333333337
3646 888 -0.083333333333333343
3647 888 -0.083333333333333343
3648 888 0.16666666666666669
3650 888 -0.083333333333333343
3651 888 -0.16666666666666669
3741 888 -0.083333333333333287
3743 888 -0.16666666666666669
3744 888 -0.083333333333333343
3745 888 -0.083333333333333315
3746 888 0.16666666666666669
3748 888 -0.083333333333333343
3839 888 -0.083333333333333329
889 889 2.666666666666667
890 889 -0.33333333333333337
920 889 -0.33333333333333337
3649 889 -0.083333333333333343
3650 889 -0.083333333333333343
3651 889 0.16666666666666669
3653 889 -0.083333333333333343
3654 889 -0.16666666666666669
3744 889 -0.083333333333333287
3746 889 -0.16666666666666669
3747 889 -0.083333333333333343
3748 889 -0.083333333333333315
3749 889 0.16666666666666669
3751 889 -0.083333333333333343
3842 889 -0.083333333333333329
890 890 2.666666666666667
891 890 -0.33333333333333337
921 890 -0.33333333333333337
3652 890 -0.083333333333333343
3653 890 -0.083333333333333343
3654 890 0.16666666666666669
3656 890 -0.083333333333333343
3657 890 -0.16666666666666669
3747 890 -0.083333333333333287
3749 890 -0.16666666666666669
3750 890 -0.083333333333333343
3751 890 -0.083333333333333315
3752 890 0.16666666666666669
3754 890 -0.083333333333333343
3845 890 -0.083333333333333329
891 891 2.666666666666667
892 891 -0.33333333333333337
922 891 -0.33333333333333337
3655 891 -0.083333333333333343
3656 891 -0.083333333333333343
3657 891 0.16666666666666669
3659 891 -0.083333333333333343
3660 891 -0.16666666666666669
3750 891 -0.083333333333333287
3752 891 -0.16666666666666669
3753 891 -0.083333333333333343
3754 891 -0.083333333333333315
3755 891 0.16666666666666669
3757 891 -0.083333333333333343
3848 891 -0.083333333333333329
892 892 2.666666666666667
893 892 -0.33333333333333337
923 892 -0.33333333333333337
3658 892 -0.083333333333333343
3659 892 -0.083333333333333343
3660 892 0.16666666666666669
3662 892 -0.083333333333333343
3663 892 -0.16666666666666669
3753 892 -0.083333333333333287
3755 892 -0.16666666666666669
3756 892 -0.083333333333333343
3757 892 -0.083333333333333315
3758 892 0.16666666666666669
3760 892 -0.083333333333333343
3851 892 -0.083333333333333329
893 893 2.666666666666667
894 893 -0.33333333333333337
924 893 -0.33333333333333337
3661 893 -0.083333333333333343
3662 893 -0.083333333333333343
3663 893 0.16666666666666669
3665 893 -0.083333333333333343
3666 893 -0.16666666666666669
3756 893 -0.083333333333333287
3758 893 -0.16666666666666669
3759 893 -0.083333333333333343
3760 893 -0.083333333333333315
3761 893 0.16666666666666669
3763 893 -0.083333333333333343
3854 893 -0.083333333333333329
894 894 2.666666666666667
895 894 -0.33333333333333337
925 894 -0.33333333333333337
3664 894 -0.083333333333333343
3665 894 -0.083333333333333343
3666 894 0.16666666666666669
3668 894 -0.083333333333333343
3669 894 -0.16666666666666669
3759 894 -0.083333333333333287
3761 894 -0.16666666666666669
3762 894 -0.083333333333333343
3763 894 -0.083333333333333315
3764 894 0.16666666666666669
3766 894 -0.083333333333333343
3857 894 -0.083333333333333329
895 895 2.666666666666667
896 895 -0.33333333333333337
926 895 -0.33333333333333337
3667 895 -0.083333333333333343
3668 895 -0.083333333333333343
3669 895 0.16666666666666669
3671 895 -0.083333333333333343
3672 895 -0.16666666666666669
3762 895 -0.083333333333333287
3764 895 -0.16666666666666669
3765 895 -0.083333333333333343
3766 895 -0.083333333333333315
3767 895 0.16666666666666669
3769 895 -0.083333333333333343
3860 895 -0.083333333333333329
896 896 2.666666666666667
897 896 -0.33333333333333337
927 896 -0.33333333333333337
3670 896 -0.083333333333333343
3671 896 -0.083333333333333343
3672 896 0.16666666666666669
3674 896 -0.083333333333333343
3675 896 -0.16666666666666669
3765 896 -0.083333333333333287
3767 896 -0.16666666666666669
3768 896 -0.083333333333333343
3769 896 -0.083333333333333315
3770 896 0.16666666666666669
3772 896 -0.083333333333333343
3863 896 -0.083333333333333329
897 897 2.666666666666667
898 897 -0.33333333333333337
928 897 -0.33333333333333337
3673 897 -0.083333333333333343
3674 897 -0.083333333333333343
3675 897 0.16666666666666669
3677 897 -0.083333333333333343
3678 897 -0.16666666666666669
3768 897 -0.083333333333333287
3770 897 -0.16666666666666669
3771 897 -0.083333333333333343
3772 897 -0.083333333333333315
3773 897 0.16666666666666669
3775 897 -0.083333333333333343
3866 897 -0.083333333333333329
898 898 2.666666666666667
899 898 -0.33333333333333337
929 898 -0.33333333333333337
3676 898 -0.083333333333333343
3677 898 -0.083333333333333343
3678 898 0.16666666666666669
3680 898 -0.083333333333333343
3681 898 -0.16666666666666669
3771 898 -0.083333333333333287
3773 898 -0.16666666666666669
3774 898 -0.083333333333333343
3775 898 -0.083333333333333315
3776 898 0.16666666666666669
3778 898 -0.083333333333333343
3869 898 -0.083333333333333329
899 899 2.666666666666667
930 899 -0.33333333333333337
3679 899 -0.083333333333333343
3680 899 -0.083333333333333343
3681 899 0.16666666666666669
3683 899 -0.083333333333333343
3684 899 -0.16666666666666669
3774 899 -0.083333333333333287
3776 899 -0.16666666666666669
3777 899 -0.083333333333333343
3778 899 -0.083333333333333315
3779 899 0.16666666666666669
3872 899 -0.083333333333333329
900 900 2.666666666666667
901 900 -0.33333333333333337
931 900 -0.33333333333333337
3685 900 -0.083333333333333343
3686 900 0.16666666666666669
3688 900 -0.083333333333333343
3689 900 -0.16666666666666669
3780 900 -0.083333333333333287
3781 900 -0.16666666666666669
3782 900 -0.083333333333333343
3783 900 -0.083333333333333315
3784 900 0.16666666666666669
3786 900 -0.083333333333333343
3877 900 -0.083333333333333329
901 901 2.666666666666667
902 901 -0.33333333333333337
932 901 -0.33333333333333337
3687 901 -0.083333333333333343
3688 901 -0.083333333333333343
3689 901 0.16666666666666669
3691 901 -0.083333333333333343
3692 901 -0.16666666666666669
3782 901 -0.083333333333333287
3784 901 -0.16666666666666669
3785 901 -0.083333333333333343
3786 901 -0.083333333333333315
3787 901 0.16666666666666669
3789 901 -0.083333333333333343
3880 901 -0.083333333333333329
902 902 2.666666666666667
903 902 -0.33333333333333337
933 902 -0.33333333333333337
3690 902 -0.083333333333333343
3691 902 -0.083333333333333343
3692 902 0.16666666666666669
3694 902 -0.083333333333333343
3695 902 -0.16666666666666669
3785 902 -0.083333333333333287
3787 902 -0.16666666666666669
3788 902 -0.083333333333333343
3789 902 -0.083333333333333315
3790 902 0.16666666666666669
3792 902 -0.083333333333333343
3883 902 -0.083333333333333329
903 903 2.666666666666667
904 903 -0.33333333333333337
934 903 -0.33333333333333337
3693 903 -0.083333333333333343
3694 903 -0.083333333333333343
3695 903 0.16666666666666669
3697 903 -0.083333333333333343
3698 903 -0.16666666666666669
3788 903 -0.083333333333333287
3790 903 -0.16666666666666669
3791 903 -0.083333333333333343
3792 903 -0.083333333333333315
3793 903 0.16666666666666669
3795 903 -0.083333333333333343
3886 903 -0.083333333333333329
904 904 2.666666666666667
905 904 -0.33333333333333337
935 904 -0.33333333333333337
3696 904 -0.083333333333333343
3697 904 -0.083333333333333343
3698 904 0.16666666666666669
3700 904 -0.083333333333333343
3701 904 -0.16666666666666669
3791 904 -0.083333333333333287
3793 904 -0.16666666666666669
3794 904 -0.083333333333333343
3795 904 -0.083333333333333315
3796 904 0.16666666666666669
3798 904 -0.083333333333333343
3889 904 -0.083333333333333329
905 905 2.666666666666667
906 905 -0.33333333333333337
936 905 -0.33333333333333337
3699 905 -0.083333333333333343
3700 905 -0.083333333333333343
3701 905 0.16666666666666669
3703 905 -0.083333333333333343
3704 905 -0.16666666666666669
3794 905 -0.083333333333333287
3796 905 -0.16666666666666669
3797 905 -0.083333333333333343
3798 905 -0.083333333333333315
3799 905 0.16666666666666669
3801 905 -0.083333333333333343
3892 905 -0.083333333333333329
906 906 2.666666666666667
907 906 -0.33333333333333337
937 906 -0.33333333333333337
3702 906 -0.083333333333333343
3703 906 -0.083333333333333343
3704 906 0.16666666666666669
3706 906 -0.083333333333333343
3707 906 -0.16666666666666669
3797 906 -0.083333333333333287
3799 906 -0.16666666666666669
3800 906 -0.083333333333333343
3801 906 -0.083333333333333315
3802 906 0.16666666666666669
3804 906 -0.083333333333333343
3895 906 -0.083333333333333329
907 907 2.666666666666667
908 907 -0.33333333333333337
938 907 -0.33333333333333337
3705 907 -0.083333333333333343
3706 907 -0.083333333333333343
3707 907 0.16666666666666669
3709 907 -0.083333333333333343
3710 907 -0.16666666666666669
3800 907 -0.083333333333333287
3802 907 -0.16666666666666669
3803 907 -0.083333333333333343
3804 907 -0.083333333333333315
3805 907 0.16666666666666669
3807 907 -0.083333333333333343
3898 907 -0.083333333333333329
908 908 2.666666666666667
909 908 -0.33333333333333337
939 908 -0.33333333333333337
3708 908 -0.083333333333333343
3709 908 -0.083333333333333343
3710 908 0.16666666666666669
3712 908 -0.083333333333333343
3713 908 -0.16666666666666669
3803 908 -0.083333333333333287
3805 908 -0.16666666666666669
3806 908 -0.083333333333333343
3807 908 -0.083333333333333315
3808 908 0.16666666666666669
3810 908 -0.083333333333333343
3901 908 -0.083333333333333329
909 909 2.666666666666667
910 909 -0.33333333333333337
940 909 -0.33333333333333337
3711 909 -0.083333333333333343
3712 909 -0.083333333333333343
3713 909 0.16666666666666669
3715 909 -0.083333333333333343
3716 909 -0.16666666666666669
3806 909 -0.083333333333333287
3808 909 -0.16666666666666669
3809 909 -0.083333333333333343
3810 909 -0.083333333333333315
3811 909 0.16666666666666669
3813 909 -0.083333333333333343
3904 909 -0.083333333333333329
910 910 2.666666666666667
911 910 -0.33333333333333337
941 910 -0.33333333333333337
3714 910 -0.083333333333333343
3715 910 -0.083333333333333343
3716 910 0.16666666666666669
3718 910 -0.083333333333333343
3719 910 -0.16666666666666669
3809 910 -0.083333333333333287
3811 910 -0.16666666666666669
3812 910 -0.083333333333333343
3813 910 -0.083333333333333315
3814 910 0.16666666666666669
3816 910 -0.083333333333333343
3907 910 -0.083333333333333329
911 911 2.666666666666667
912 911 -0.33333333333333337
942 911 -0.33333333333333337
3717 911 -0.083333333333333343
3718 911 -0.083333333333333343
3719 911 0.16666666666666669
3721 911 -0.083333333333333343
3722 911 -0.16666666666666669
3812 911 -0.083333333333333287
3814 911 -0.16666666666666669
3815 911 -0.083333333333333343
3816 911 -0.083333333333333315
3817 911 0.16666666666666669
3819 911 -0.083333333333333343
3910 911 -0.083333333333333329
912 912 2.666666666666667
913 912 -0.33333333333333337
943 912 -0.33333333333333337
3720 912 -0.083333333333333343
3721 912 -0.083333333333333343
3722 912 0.16666666666666669
3724 912 -0.083333333333333343
3725 912 -0.16666666666666669
3815 912 -0.083333333333333287
3817 912 -0.16666666666666669
3818 912 -0.083333333333333343
3819 912 -0.083333333333333315
3820 912 0.16666666666666669
3822 912 -0.083333333333333343
3913 912 -0.083333333333333329
913 913 2.666666666666667
914 913 -0.33333333333333337
944 913 -0.33333333333333337
3723 913 -0.083333333333333343
3724 913 -0.083333333333333343
3725 913 0.16666666666666669
3727 913 -0.083333333333333343
3728 913 -0.16666666666666669
3818 913 -0.083333333333333287
3820 913 -0.16666666666666669
3821 913 -0.083333333333333343
3822 913 -0.083333333333333315
3823 913 0.16666666666666669
3825 913 -0.083333333333333343
3916 913 -0.083333333333333329
914 914 2.666666666666667
915 914 -0.33333333333333337
945 914 -0.33333333333333337
3726 914 -0.083333333333333343
3727 914 -0.083333333333333343
3728 914 0.16666666666666669
3730 914 -0.083333333333333343
3731 914 -0.16666666666666669
3821 914 -0.083333333333333287
3823 914 -0.16666666666666669
3824 914 -0.083333333333333343
3825 914 -0.083333333333333315
3826 914 0.16666666666666669
3828 914 -0.083333333333333343
3919 914 -0.083333333333333329
915 915 2.666666666666667
916 915 -0.33333333333333337
946 915 -0.33333333333333337
3729 915 -0.083333333333333343
3730 915 -0.083333333333333343
3731 915 0.16666666666666669
3733 915 -0.083333333333333343
3734 915 -0.16666666666666669
3824 915 -0.083333333333333287
3826 915 -0.16666666666666669
3827 915 -0.083333333333333343
3828 915 -0.083333333333333315
3829 915 0.16666666666666669
3831 915 -0.083333333333333343
3922 915 -0.083333333333333329
916 916 2.666666666666667
917 916 -0.33333333333333337
947 916 -0.33333333333333337
3732 916 -0.083333333333333343
3733 916 -0.083333333333333343
3734 916 0.16666666666666669
3736 916 -0.083333333333333343
3737 916 -0.16666666666666669
3827 916 -0.083333333333333287
3829 916 -0.16666666666666669
3830 916 -0.083333333333333343
3831 916 -0.083333333333333315
3832 916 0.16666666666666669
3834 916 -0.083333333333333343
3925 916 -0.083333333333333329
917 917 2.666666666666667
918 917 -0.33333333333333337
948 917 -0.33333333333333337
3735 917 -0.083333333333333343
3736 917 -0.083333333333333343
3737 917 0.16666666666666669
3739 917 -0.083333333333333343
3740 917 -0.16666666666666669
3830 917 -0.083333333333333287
3832 917 -0.16666666666666669
3833 917 -0.083333333333333343
3834 917 -0.083333333333333315
3835 917 0.16666666666666669
3837 917 -0.083333333333333343
3928 917 -0.083333333333333329
918 918 2.666666666666667
919 918 -0.33333333333333337
949 918 -0.33333333333333337
3738 918 -0.083333333333333343
3739 918 -0.083333333333333343
3740 918 0.16666666666666669
3742 918 -0.083333333333333343
3743 918 -0.16666666666666669
3833 918 -0.083333333333333287
3835 918 -0.16666666666666669
3836 918 -0.083333333333333343
3837 918 -0.083333333333333315
3838 918 0.16666666666666669
3840 918 -0.083333333333333343
3931 918 -0.083333333333333329
919 919 2.666666666666667
920 919 -0.33333333333333337
950 919 -0.33333333333333337
3741 919 -0.083333333333333343
3742 919 -0.083333333333333343
3743 919 0.16666666666666669
3745 919 -0.083333333333333343
3746 919 -0.16666666666666669
3836 919 -0.083333333333333287
3838 919 -0.16666666666666669
3839 919 -0.083333333333333343
3840 919 -0.083333333333333315
3841 919 0.16666666666666669
3843 919 -0.083333333333333343
3934 919 -0.083333333333333329
920 920 2.666666666666667
921 920 -0.33333333333333337
951 920 -0.33333333333333337
3744 920 -0.083333333333333343
3745 920 -0.083333333333333343
3746 920 0.16666666666666669
3748 920 -0.083333333333333343
3749 920 -0.16666666666666669
3839 920 -0.083333333333333287
3841 920 -0.16666666666666669
3842 920 -0.083333333333333343
3843 920 -0.083333333333333315
3844 920 0.16666666666666669
3846 920 -0.083333333333333343
3937 920 -0.083333333333333329
921 921 2.666666666666667
922 921 -0.33333333333333337
952 921 -0.33333333333333337
3747 921 -0.083333333333333343
3748 921 -0.083333333333333343
3749 921 0.16666666666666669
3751 921 -0.083333333333333343
3752 921 -0.16666666666666669
3842 921 -0.083333333333333287
3844 921 -0.16666666666666669
3845 921 -0.083333333333333343
3846 921 -0.083333333333333315
3847 921 0.16666666666666669
3849 921 -0.083333333333333343
3940 921 -0.083333333333333329
922 922 2.666666666666667
923 922 -0.33333333333333337
953 922 -0.33333333333333337
3750 922 -0.083333333333333343
3751 922 -0.083333333333333343
3752 922 0.16666666666666669
3754 922 -0.083333333333333343
3755 922 -0.16666666666666669
3845 922 -0.083333333333333287
3847 922 -0.16666666666666669
3848 922 -0.083333333333333343
3849 922 -0.083333333333333315
3850 922 0.16666666666666669
3852 922 -0.083333333333333343
3943 922 -0.083333333333333329
923 923 2.666666666666667
924 923 -0.33333333333333337
954 923 -0.33333333333333337
3753 923 -0.083333333333333343
3754 923 -0.083333333333333343
3755 923 0.16666666666666669
3757 923 -0.083333333333333343
3758 923 -0.16666666666666669
3848 923 -0.083333333333333287
3850 923 -0.16666666666666669
3851 923 -0.083333333333333343
3852 923 -0.083333333333333315
3853 923 0.16666666666666669
3855 923 -0.083333333333333343
3946 923 -0.083333333333333329
924 924 2.666666666666667
925 924 -0.33333333333333337
955 924 -0.33333333333333337
3756 924 -0.083333333333333343
3757 924 -0.083333333333333343
3758 924 0.16666666666666669
3760 924 -0.083333333333333343
3761 924 -0.16666666666666669
3851 924 -0.083333333333333287
3853 924 -0.16666666666666669
3854 924 -0.083333333333333343
3855 924 -0.083333333333333315
3856 924 0.16666666666666669
3858 924 -0.083333333333333343
3949 924 -0.083333333333333329
925 925 2.666666666666667
926 925 -0.33333333333333337
956 925 -0.33333333333333337
3759 925 -0.083333333333333343
3760 925 -0.083333333333333343
3761 925 0.16666666666666669
3763 925 -0.083333333333333343
3764 925 -0.16666666666666669
3854 925 -0.083333333333333287
3856 925 -0.16666666666666669
3857 925 -0.083333333333333343
3858 925 -0.083333333333333315
3859 925 0.16666666666666669
3861 925 -0.083333333333333343
3952 925 -0.083333333333333329
926 926 2.666666666666667
927 926 -0.33333333333333337
957 926 -0.33333333333333337
3762 926 -0.083333333333333343
3763 926 -0.083333333333333343
3764 926 0.16666666666666669
3766 926 -0.083333333333333343
3767 926 -0.16666666666666669
3857 926 -0.083333333333333287
3859 926 -0.16666666666666669
3860 926 -0.083333333333333343
3861 926 -0.083333333333333315
3862 926 0.16666666666666669
3864 926 -0.083333333333333343
3955 926 -0.083333333333333329
927 927 2.666666666666667
928 927 -0.33333333333333337
958 927 -0.33333333333333337
3765 927 -0.083333333333333343
3766 927 -0.083333333333333343
3767 927 0.16666666666666669
3769 927 -0.083333333333333343
3770 927 -0.16666666666666669
3860 927 -0.083333333333333287
3862 927 -0.16666666666666669
3863 927 -0.083333333333333343
3864 927 -0.083333333333333315
3865 927 0.16666666666666669
3867 927 -0.083333333333333343
3958 927 -0.083333333333333329
928 928 2.666666666666667
929 928 -0.33333333333333337
959 928 -0.33333333333333337
3768 928 -0.083333333333333343
3769 928 -0.083333333333333343
3770 928 0.16666666666666669
3772 928 -0.083333333333333343
3773 928 -0.16666666666666669
3863 928 -0.083333333333333287
3865 928 -0.16666666666666669
3866 928 -0.083333333333333343
3867 928 -0.083333333333333315
3868 928 0.16666666666666669
3870 928 -0.083333333333333343
3961 928 -0.083333333333333329
929 929 2.666666666666667
930 929 -0.33333333333333337
960 929 -0.33333333333333337
3771 929 -0.083333333333333343
3772 929 -0.083333333333333343
3773 929 0.16666666666666669
3775 929 -0.083333333333333343
3776 929 -0.16666666666666669
3866 929 -0.083333333333333287
3868 929 -0.16666666666666669
3869 929 -0.083333333333333343
3870 929 -0.083333333333333315
3871 929 0.16666666666666669
3873 929 -0.083333333333333343
3964 929 -0.083333333333333329
930 930 2.666666666666667
961 930 -0.33333333333333337
3774 930 -0.083333333333333343
3775 930 -0.083333333333333343
3776 930 0.16666666666666669
3778 930 -0.083333333333333343
3779 930 -0.16666666666666669
3869 930 -0.083333333333333287
3871 930 -0.16666666666666669
3872 930 -0.083333333333333343
3873 930 -0.083333333333333315
3874 930 0.16666666666666669
3967 930 -0.083333333333333329
931 931 2.666666666666667
932 931 -0.33333333333333337
3780 931 -0.083333333333333343
3781 931 0.16666666666666669
3783 931 -0.083333333333333343
3784 931 -0.16666666666666669
3875 931 -0.083333333333333287
3876 931 -0.16666666666666669
3877 931 -0.083333333333333343
3878 931 -0.083333333333333315
3879 931 0.16666666666666669
3881 931 -0.083333333333333343
932 932 2.666666666666667
933 932 -0.33333333333333337
3782 932 -0.083333333333333343
3783 932 -0.083333333333333343
3784 932 0.16666666666666669
3786 932 -0.083333333333333343
3787 932 -0.16666666666666669
3877 932 -0.083333333333333287
3879 932 -0.16666666666666669
3880 932 -0.083333333333333343
3881 932 -0.083333333333333315
3882 932 0.16666666666666669
3884 932 -0.083333333333333343
933 933 2.666666666666667
934 933 -0.33333333333333337
3785 933 -0.083333333333333343
3786 933 -0.083333333333333343
3787 933 0.16666666666666669
3789 933 -0.083333333333333343
3790 933 -0.16666666666666669
3880 933 -0.083333333333333287
3882 933 -0.16666666666666669
3883 933 -0.083333333333333343
3884 933 -0.083333333333333315
3885 933 0.16666666666666669
3887 933 -0.083333333333333343
934 934 2.666666666666667
935 934 -0.33333333333333337
3788 934 -0.083333333333333343
3789 934 -0.083333333333333343
3790 934 0.16666666666666669
3792 934 -0.083333333333333343
3793 934 -0.16666666666666669
3883 934 -0.083333333333333287
3885 934 -0.16666666666666669
3886 934 -0.083333333333333343
3887 934 -0.083333333333333315
3888 934 0.16666666666666669
3890 934 -0.083333333333333343
935 935 2.666666666666667
936 935 -0.33333333333333337
3791 935 -0.083333333333333343
3792 935 -0.083333333333333343
3793 935 0.16666666666666669
3795 935 -0.083333333333333343
3796 935 -0.16666666666666669
3886 935 -0.083333333333333287
3888 935 -0.16666666666666669
3889 935 -0.083333333333333343
3890 935 -0.083333333333333315
3891 935 0.16666666666666669
3893 935 -0.083333333333333343
936 936 2.666666666666667
937 936 -0.33333333333333337
3794 936 -0.083333333333333343
3795 936 -0.083333333333333343
3796 936 0.16666666666666669
3798 936 -0.083333333333333343
3799 936 -0.16666666666666669
3889 936 -0.083333333333333287
3891 936 -0.16666666666666669
3892 936 -0.083333333333333343
3893 936 -0.083333333333333315
3894 936 0.16666666666666669
3896 936 -0.083333333333333343
937 937 2.666666666666667
938 937 -0.33333333333333337
3797 937 -0.083333333333333343
3798 937 -0.083333333333333343
3799 937 0.16666666666666669
3801 937 -0.083333333333333343
3802 937 -0.16666666666666669
3892 937 -0.083333333333333287
3894 937 -0.16666666666666669
3895 937 -0.083333333333333343
3896 937 -0.083333333333333315
3897 937 0.16666666666666669
3899 937 -0.083333333333333343
938 938 2.666666666666667
939 938 -0.33333333333333337
3800 938 -0.083333333333333343
3801 938 -0.083333333333333343
3802 938 0.16666666666666669
3804 938 -0.083333333333333343
3805 938 -0.16666666666666669
3895 938 -0.083333333333333287
3897 938 -0.16666666666666669
3898 938 -0.083333333333333343
3899 938 -0.083333333333333315
3900 938 0.16666666666666669
3902 938 -0.083333333333333343
939 939 2.666666666666667
940 939 -0.33333333333333337
3803 939 -0.083333333333333343
3804 939 -0.083333333333333343
3805 939 0.16666666666666669
3807 939 -0.083333333333333343
3808 939 -0.16666666666666669
3898 939 -0.083333333333333287
3900 939 -0.16666666666666669
3901 939 -0.083333333333333343
3902 939 -0.083333333333333315
3903 939 0.16666666666666669
3905 939 -0.083333333333333343
940 940 2.666666666666667
941 940 -0.33333333333333337
3806 940 -0.083333333333333343
3807 940 -0.083333333333333343
3808 940 0.16666666666666669
3810 940 -0.083333333333333343
3811 940 -0.16666666666666669
3901 940 -0.083333333333333287
3903 940 -0.16666666666666669
3904 940 -0.083333333333333343
3905 940 -0.083333333333333315
3906 940 0.16666666666666669
3908 940 -0.083333333333333343
941 941 2.666666666666667
942 941 -0.33333333333333337
3809 941 -0.083333333333333343
3810 941 -0.083333333333333343
3811 941 0.16666666666666669
3813 941 -0.083333333333333343
3814 941 -0.16666666666666669
3904 941 -0.083333333333333287
3906 941 -0.16666666666666669
3907 941 -0.083333333333333343
3908 941 -0.083333333333333315
3909 941 0.16666666666666669
3911 941 -0.083333333333333343
942 942 2.666666666666667
943 942 -0.33333333333333337
3812 942 -0.083333333333333343
3813 942 -0.083333333333333343
3814 942 0.16666666666666669
3816 942 -0.083333333333333343
3817 942 -0.16666666666666669
3907 942 -0.083333333333333287
3909 942 -0.16666666666666669
3910 942 -0.083333333333333343
3911 942 -0.083333333333333315
3912 942 0.16666666666666669
3914 942 -0.083333333333333343
943 943 2.666666666666667
944 943 -0.33333333333333337
3815 943 -0.083333333333333343
3816 943 -0.083333333333333343
3817 943 0.16666666666666669
3819 943 -0.083333333333333343
3820 943 -0.16666666666666669
3910 943 -0.083333333333333287
3912 943 -0.16666666666666669
3913 943 -0.083333333333333343
3914 943 -0.083333333333333315
3915 943 0.16666666666666669
3917 943 -0.083333333333333343
944 944 2.666666666666667
945 944 -0.33333333333333337
3818 944 -0.083333333333333343
3819 944 -0.083333333333333343
3820 944 0.16666666666666669
3822 944 -0.083333333333333343
3823 944 -0.16666666666666669
3913 944 -0.083333333333333287
3915 944 -0.16666666666666669
3916 944 -0.083333333333333343
3917 944 -0.083333333333333315
3918 944 0.16666666666666669
3920 944 -0.083333333333333343
945 945 2.666666666666667
946 945 -0.33333333333333337
3821 945 -0.083333333333333343
3822 945 -0.083333333333333343
3823 945 0.16666666666666669
3825 945 -0.083333333333333343
3826 945 -0.16666666666666669
3916 945 -0.083333333333333287
3918 945 -0.16666666666666669
3919 945 -0.083333333333333343
3920 945 -0.083333333333333315
3921 945 0.16666666666666669
3923 945 -0.083333333333333343
946 946 2.666666666666667
947 946 -0.33333333333333337
3824 946 -0.083333333333333343
3825 946 -0.083333333333333343
3826 946 0.16666666666666669
3828 946 -0.083333333333333343
3829 946 -0.16666666666666669
3919 946 -0.083333333333333287
3921 946 -0.16666666666666669
3922 946 -0.083333333333333343
3923 946 -0.083333333333333315
3924 946 0.16666666666666669
3926 946 -0.083333333333333343
947 947 2.666666666666667
948 947 -0.33333333333333337
3827 947 -0.083333333333333343
3828 947 -0.083333333333333343
3829 947 0.16666666666666669
3831 947 -0.083333333333333343
3832 947 -0.16666666666666669
3922 947 -0.083333333333333287
3924 947 -0.16666666666666669
3925 947 -0.083333333333333343
3926 947 -0.083333333333333315
3927 947 0.16666666666666669
3929 947 -0.083333333333333343
948 948 2.666666666666667
949 948 -0.33333333333333337
3830 948 -0.083333333333333343
3831 948 -0.083333333333333343
3832 948 0.16666666666666669
3834 948 -0.083333333333333343
3835 948 -0.16666666666666669
3925 948 -0.083333333333333287
3927 948 -0.16666666666666669
3928 948 -0.083333333333333343
3929 948 -0.083333333333333315
3930 948 0.16666666666666669
3932 948 -0.083333333333333343
949 949 2.666666666666667
950 949 -0.33333333333333337
3833 949 -0.083333333333333343
3834 949 -0.083333333333333343
3835 949 0.16666666666666669
3837 949 -0.083333333333333343
3838 949 -0.16666666666666669
3928 949 -0.083333333333333287
3930 949 -0.16666666666666669
3931 949 -0.083333333333333343
3932 949 -0.083333333333333315
3933 949 0.16666666666666669
3935 949 -0.083333333333333343
950 950 2.666666666666667
951 950 -0.33333333333333337
3836 950 -0.083333333333333343
3837 950 -0.083333333333333343
3838 950 0.16666666666666669
3840 950 -0.083333333333333343
3841 950 -0.16666666666666669
3931 950 -0.083333333333333287
3933 950 -0.16666666666666669
3934 950 -0.083333333333333343
3935 950 -0.083333333333333315
3936 950 0.16666666666666669
3938 950 -0.083333333333333343
951 951 2.666666666666667
952 951 -0.33333333333333337
3839 951 -0.083333333333333343
3840 951 -0.083333333333333343
3841 951 0.16666666666666669
3843 951 -0.083333333333333343
3844 951 -0.16666666666666669
3934 951 -0.083333333333333287
3936 951 -0.16666666666666669
3937 951 -0.083333333333333343
3938 951 -0.083333333333333315
3939 951 0.16666666666666669
3941 951 -0.083333333333333343
952 952 2.666666666666667
953 952 -0.33333333333333337
3842 952 -0.083333333333333343
3843 952 -0.083333333333333343
3844 952 0.16666666666666669
3846 952 -0.083333333333333343
3847 952 -0.16666666666666669
3937 952 -0.083333333333333287
3939 952 -0.16666666666666669
3940 952 -0.083333333333333343
3941 952 -0.083333333333333315
3942 952 0.16666666666666669
3944 952 -0.083333333333333343
953 953 2.666666666666667
954 953 -0.33333333333333337
3845 953 -0.083333333333333343
3846 953 -0.083333333333333343
3847 953 0.16666666666666669
3849 953 -0.083333333333333343
3850 953 -0.16666666666666669
3940 953 -0.083333333333333287
3942 953 -0.16666666666666669
3943 953 -0.083333333333333343
3944 953 -0.083333333333333315
3945 953 0.16666666666666669
3947 953 -0.083333333333333343
954 954 2.666666666666667
955 954 -0.33333333333333337
3848 954 -0.083333333333333343
3849 954 -0.083333333333333343
3850 954 0.16666666666666669
3852 954 -0.083333333333333343
3853 954 -0.16666666666666669
3943 954 -0.083333333333333287
3945 954 -0.16666666666666669
3946 954 -0.083333333333333343
3947 954 -0.083333333333333315
3948 954 0.16666666666666669
3950 954 -0.083333333333333343
955 955 2.666666666666667
956 955 -0.33333333333333337
3851 955 -0.083333333333333343
3852 955 -0.083333333333333343
3853 955 0.16666666666666669
3855 955 -0.083333333333333343
3856 955 -0.16666666666666669
3946 955 -0.083333333333333287
3948 955 -0.16666666666666669
3949 955 -0.083333333333333343
3950 955 -0.083333333333333315
3951 955 0.16666666666666669
3953 955 -0.083333333333333343
956 956 2.666666666666667
957 956 -0.33333333333333337
3854 956 -0.083333333333333343
3855 956 -0.083333333333333343
3856 956 0.16666666666666669
3858 956 -0.083333333333333343
3859 956 -0.16666666666666669
3949 956 -0.083333333333333287
3951 956 -0.16666666666666669
3952 956 -0.083333333333333343
3953 956 -0.083333333333333315
3954 956 0.16666666666666669
3956 956 -0.083333333333333343
957 957 2.666666666666667
958 957 -0.33333333333333337
3857 957 -0.083333333333333343
3858 957 -0.083333333333333343
3859 957 0.16666666666666669
3861 957 -0.083333333333333343
3862 957 -0.16666666666666669
3952 957 -0.083333333333333287
3954 957 -0.16666666666666669
3955 957 -0.083333333333333343
3956 957 -0.083333333333333315
3957 957 0.16666666666666669
3959 957 -0.083333333333333343
958 958 2.666666666666667
959 958 -0.33333333333333337
3860 958 -0.083333333333333343
3861 958 -0.083333333333333343
3862 958 0.16666666666666669
3864 958 -0.083333333333333343
3865 958 -0.16666666666666669
3955 958 -0.083333333333333287
3957 958 -0.16666666666666669
3958 958 -0.083333333333333343
3959 958 -0.083333333333333315
3960 958 0.16666666666666669
3962 958 -0.083333333333333343
959 959 2.666666666666667
960 959 -0.33333333333333337
3863 959 -0.083333333333333343
3864 959 -0.083333333333333343
3865 959 0.16666666666666669
3867 959 -0.083333333333333343
3868 959 -0.16666666666666669
3958 959 -0.083333333333333287
3960 959 -0.16666666666666669
3961 959 -0.083333333333333343
3962 959 -0.083333333333333315
3963 959 0.16666666666666669
3965 959 -0.083333333333333343
960 960 2.666666666666667
961 960 -0.33333333333333337
3866 960 -0.083333333333333343
3867 960 -0.083333333333333343
3868 960 0.16666666666666669
3870 960 -0.083333333333333343
3871 960 -0.16666666666666669
3961 960 -0.083333333333333287
3963 960 -0.16666666666666669
3964 960 -0.083333333333333343
3965 960 -0.083333333333333315
3966 960 0.16666666666666669
3968 960 -0.083333333333333343
961 961 2.666666666666667
3869 961 -0.083333333333333343
3870 961 -0.083333333333333343
3871 961 0.16666666666666669
3873 961 -0.083333333333333343
3874 961 -0.16666666666666669
3964 961 -0.083333333333333287
3966 961 -0.16666666666666669
3967 961 -0.083333333333333343
3968 961 -0.083333333333333315
3969 961 0.16666666666666669
962 962 0.33333333333333337
963 962 -0.083333333333333343
1025 962 -0.083333333333333329
963 963 0.33333333333333337
964 963 -0.083333333333333343
964 964 0.33333333333333337
965 964 -0.083333333333333343
1027 964 -0.083333333333333329
965 965 0.33333333333333337
966 965 -0.083333333333333343
966 966 0.33333333333333337
967 966 -0.083333333333333343
1030 966 -0.083333333333333329
967 967 0.33333333333333337
968 967 -0.083333333333333343
968 968 0.33333333333333337
969 968 -0.083333333333333343
1033 968 -0.083333333333333329
969 969 0.33333333333333337
970 969 -0.083333333333333343
970 970 0.33333333333333337
971 970 -0.083333333333333343
1036 970 -0.083333333333333329
971 971 0.33333333333333337
972 971 -0.083333333333333343
972 972 0.33333333333333337
973 972 -0.083333333333333343
1039 972 -0.083333333333333329
973 973 0.33333333333333337
974 973 -0.083333333333333343
974 974 0.33333333333333337
975 974 -0.083333333333333343
1042 974 -0.083333333333333329
975 975 0.33333333333333337
976 975 -0.083333333333333343
976 976 0.33333333333333337
977 976 -0.083333333333333343
1045 976 -0.083333333333333329
977 977 0.33333333333333337
978 977 -0.083333333333333343
978 978 0.33333333333333337
979 978 -0.083333333333333343
1048 978 -0.083333333333333329
979 979 0.33333333333333337
980 979 -0.083333333333333343
980 980 0.33333333333333337
981 980 -0.083333333333333343
1051 980 -0.083333333333333329
981 981 0.33333333333333337
982 981 -0.083333333333333343
982 982 0.33333333333333337
983 982 -0.083333333333333343
1054 982 -0.083333333333333329
983 983 0.33333333333333337
984 983 -0.083333333333333343
984 984 0.33333333333333337
985 984 -0.083333333333333343
1057 984 -0.083333333333333329
985 985 0.33333333333333337
986 985 -0.083333333333333343
986 986 0.33333333333333337
987 986 -0.083333333333333343
1060 986 -0.083333333333333329
987 987 0.33333333333333337
988 987 -0.083333333333333343
988 988 0.33333333333333337
989 988 -0.083333333333333343
1063 988 -0.083333333333333329
989 989 0.33333333333333337
990 989 -0.083333333333333343
990 990 0.33333333333333337
991 990 -0.083333333333333343
1066 990 -0.083333333333333329
991 991 0.33333333333333337
992 991 -0.083333333333333343
992 992 0.33333333333333337
993 992 -0.083333333333333343
1069 992 -0.083333333333333329
993 993 0.33333333333333337
994 993 -0.083333333333333343
994 994 0.33333333333333337
995 994 -0.083333333333333343
1072 994 -0.083333333333333329
995 995 0.33333333333333337
996 995 -0.083333333333333343
996 996 0.33333333333333337
997 996 -0.083333333333333343
1075 996 -0.083333333333333329
997 997 0.33333333333333337
998 997 -0.083333333333333343
998 998 0.33333333333333337
999 998 -0.083333333333333343
1078 998 -0.083333333333333329
999 999 0.33333333333333337
1000 999 -0.083333333333333343
1000 1000 0.33333333333333337
1001 1000 -0.083333333333333343
1081 1000 -0.083333333333333329
1001 1001 0.33333333333333337
1002 1001 -0.083333333333333343
1002 1002 0.33333333333333337
1003 1002 -0.083333333333333343
1084 1002 -0.083333333333333329
1003 1003 0.33333333333333337
1004 1003 -0.083333333333333343
1004 1004 0.33333333333333337
1005 1004 -0.083333333333333343
1087 1004 -0.083333333333333329
1005 1005 0.33333333333333337
1006 1005 -0.083333333333333343
1006 1006 0.33333333333333337
1007 1006 -0.083333333333333343
1090 1006 -0.083333333333333329
1007 1007 0.33333333333333337
1008 1007 -0.083333333333333343
1008 1008 0.33333333333333337
1009 1008 -0.083333333333333343
1093 1008 -0.083333333333333329
1009 1009 0.33333333333333337
1010 1009 -0.083333333333333343
1010 1010 0.33333333333333337
1011 1010 -0.083333333333333343
1096 1010 -0.083333333333333329
1011 1011 0.33333333333333337
1012 1011 -0.083333333333333343
1012 1012 0.33333333333333337
1013 1012 -0.083333333333333343
1099 1012 -0.083333333333333329
1013 1013 0.33333333333333337
1014 1013 -0.083333333333333343
1014 1014 0.33333333333333337
1015 1014 -0.083333333333333343
1102 1014 -0.083333333333333329
1015 1015 0.33333333333333337
1016 1015 -0.083333333333333343
1016 1016 0.33333333333333337
1017 1016 -0.083333333333333343
1105 1016 -0.083333333333333329
1017 1017 0.33333333333333337
1018 1017 -0.083333333333333343
1018 1018 0.33333333333333337
1019 1018 -0.083333333333333343
1108 1018 -0.083333333333333329
1019 1019 0.33333333333333337
1020 1019 -0.083333333333333343
1020 1020 0.33333333333333337
1021 1020 -0.083333333333333343
1111 1020 -0.083333333333333329
1021 1021 0.33333333333333337
1022 1021 -0.083333333333333343
1022 1022 0.33333333333333337
1023 1022 -0.083333333333333343
1114 1022 -0.083333333333333329
1023 1023 0.33333333333333337
1024 1023 -0.083333333333333343
1024 1024 0.33333333333333337
1117 1024 -0.083333333333333329
1025 1025 0.33333333333333337
1026 1025 -0.083333333333333343
1026 1026 0.33333333333333337
1028 1026 -0.083333333333333343
1120 1026 -0.083333333333333329
1027 1027 0.33333333333333337
1029 1027 -0.083333333333333343
1028 1028 0.33333333333333337
1029 1028 -0.083333333333333343
1029 1029 0.33333333333333337
1031 1029 -0.083333333333333343
1122 1029 -0.083333333333333329
1030 1030 0.33333333333333337
1032 1030 -0.083333333333333343
1031 1031 0.33333333333333337
1032 1031 -0.083333333333333343
1032 1032 0.33333333333333337
1034 1032 -0.083333333333333343
1125 1032 -0.083333333333333329
1033 1033 0.33333333333333337
1035 1033 -0.083333333333333343
1034 1034 0.33333333333333337
1035 1034 -0.083333333333333343
1035 1035 0.33333333333333337
1037 1035 -0.083333333333333343
1128 1035 -0.083333333333333329
1036 1036 0.33333333333333337
1038 1036 -0.083333333333333343
1037 1037 0.33333333333333337
1038 1037 -0.083333333333333343
1038 1038 0.33333333333333337
1040 1038 -0.083333333333333343
1131 1038 -0.083333333333333329
1039 1039 0.33333333333333337
1041 1039 -0.083333333333333343
1040 1040 0.33333333333333337
1041 1040 -0.083333333333333343
1041 1041 0.33333333333333337
1043 1041 -0.083333333333333343
1134 1041 -0.083333333333333329
1042 1042 0.33333333333333337
1044 1042 -0.083333333333333343
1043 1043 0.33333333333333337
1044 1043 -0.083333333333333343
1044 1044 0.33333333333333337
1046 1044 -0.083333333333333343
1137 1044 -0.083333333333333329
1045 1045 0.33333333333333337
1047 1045 -0.083333333333333343
1046 1046 0.33333333333333337
1047 1046 -0.083333333333333343
1047 1047 0.33333333333333337
1049 1047 -0.083333333333333343
1140 1047 -0.083333333333333329
1048 1048 0.33333333333333337
1050 1048 -0.083333333333333343
1049 1049 0.33333333333333337
1050 1049 -0.083333333333333343
1050 1050 0.33333333333333337
1052 1050 -0.083333333333333343
1143 1050 -0.083333333333333329
1051 1051 0.33333333333333337
1053 1051 -0.083333333333333343
1052 1052 0.33333333333333337
1053 1052 -0.083333333333333343
1053 1053 0.33333333333333337
1055 1053 -0.083333333333333343
1146 1053 -0.083333333333333329
1054 1054 0.33333333333333337
1056 1054 -0.083333333333333343
1055 1055 0.33333333333333337
1056 1055 -0.083333333333333343
1056 1056 0.33333333333333337
1058 1056 -0.083333333333333343
1149 1056 -0.083333333333333329
1057 1057 0.33333333333333337
1059 1057 -0.083333333333333343
1058 1058 0.33333333333333337
1059 1058 -0.083333333333333343
1059 1059 0.33333333333333337
1061 1059 -0.083333333333333343
1152 1059 -0.083333333333333329
1060 1060 0.33333333333333337
1062 1060 -0.083333333333333343
1061 1061 0.33333333333333337
1062 1061 -0.083333333333333343
1062 1062 0.33333333333333337
1064 1062 -0.083333333333333343
1155 1062 -0.083333333333333329
1063 1063 0.33333333333333337
1065 1063 -0.083333333333333343
1064 1064 0.33333333333333337
1065 1064 -0.083333333333333343
1065 1065 0.33333333333333337
1067 1065 -0.083333333333333343
1158 1065 -0.083333333333333329
1066 1066 0.33333333333333337
1068 1066 -0.083333333333333343
1067 1067 0.33333333333333337
1068 1067 -0.083333333333333343
1068 1068 0.33333333333333337
1070 1068 -0.083333333333333343
1161 1068 -0.083333333333333329
1069 1069 0.33333333333333337
1071 1069 -0.083333333333333343
1070 1070 0.33333333333333337
1071 1070 -0.083333333333333343
1071 1071 0.33333333333333337
1073 1071 -0.083333333333333343
1164 1071 -0.083333333333333329
1072 1072 0.33333333333333337
1074 1072 -0.083333333333333343
1073 1073 0.33333333333333337
1074 1073 -0.083333333333333343
1074 1074 0.33333333333333337
1076 1074 -0.083333333333333343
1167 1074 -0.083333333333333329
1075 1075 0.33333333333333337
1077 1075 -0.083333333333333343
1076 1076 0.33333333333333337
1077 1076 -0.083333333333333343
1077 1077 0.33333333333333337
1079 1077 -0.083333333333333343
1170 1077 -0.083333333333333329
1078 1078 0.33333333333333337
1080 1078 -0.083333333333333343
1079 1079 0.33333333333333337
1080 1079 -0.083333333333333343
1080 1080 0.33333333333333337
1082 1080 -0.083333333333333343
1173 1080 -0.083333333333333329
1081 1081 0.33333333333333337
1083 1081 -0.083333333333333343
1082 1082 0.33333333333333337
1083 1082 -0.083333333333333343
1083 1083 0.33333333333333337
1085 1083 -0.083333333333333343
1176 1083 -0.083333333333333329
1084 1084 0.33333333333333337
1086 1084 -0.083333333333333343
1085 1085 0.33333333333333337
1086 1085 -0.083333333333333343
1086 1086 0.33333333333333337
1088 1086 -0.083333333333333343
1179 1086 -0.083333333333333329
1087 1087 0.33333333333333337
1089 1087 -0.083333333333333343
1088 1088 0.33333333333333337
1089 1088 -0.083333333333333343
1089 1089 0.33333333333333337
1091 1089 -0.083333333333333343
1182 1089 -0.083333333333333329
1090 1090 0.33333333333333337
1092 1090 -0.083333333333333343
1091 1091 0.33333333333333337
1092 1091 -0.083333333333333343
1092 1092 0.33333333333333337
1094 1092 -0.083333333333333343
1185 1092 -0.083333333333333329
1093 1093 0.33333333333333337
1095 1093 -0.083333333333333343
1094 1094 0.33333333333333337
1095 1094 -0.083333333333333343
1095 1095 0.33333333333333337
1097 1095 -0.083333333333333343
1188 1095 -0.083333333333333329
1096 1096 0.33333333333333337
1098 1096 -0.083333333333333343
1097 1097 0.33333333333333337
1098 1097 -0.083333333333333343
1098 1098 0.33333333333333337
1100 1098 -0.083333333333333343
1191 1098 -0.083333333333333329
1099 1099 0.33333333333333337
1101 1099 -0.083333333333333343
1100 1100 0.33333333333333337
1101 1100 -0.083333333333333343
1101 1101 0.33333333333333337
1103 1101 -0.083333333333333343
1194 1101 -0.083333333333333329
1102 1102 0.33333333333333337
1104 1102 -0.083333333333333343
1103 1103 0.33333333333333337
1104 1103 -0.083333333333333343
1104 1104 0.33333333333333337
1106 1104 -0.083333333333333343
1197 1104 -0.083333333333333329
1105 1105 0.33333333333333337
1107 1105 -0.083333333333333343
1106 1106 0.33333333333333337
1107 1106 -0.083333333333333343
1107 1107 0.33333333333333337
1109 1107 -0.083333333333333343
1200 1107 -0.083333333333333329
1108 1108 0.33333333333333337
1110 1108 -0.083333333333333343
1109 1109 0.33333333333333337
1110 1109 -0.083333333333333343
1110 1110 0.33333333333333337
1112 1110 -0.083333333333333343
1203 1110 -0.083333333333333329
1111 1111 0.33333333333333337
1113 1111 -0.083333333333333343
1112 1112 0.33333333333333337
1113 1112 -0.083333333333333343
1113 1113 0.33333333333333337
1115 1113 -0.083333333333333343
1206 1113 -0.083333333333333329
1114 1114 0.33333333333333337
1116 1114 -0.083333333333333343
1115 1115 0.33333333333333337
1116 1115 -0.083333333333333343
1116 1116 0.33333333333333337
1118 1116 -0.083333333333333343
1209 1116 -0.083333333333333329
1117 1117 0.33333333333333337
1119 1117 -0.083333333333333343
1118 1118 0.33333333333333337
1119 1118 -0.083333333333333343
1119 1119 0.33333333333333337
1212 1119 -0.083333333333333329
1120 1120 0.33333333333333337
1121 1120 -0.083333333333333343
1121 1121 0.33333333333333337
1123 1121 -0.083333333333333343
1215 1121 -0.083333333333333329
1122 1122 0.33333333333333337
1124 1122 -0.083333333333333343
1123 1123 0.33333333333333337
1124 1123 -0.083333333333333343
1124 1124 0.33333333333333337
1126 1124 -0.083333333333333343
1217 1124 -0.083333333333333329
1125 1125 0.33333333333333337
1127 1125 -0.083333333333333343
1126 1126 0.33333333333333337
1127 1126 -0.083333333333333343
1127 1127 0.33333333333333337
1129 1127 -0.083333333333333343
1220 1127 -0.083333333333333329
1128 1128 0.33333333333333337
1130 1128 -0.083333333333333343
1129 1129 0.33333333333333337
1130 1129 -0.083333333333333343
1130 1130 0.33333333333333337
1132 1130 -0.083333333333333343
1223 1130 -0.083333333333333329
1131 1131 0.33333333333333337
1133 1131 -0.083333333333333343
1132 1132 0.33333333333333337
1133 1132 -0.083333333333333343
1133 1133 0.33333333333333337
1135 1133 -0.083333333333333343
1226 1133 -0.083333333333333329
1134 1134 0.33333333333333337
1136 1134 -0.083333333333333343
1135 1135 0.33333333333333337
1136 1135 -0.083333333333333343
1136 1136 0.33333333333333337
1138 1136 -0.083333333333333343
1229 1136 -0.083333333333333329
1137 1137 0.33333333333333337
1139 1137 -0.083333333333333343
1138 1138 0.33333333333333337
1139 1138 -0.083333333333333343
1139 1139 0.33333333333333337
1141 1139 -0.083333333333333343
1232 1139 -0.083333333333333329
1140 1140 0.33333333333333337
1142 1140 -0.083333333333333343
1141 1141 0.33333333333333337
1142 1141 -0.083333333333333343
1142 1142 0.33333333333333337
1144 1142 -0.083333333333333343
1235 1142 -0.083333333333333329
1143 1143 0.33333333333333337
1145 1143 -0.083333333333333343
1144 1144 0.33333333333333337
1145 1144 -0.083333333333333343
1145 1145 0.33333333333333337
1147 1145 -0.083333333333333343
1238 1145 -0.083333333333333329
1146 1146 0.33333333333333337
1148 1146 -0.083333333333333343
1147 1147 0.33333333333333337
1148 1147 -0.083333333333333343
1148 1148 0.33333333333333337
1150 1148 -0.083333333333333343
1241 1148 -0.083333333333333329
1149 1149 0.33333333333333337
1151 1149 -0.083333333333333343
1150 1150 0.33333333333333337
1151 1150 -0.083333333333333343
1151 1151 0.33333333333333337
1153 1151 -0.083333333333333343
1244 1151 -0.083333333333333329
1152 1152 0.33333333333333337
1154 1152 -0.083333333333333343
1153 1153 0.33333333333333337
1154 1153 -0.083333333333333343
1154 1154 0.33333333333333337
1156 1154 -0.083333333333333343
1247 1154 -0.083333333333333329
1155 1155 0.33333333333333337
1157 1155 -0.083333333333333343
1156 1156 0.33333333333333337
1157 1156 -0.083333333333333343
1157 1157 0.33333333333333337
1159 1157 -0.083333333333333343
1250 1157 -0.083333333333333329
1158 1158 0.33333333333333337
1160 1158 -0.083333333333333343
1159 1159 0.33333333333333337
1160 1159 -0.083333333333333343
1160 1160 0.33333333333333337
1162 1160 -0.083333333333333343
1253 1160 -0.083333333333333329
1161 1161 0.33333333333333337
1163 1161 -0.083333333333333343
1162 1162 0.33333333333333337
1163 1162 -0.083333333333333343
1163 1163 0.33333333333333337
1165 1163 -0.083333333333333343
1256 1163 -0.083333333333333329
1164 1164 0.33333333333333337
1166 1164 -0.083333333333333343
1165 1165 0.33333333333333337
1166 1165 -0.083333333333333343
1166 1166 0.33333333333333337
1168 1166 -0.083333333333333343
1259 1166 -0.083333333333333329
1167 1167 0.33333333333333337
1169 1167 -0.083333333333333343
1168 1168 0.33333333333333337
1169 1168 -0.083333333333333343
1169 1169 0.33333333333333337
1171 1169 -0.083333333333333343
1262 1169 -0.083333333333333329
1170 1170 0.33333333333333337
1172 1170 -0.083333333333333343
1171 1171 0.33333333333333337
1172 1171 -0.083333333333333343
1172 1172 0.33333333333333337
1174 1172 -0.083333333333333343
1265 1172 -0.083333333333333329
1173 1173 0.33333333333333337
1175 1173 -0.083333333333333343
1174 1174 0.33333333333333337
1175 1174 -0.083333333333333343
1175 1175 0.33333333333333337
1177 1175 -0.083333333333333343
1268 1175 -0.083333333333333329
1176 1176 0.33333333333333337
1178 1176 -0.083333333333333343
1177 1177 0.33333333333333337
1178 1177 -0.083333333333333343
1178 1178 0.33333333333333337
1180 1178 -0.083333333333333343
1271 1178 -0.083333333333333329
1179 1179 0.33333333333333337
1181 1179 -0.083333333333333343
1180 1180 0.33333333333333337
1181 1180 -0.083333333333333343
1181 1181 0.33333333333333337
1183 1181 -0.083333333333333343
1274 1181 -0.083333333333333329
1182 1182 0.33333333333333337
1184 1182 -0.083333333333333343
1183 1183 0.33333333333333337
1184 1183 -0.083333333333333343
1184 1184 0.33333333333333337
1186 1184 -0.083333333333333343
1277 1184 -0.083333333333333329
1185 1185 0.33333333333333337
1187 1185 -0.083333333333333343
1186 1186 0.33333333333333337
1187 1186 -0.083333333333333343
1187 1187 0.33333333333333337
1189 1187 -0.083333333333333343
1280 1187 -0.083333333333333329
1188 1188 0.33333333333333337
1190 1188 -0.083333333333333343
1189 1189 0.33333333333333337
1190 1189 -0.083333333333333343
1190 1190 0.33333333333333337
1192 1190 -0.083333333333333343
1283 1190 -0.083333333333333329
1191 1191 0.33333333333333337
1193 1191 -0.083333333333333343
1192 1192 0.33333333333333337
1193 1192 -0.083333333333333343
1193 1193 0.33333333333333337
1195 1193 -0.083333333333333343
1286 1193 -0.083333333333333329
1194 1194 0.33333333333333337
1196 1194 -0.083333333333333343
1195 1195 0.33333333333333337
1196 1195 -0.083333333333333343
1196 1196 0.33333333333333337
1198 1196 -0.083333333333333343
1289 1196 -0.083333333333333329
1197 1197 0.33333333333333337
1199 1197 -0.083333333333333343
1198 1198 0.33333333333333337
1199 1198 -0.083333333333333343
1199 1199 0.33333333333333337
1201 1199 -0.083333333333333343
1292 1199 -0.083333333333333329
1200 1200 0.33333333333333337
1202 1200 -0.083333333333333343
1201 1201 0.33333333333333337
1202 1201 -0.083333333333333343
1202 1202 0.33333333333333337
1204 1202 -0.083333333333333343
1295 1202 -0.083333333333333329
1203 1203 0.33333333333333337
1205 1203 -0.083333333333333343
1204 1204 0.33333333333333337
1205 1204 -0.083333333333333343
1205 1205 0.33333333333333337
1207 1205 -0.083333333333333343
1298 1205 -0.083333333333333329
1206 1206 0.33333333333333337
1208 1206 -0.083333333333333343
1207 1207 0.33333333333333337
1208 1207 -0.083333333333333343
1208 1208 0.33333333333333337
1210 1208 -0.083333333333333343
1301 1208 -0.083333333333333329
1209 1209 0.33333333333333337
1211 1209 -0.083333333333333343
1210 1210 0.33333333333333337
1211 1210 -0.083333333333333343
1211 1211 0.33333333333333337
1213 1211 -0.083333333333333343
1304 1211 -0.083333333333333329
1212 1212 0.33333333333333337
1214 1212 -0.083333333333333343
1213 1213 0.33333333333333337
1214 1213 -0.083333333333333343
1214 1214 0.33333333333333337
1307 1214 -0.083333333333333329
1215 1215 0.33333333333333337
1216 1215 -0.083333333333333343
1216 1216 0.33333333333333337
1218 1216 -0.083333333333333343
1310 1216 -0.083333333333333329
1217 1217 0.33333333333333337
1219 1217 -0.083333333333333343
1218 1218 0.33333333333333337
1219 1218 -0.083333333333333343
1219 1219 0.33333333333333337
1221 1219 -0.083333333333333343
1312 1219 -0.083333333333333329
1220 1220 0.33333333333333337
1222 1220 -0.083333333333333343
1221 1221 0.33333333333333337
1222 1221 -0.083333333333333343
1222 1222 0.33333333333333337
1224 1222 -0.083333333333333343
1315 1222 -0.083333333333333329
1223 1223 0.33333333333333337
1225 1223 -0.083333333333333343
1224 1224 0.33333333333333337
1225 1224 -0.083333333333333343
1225 1225 0.33333333333333337
1227 1225 -0.083333333333333343
1318 1225 -0.083333333333333329
1226 1226 0.33333333333333337
1228 1226 -0.083333333333333343
1227 1227 0.33333333333333337
1228 1227 -0.083333333333333343
1228 1228 0.33333333333333337
1230 1228 -0.083333333333333343
1321 1228 -0.083333333333333329
1229 1229 0.33333333333333337
1231 1229 -0.083333333333333343
1230 1230 0.33333333333333337
1231 1230 -0.083333333333333343
1231 1231 0.33333333333333337
1233 1231 -0.083333333333333343
1324 1231 -0.083333333333333329
1232 1232 0.33333333333333337
1234 1232 -0.083333333333333343
1233 1233 0.33333333333333337
1234 1233 -0.083333333333333343
1234 1234 0.33333333333333337
1236 1234 -0.083333333333333343
1327 1234 -0.083333333333333329
1235 1235 0.33333333333333337
1237 1235 -0.083333333333333343
1236 1236 0.33333333333333337
1237 1236 -0.083333333333333343
1237 1237 0.33333333333333337
1239 1237 -0.083333333333333343
1330 1237 -0.083333333333333329
1238 1238 0.33333333333333337
1240 1238 -0.083333333333333343
1239 1239 0.33333333333333337
1240 1239 -0.083333333333333343
1240 1240 0.33333333333333337
1242 1240 -0.083333333333333343
1333 1240 -0.083333333333333329
1241 1241 0.33333333333333337
1243 1241 -0.083333333333333343
1242 1242 0.33333333333333337
1243 1242 -0.083333333333333343
1243 1243 0.33333333333333337
1245 1243 -0.083333333333333343
1336 1243 -0.083333333333333329
1244 1244 0.33333333333333337
1246 1244 -0.083333333333333343
1245 1245 0.33333333333333337
1246 1245 -0.083333333333333343
1246 1246 0.33333333333333337
1248 1246 -0.083333333333333343
1339 1246 -0.083333333333333329
1247 1247 0.33333333333333337
1249 1247 -0.083333333333333343
1248 1248 0.33333333333333337
1249 1248 -0.083333333333333343
1249 1249 0.33333333333333337
1251 1249 -0.083333333333333343
1342 1249 -0.083333333333333329
1250 1250 0.33333333333333337
1252 1250 -0.083333333333333343
1251 1251 0.33333333333333337
1252 1251 -0.083333333333333343
1252 1252 0.33333333333333337
1254 1252 -0.083333333333333343
1345 1252 -0.083333333333333329
1253 1253 0.33333333333333337
1255 1253 -0.083333333333333343
1254 1254 0.33333333333333337
1255 1254 -0.083333333333333343
1255 1255 0.33333333333333337
1257 1255 -0.083333333333333343
1348 1255 -0.083333333333333329
1256 1256 0.33333333333333337
1258 1256 -0.083333333333333343
1257 1257 0.33333333333333337
1258 1257 -0.083333333333333343
1258 1258 0.33333333333333337
1260 1258 -0.083333333333333343
1351 1258 -0.083333333333333329
1259 1259 0.33333333333333337
1261 1259 -0.083333333333333343
1260 1260 0.33333333333333337
1261 1260 -0.083333333333333343
1261 1261 0.33333333333333337
1263 1261 -0.083333333333333343
1354 1261 -0.083333333333333329
1262 1262 0.33333333333333337
1264 1262 -0.083333333333333343
1263 1263 0.33333333333333337
1264 1263 -0.083333333333333343
1264 1264 0.33333333333333337
1266 1264 -0.083333333333333343
1357 1264 -0.083333333333333329
1265 1265 0.33333333333333337
1267 1265 -0.083333333333333343
1266 1266 0.33333333333333337
1267 1266 -0.083333333333333343
1267 1267 0.33333333333333337
1269 1267 -0.083333333333333343
1360 1267 -0.083333333333333329
1268 1268 0.33333333333333337
1270 1268 -0.083333333333333343
1269 1269 0.33333333333333337
1270 1269 -0.083333333333333343
1270 1270 0.33333333333333337
1272 1270 -0.083333333333333343
1363 1270 -0.083333333333333329
1271 1271 0.33333333333333337
1273 1271 -0.083333333333333343
1272 1272 0.33333333333333337
1273 1272 -0.083333333333333343
1273 1273 0.33333333333333337
1275 1273 -0.083333333333333343
1366 1273 -0.083333333333333329
1274 1274 0.33333333333333337
1276 1274 -0.083333333333333343
1275 1275 0.33333333333333337
1276 1275 -0.083333333333333343
1276 1276 0.33333333333333337
1278 1276 -0.083333333333333343
1369 1276 -0.083333333333333329
1277 1277 0.33333333333333337
1279 1277 -0.083333333333333343
1278 1278 0.33333333333333337
1279 1278 -0.083333333333333343
1279 1279 0.33333333333333337
1281 1279 -0.083333333333333343
1372 1279 -0.083333333333333329
1280 1280 0.33333333333333337
1282 1280 -0.083333333333333343
1281 1281 0.33333333333333337
1282 1281 -0.083333333333333343
1282 1282 0.33333333333333337
1284 1282 -0.083333333333333343
1375 1282 -0.083333333333333329
1283 1283 0.33333333333333337
1285 1283 -0.083333333333333343
1284 1284 0.33333333333333337
1285 1284 -0.083333333333333343
1285 1285 0.33333333333333337
1287 1285 -0.083333333333333343
1378 1285 -0.083333333333333329
1286 1286 0.33333333333333337
1288 1286 -0.083333333333333343
1287 1287 0.33333333333333337
1288 1287 -0.083333333333333343
1288 1288 0.33333333333333337
1290 1288 -0.083333333333333343
1381 1288 -0.083333333333333329
1289 1289 0.33333333333333337
1291 1289 -0.083333333333333343
1290 1290 0.33333333333333337
1291 1290 -0.083333333333333343
1291 1291 0.33333333333333337
1293 1291 -0.083333333333333343
1384 1291 -0.083333333333333329
1292 1292 0.33333333333333337
1294 1292 -0.083333333333333343
1293 1293 0.33333333333333337
1294 1293 -0.083333333333333343
1294 1294 0.33333333333333337
1296 1294 -0.083333333333333343
1387 1294 -0.083333333333333329
1295 1295 0.33333333333333337
1297 1295 -0.083333333333333343
1296 1296 0.33333333333333337
1297 1296 -0.083333333333333343
1297 1297 0.33333333333333337
1299 1297 -0.083333333333333343
1390 1297 -0.083333333333333329
1298 1298 0.33333333333333337
1300 1298 -0.083333333333333343
1299 1299 0.33333333333333337
1300 1299 -0.083333333333333343
1300 1300 0.33333333333333337
1302 1300 -0.083333333333333343
1393 1300 -0.083333333333333329
1301 1301 0.33333333333333337
1303 1301 -0.083333333333333343
1302 1302 0.33333333333333337
1303 1302 -0.083333333333333343
1303 1303 0.33333333333333337
1305 1303 -0.083333333333333343
1396 1303 -0.083333333333333329
1304 1304 0.33333333333333337
1306 1304 -0.083333333333333343
1305 1305 0.33333333333333337
1306 1305 -0.083333333333333343
1306 1306 0.33333333333333337
1308 1306 -0.083333333333333343
1399 1306 -0.083333333333333329
1307 1307 0.33333333333333337
1309 1307 -0.083333333333333343
1308 1308 0.33333333333333337
1309 1308 -0.083333333333333343
1309 1309 0.33333333333333337
1402 1309 -0.083333333333333329
1310 1310 0.33333333333333337
1311 1310 -0.083333333333333343
1311 1311 0.33333333333333337
1313 1311 -0.083333333333333343
1405 1311 -0.083333333333333329
1312 1312 0.33333333333333337
1314 1312 -0.083333333333333343
1313 1313 0.33333333333333337
1314 1313 -0.083333333333333343
1314 1314 0.33333333333333337
1316 1314 -0.083333333333333343
1407 1314 -0.083333333333333329
1315 1315 0.33333333333333337
1317 1315 -0.083333333333333343
1316 1316 0.33333333333333337
1317 1316 -0.083333333333333343
1317 1317 0.33333333333333337
1319 1317 -0.083333333333333343
1410 1317 -0.083333333333333329
1318 1318 0.33333333333333337
1320 1318 -0.083333333333333343
1319 1319 0.33333333333333337
1320 1319 -0.083333333333333343
1320 1320 0.33333333333333337
1322 1320 -0.083333333333333343
1413 1320 -0.083333333333333329
1321 1321 0.33333333333333337
1323 1321 -0.083333333333333343
1322 1322 0.33333333333333337
1323 1322 -0.083333333333333343
1323 1323 0.33333333333333337
1325 1323 -0.083333333333333343
1416 1323 -0.083333333333333329
1324 1324 0.33333333333333337
1326 1324 -0.083333333333333343
1325 1325 0.33333333333333337
1326 1325 -0.083333333333333343
1326 1326 0.33333333333333337
1328 1326 -0.083333333333333343
1419 1326 -0.083333333333333329
1327 1327 0.33333333333333337
1329 1327 -0.083333333333333343
1328 1328 0.33333333333333337
1329 1328 -0.083333333333333343
1329 1329 0.33333333333333337
1331 1329 -0.083333333333333343
1422 1329 -0.083333333333333329
1330 1330 0.33333333333333337
1332 1330 -0.083333333333333343
1331 1331 0.33333333333333337
1332 1331 -0.083333333333333343
1332 1332 0.33333333333333337
1334 1332 -0.083333333333333343
1425 1332 -0.083333333333333329
1333 1333 0.33333333333333337
1335 1333 -0.083333333333333343
1334 1334 0.33333333333333337
1335 1334 -0.083333333333333343
1335 1335 0.33333333333333337
1337 1335 -0.083333333333333343
1428 1335 -0.083333333333333329
1336 1336 0.33333333333333337
1338 1336 -0.083333333333333343
1337 1337 0.33333333333333337
1338 1337 -0.083333333333333343
1338 1338 0.33333333333333337
1340 1338 -0.083333333333333343
1431 1338 -0.083333333333333329
1339 1339 0.33333333333333337
1341 1339 -0.083333333333333343
1340 1340 0.33333333333333337
1341 1340 -0.083333333333333343
1341 1341 0.33333333333333337
1343 1341 -0.083333333333333343
1434 1341 -0.083333333333333329
1342 1342 0.33333333333333337
1344 1342 -0.083333333333333343
1343 1343 0.33333333333333337
1344 1343 -0.083333333333333343
1344 1344 0.33333333333333337
1346 1344 -0.083333333333333343
1437 1344 -0.083333333333333329
1345 1345 0.33333333333333337
1347 1345 -0.083333333333333343
1346 1346 0.33333333333333337
1347 1346 -0.083333333333333343
1347 1347 0.33333333333333337
1349 1347 -0.083333333333333343
1440 1347 -0.083333333333333329
1348 1348 0.33333333333333337
1350 1348 -0.083333333333333343
1349 1349 0.33333333333333337
1350 1349 -0.083333333333333343
1350 1350 0.33333333333333337
1352 1350 -0.083333333333333343
1443 1350 -0.083333333333333329
1351 1351 0.33333333333333337
1353 1351 -0.083333333333333343
1352 1352 0.33333333333333337
1353 1352 -0.083333333333333343
1353 1353 0.33333333333333337
1355 1353 -0.083333333333333343
1446 1353 -0.083333333333333329
1354 1354 0.33333333333333337
1356 1354 -0.083333333333333343
1355 1355 0.33333333333333337
1356 1355 -0.083333333333333343
1356 1356 0.33333333333333337
1358 1356 -0.083333333333333343
1449 1356 -0.083333333333333329
1357 1357 0.33333333333333337
1359 1357 -0.083333333333333343
1358 1358 0.33333333333333337
1359 1358 -0.083333333333333343
1359 1359 0.33333333333333337
1361 1359 -0.083333333333333343
1452 1359 -0.083333333333333329
1360 1360 0.33333333333333337
1362 1360 -0.083333333333333343
1361 1361 0.33333333333333337
1362 1361 -0.083333333333333343
1362 1362 0.33333333333333337
1364 1362 -0.083333333333333343
1455 1362 -0.083333333333333329
1363 1363 0.33333333333333337
1365 1363 -0.083333333333333343
1364 1364 0.33333333333333337
1365 1364 -0.083333333333333343
1365 1365 0.33333333333333337
1367 1365 -0.083333333333333343
1458 1365 -0.083333333333333329
1366 1366 0.33333333333333337
1368 1366 -0.083333333333333343
1367 1367 0.33333333333333337
1368 1367 -0.083333333333333343
1368 1368 0.33333333333333337
1370 1368 -0.083333333333333343
1461 1368 -0.083333333333333329
1369 1369 0.33333333333333337
1371 1369 -0.083333333333333343
1370 1370 0.33333333333333337
1371 1370 -0.083333333333333343
1371 1371 0.33333333333333337
1373 1371 -0.083333333333333343
1464 1371 -0.083333333333333329
1372 1372 0.33333333333333337
1374 1372 -0.083333333333333343
1373 1373 0.33333333333333337
1374 1373 -0.083333333333333343
1374 1374 0.33333333333333337
1376 1374 -0.083333333333333343
1467 1374 -0.083333333333333329
1375 1375 0.33333333333333337
1377 1375 -0.083333333333333343
1376 1376 0.33333333333333337
1377 1376 -0.083333333333333343
1377 1377 0.33333333333333337
1379 1377 -0.083333333333333343
1470 1377 -0.083333333333333329
1378 1378 0.33333333333333337
1380 1378 -0.083333333333333343
1379 1379 0.33333333333333337
1380 1379 -0.083333333333333343
1380 1380 0.33333333333333337
1382 1380 -0.083333333333333343
1473 1380 -0.083333333333333329
1381 1381 0.33333333333333337
1383 1381 -0.083333333333333343
1382 1382 0.33333333333333337
1383 1382 -0.083333333333333343
1383 1383 0.33333333333333337
1385 1383 -0.083333333333333343
1476 1383 -0.083333333333333329
1384 1384 0.33333333333333337
1386 1384 -0.083333333333333343
1385 1385 0.33333333333333337
1386 1385 -0.083333333333333343
1386 1386 0.33333333333333337
1388 1386 -0.083333333333333343
1479 1386 -0.083333333333333329
1387 1387 0.33333333333333337
1389 1387 -0.083333333333333343
1388 1388 0.33333333333333337
1389 1388 -0.083333333333333343
1389 1389 0.33333333333333337
1391 1389 -0.083333333333333343
1482 1389 -0.083333333333333329
1390 1390 0.33333333333333337
1392 1390 -0.083333333333333343
1391 1391 0.33333333333333337
1392 1391 -0.083333333333333343
1392 1392 0.33333333333333337
1394 1392 -0.083333333333333343
1485 1392 -0.083333333333333329
1393 1393 0.33333333333333337
1395 1393 -0.083333333333333343
1394 1394 0.33333333333333337
1395 1394 -0.083333333333333343
1395 1395 0.33333333333333337
1397 1395 -0.083333333333333343
1488 1395 -0.083333333333333329
1396 1396 0.33333333333333337
1398 1396 -0.083333333333333343
1397 1397 0.33333333333333337
1398 1397 -0.083333333333333343
1398 1398 0.33333333333333337
1400 1398 -0.083333333333333343
1491 1398 -0.083333333333333329
1399 1399 0.33333333333333337
1401 1399 -0.083333333333333343
1400 1400 0.33333333333333337
1401 1400 -0.083333333333333343
1401 1401 0.33333333333333337
1403 1401 -0.083333333333333343
1494 1401 -0.083333333333333329
1402 1402 0.33333333333333337
1404 1402 -0.083333333333333343
1403 1403 0.33333333333333337
1404 1403 -0.083333333333333343
1404 1404 0.33333333333333337
1497 1404 -0.083333333333333329
1405 1405 0.33333333333333337
1406 1405 -0.083333333333333343
1406 1406 0.33333333333333337
1408 1406 -0.083333333333333343
1500 1406 -0.083333333333333329
1407 1407 0.33333333333333337
1409 1407 -0.083333333333333343
1408 1408 0.33333333333333337
1409 1408 -0.083333333333333343
1409 1409 0.33333333333333337
1411 1409 -0.083333333333333343
1502 1409 -0.083333333333333329
1410 1410 0.33333333333333337
1412 1410 -0.083333333333333343
1411 1411 0.33333333333333337
1412 1411 -0.083333333333333343
1412 1412 0.33333333333333337
1414 1412 -0.083333333333333343
1505 1412 -0.083333333333333329
1413 1413 0.33333333333333337
1415 1413 -0.083333333333333343
1414 1414 0.33333333333333337
1415 1414 -0.083333333333333343
1415 1415 0.33333333333333337
1417 1415 -0.083333333333333343
1508 1415 -0.083333333333333329
1416 1416 0.33333333333333337
1418 1416 -0.083333333333333343
1417 1417 0.33333333333333337
1418 1417 -0.083333333333333343
1418 1418 0.33333333333333337
1420 1418 -0.083333333333333343
1511 1418 -0.083333333333333329
1419 1419 0.33333333333333337
1421 1419 -0.083333333333333343
1420 1420 0.33333333333333337
1421 1420 -0.083333333333333343
1421 1421 0.33333333333333337
1423 1421 -0.083333333333333343
1514 1421 -0.083333333333333329
1422 1422 0.33333333333333337
1424 1422 -0.083333333333333343
1423 1423 0.33333333333333337
1424 1423 -0.083333333333333343
1424 1424 0.33333333333333337
1426 1424 -0.083333333333333343
1517 1424 -0.083333333333333329
1425 1425 0.33333333333333337
1427 1425 -0.083333333333333343
1426 1426 0.33333333333333337
1427 1426 -0.083333333333333343
1427 1427 0.33333333333333337
1429 1427 -0.083333333333333343
1520 1427 -0.083333333333333329
1428 1428 0.33333333333333337
1430 1428 -0.083333333333333343
1429 1429 0.33333333333333337
1430 1429 -0.083333333333333343
1430 1430 0.33333333333333337
1432 1430 -0.083333333333333343
1523 1430 -0.083333333333333329
1431 1431 0.33333333333333337
1433 1431 -0.083333333333333343
1432 1432 0.33333333333333337
1433 1432 -0.083333333333333343
1433 1433 0.33333333333333337
1435 1433 -0.083333333333333343
1526 1433 -0.083333333333333329
1434 1434 0.33333333333333337
1436 1434 -0.083333333333333343
1435 1435 0.33333333333333337
1436 1435 -0.083333333333333343
1436 1436 0.33333333333333337
1438 1436 -0.083333333333333343
1529 1436 -0.083333333333333329
1437 1437 0.33333333333333337
1439 1437 -0.083333333333333343
1438 1438 0.33333333333333337
1439 1438 -0.083333333333333343
1439 1439 0.33333333333333337
1441 1439 -0.083333333333333343
1532 1439 -0.083333333333333329
1440 1440 0.33333333333333337
1442 1440 -0.083333333333333343
1441 1441 0.33333333333333337
1442 1441 -0.083333333333333343
1442 1442 0.33333333333333337
1444 1442 -0.083333333333333343
1535 1442 -0.083333333333333329
1443 1443 0.33333333333333337
1445 1443 -0.083333333333333343
1444 1444 0.33333333333333337
1445 1444 -0.083333333333333343
1445 1445 0.33333333333333337
1447 1445 -0.083333333333333343
1538 1445 -0.083333333333333329
1446 1446 0.33333333333333337
1448 1446 -0.083333333333333343
1447 1447 0.33333333333333337
1448 1447 -0.083333333333333343
1448 1448 0.33333333333333337
1450 1448 -0.083333333333333343
1541 1448 -0.083333333333333329
1449 1449 0.33333333333333337
1451 1449 -0.083333333333333343
1450 1450 0.33333333333333337
1451 1450 -0.083333333333333343
1451 1451 0.33333333333333337
1453 1451 -0.083333333333333343
1544 1451 -0.083333333333333329
1452 1452 0.33333333333333337
1454 1452 -0.083333333333333343
1453 1453 0.33333333333333337
1454 1453 -0.083333333333333343
1454 1454 0.33333333333333337
1456 1454 -0.083333333333333343
1547 1454 -0.083333333333333329
1455 1455 0.33333333333333337
1457 1455 -0.083333333333333343
1456 1456 0.33333333333333337
1457 1456 -0.083333333333333343
1457 1457 0.33333333333333337
1459 1457 -0.083333333333333343
1550 1457 -0.083333333333333329
1458 1458 0.33333333333333337
1460 1458 -0.083333333333333343
1459 1459 0.33333333333333337
1460 1459 -0.083333333333333343
1460 1460 0.33333333333333337
1462 1460 -0.083333333333333343
1553 1460 -0.083333333333333329
1461 1461 0.33333333333333337
1463 1461 -0.083333333333333343
1462 1462 0.33333333333333337
1463 1462 -0.083333333333333343
1463 1463 0.33333333333333337
1465 1463 -0.083333333333333343
1556 1463 -0.083333333333333329
1464 1464 0.33333333333333337
1466 1464 -0.083333333333333343
1465 1465 0.33333333333333337
1466 1465 -0.083333333333333343
1466 1466 0.33333333333333337
1468 1466 -0.083333333333333343
1559 1466 -0.083333333333333329
1467 1467 0.33333333333333337
1469 1467 -0.083333333333333343
1468 1468 0.33333333333333337
1469 1468 -0.083333333333333343
1469 1469 0.33333333333333337
1471 1469 -0.083333333333333343
1562 1469 -0.083333333333333329
1470 1470 0.33333333333333337
1472 1470 -0.083333333333333343
1471 1471 0.33333333333333337
1472 1471 -0.083333333333333343
1472 1472 0.33333333333333337
1474 1472 -0.083333333333333343
1565 1472 -0.083333333333333329
1473 1473 0.33333333333333337
1475 1473 -0.083333333333333343
1474 1474 0.33333333333333337
1475 1474 -0.083333333333333343
1475 1475 0.33333333333333337
1477 1475 -0.083333333333333343
1568 1475 -0.083333333333333329
1476 1476 0.33333333333333337
1478 1476 -0.083333333333333343
1477 1477 0.33333333333333337
1478 1477 -0.083333333333333343
1478 1478 0.33333333333333337
1480 1478 -0.083333333333333343
1571 1478 -0.083333333333333329
1479 1479 0.33333333333333337
1481 1479 -0.083333333333333343
1480 1480 0.33333333333333337
1481 1480 -0.083333333333333343
1481 1481 0.33333333333333337
1483 1481 -0.083333333333333343
1574 1481 -0.083333333333333329
1482 1482 0.33333333333333337
1484 1482 -0.083333333333333343
1483 1483 0.33333333333333337
1484 1483 -0.083333333333333343
1484 1484 0.33333333333333337
1486 1484 -0.083333333333333343
1577 1484 -0.083333333333333329
1485 1485 0.33333333333333337
1487 1485 -0.083333333333333343
1486 1486 0.33333333333333337
1487 1486 -0.083333333333333343
1487 1487 0.33333333333333337
1489 1487 -0.083333333333333343
1580 1487 -0.083333333333333329
1488 1488 0.33333333333333337
1490 1488 -0.083333333333333343
1489 1489 0.33333333333333337
1490 1489 -0.083333333333333343
1490 1490 0.33333333333333337
1492 1490 -0.083333333333333343
1583 1490 -0.083333333333333329
1491 1491 0.33333333333333337
1493 1491 -0.083333333333333343
1492 1492 0.33333333333333337
1493 1492 -0.083333333333333343
1493 1493 0.33333333333333337
1495 1493 -0.083333333333333343
1586 1493 -0.083333333333333329
1494 1494 0.33333333333333337
1496 1494 -0.083333333333333343
1495 1495 0.33333333333333337
1496 1495 -0.083333333333333343
1496 1496 0.33333333333333337
1498 1496 -0.083333333333333343
1589 1496 -0.083333333333333329
1497 1497 0.33333333333333337
1499 1497 -0.083333333333333343
1498 1498 0.33333333333333337
1499 1498 -0.083333333333333343
1499 1499 0.33333333333333337
1592 1499 -0.083333333333333329
1500 1500 0.33333333333333337
1501 1500 -0.083333333333333343
1501 1501 0.33333333333333337
1503 1501 -0.083333333333333343
1595 1501 -0.083333333333333329
1502 1502 0.33333333333333337
1504 1502 -0.083333333333333343
1503 1503 0.33333333333333337
1504 1503 -0.083333333333333343
1504 1504 0.33333333333333337
1506 1504 -0.083333333333333343
1597 1504 -0.083333333333333329
1505 1505 0.33333333333333337
1507 1505 -0.083333333333333343
1506 1506 0.33333333333333337
1507 1506 -0.083333333333333343
1507 1507 0.33333333333333337
1509 1507 -0.083333333333333343
1600 1507 -0.083333333333333329
1508 1508 0.33333333333333337
1510 1508 -0.083333333333333343
1509 1509 0.33333333333333337
1510 1509 -0.083333333333333343
1510 1510 0.33333333333333337
1512 1510 -0.083333333333333343
1603 1510 -0.083333333333333329
1511 1511 0.33333333333333337
1513 1511 -0.083333333333333343
1512 1512 0.33333333333333337
1513 1512 -0.083333333333333343
1513 1513 0.33333333333333337
1515 1513 -0.083333333333333343
1606 1513 -0.083333333333333329
1514 1514 0.33333333333333337
1516 1514 -0.083333333333333343
1515 1515 0.33333333333333337
1516 1515 -0.083333333333333343
1516 1516 0.33333333333333337
1518 1516 -0.083333333333333343
1609 1516 -0.083333333333333329
1517 1517 0.33333333333333337
1519 1517 -0.083333333333333343
1518 1518 0.33333333333333337
1519 1518 -0.083333333333333343
1519 1519 0.33333333333333337
1521 1519 -0.083333333333333343
1612 1519 -0.083333333333333329
1520 1520 0.33333333333333337
1522 1520 -0.083333333333333343
1521 1521 0.33333333333333337
1522 1521 -0.083333333333333343
1522 1522 0.33333333333333337
1524 1522 -0.083333333333333343
1615 1522 -0.083333333333333329
1523 1523 0.33333333333333337
1525 1523 -0.083333333333333343
1524 1524 0.33333333333333337
1525 1524 -0.083333333333333343
1525 1525 0.33333333333333337
1527 1525 -0.083333333333333343
1618 1525 -0.083333333333333329
1526 1526 0.33333333333333337
1528 1526 -0.083333333333333343
1527 1527 0.33333333333333337
1528 1527 -0.083333333333333343
1528 1528 0.33333333333333337
1530 1528 -0.083333333333333343
1621 1528 -0.083333333333333329
1529 1529 0.33333333333333337
1531 1529 -0.083333333333333343
1530 1530 0.33333333333333337
1531 1530 -0.083333333333333343
1531 1531 0.33333333333333337
1533 1531 -0.083333333333333343
1624 1531 -0.083333333333333329
1532 1532 0.33333333333333337
1534 1532 -0.083333333333333343
1533 1533 0.33333333333333337
1534 1533 -0.083333333333333343
1534 1534 0.33333333333333337
1536 1534 -0.083333333333333343
1627 1534 -0.083333333333333329
1535 1535 0.33333333333333337
1537 1535 -0.083333333333333343
1536 1536 0.33333333333333337
1537 1536 -0.083333333333333343
1537 1537 0.33333333333333337
1539 1537 -0.083333333333333343
1630 1537 -0.083333333333333329
1538 1538 0.33333333333333337
1540 1538 -0.083333333333333343
1539 1539 0.33333333333333337
1540 1539 -0.083333333333333343
1540 1540 0.33333333333333337
1542 1540 -0.083333333333333343
1633 1540 -0.083333333333333329
1541 1541 0.33333333333333337
1543 1541 -0.083333333333333343
1542 1542 0.33333333333333337
1543 1542 -0.083333333333333343
1543 1543 0.33333333333333337
1545 1543 -0.083333333333333343
1636 1543 -0.083333333333333329
1544 1544 0.33333333333333337
1546 1544 -0.083333333333333343
1545 1545 0.33333333333333337
1546 1545 -0.083333333333333343
1546 1546 0.33333333333333337
1548 1546 -0.083333333333333343
1639 1546 -0.083333333333333329
1547 1547 0.33333333333333337
1549 1547 -0.083333333333333343
1548 1548 0.33333333333333337
1549 1548 -0.083333333333333343
1549 1549 0.33333333333333337
1551 1549 -0.083333333333333343
1642 1549 -0.083333333333333329
1550 1550 0.33333333333333337
1552 1550 -0.083333333333333343
1551 1551 0.33333333333333337
1552 1551 -0.083333333333333343
1552 1552 0.33333333333333337
1554 1552 -0.083333333333333343
1645 1552 -0.083333333333333329
1553 1553 0.33333333333333337
1555 1553 -0.083333333333333343
1554 1554 0.33333333333333337
1555 1554 -0.083333333333333343
1555 1555 0.33333333333333337
1557 1555 -0.083333333333333343
1648 1555 -0.083333333333333329
1556 1556 0.33333333333333337
1558 1556 -0.083333333333333343
1557 1557 0.33333333333333337
1558 1557 -0.083333333333333343
1558 1558 0.33333333333333337
1560 1558 -0.083333333333333343
1651 1558 -0.083333333333333329
1559 1559 0.33333333333333337
1561 1559 -0.083333333333333343
1560 1560 0.33333333333333337
1561 1560 -0.083333333333333343
1561 1561 0.33333333333333337
1563 1561 -0.083333333333333343
1654 1561 -0.083333333333333329
1562 1562 0.33333333333333337
1564 1562 -0.083333333333333343
1563 1563 0.33333333333333337
1564 1563 -0.083333333333333343
1564 1564 0.33333333333333337
1566 1564 -0.083333333333333343
1657 1564 -0.083333333333333329
1565 1565 0.33333333333333337
1567 1565 -0.083333333333333343
1566 1566 0.33333333333333337
1567 1566 -0.083333333333333343
1567 1567 0.33333333333333337
1569 1567 -0.083333333333333343
1660 1567 -0.083333333333333329
1568 1568 0.33333333333333337
1570 1568 -0.083333333333333343
1569 1569 0.33333333333333337
1570 1569 -0.083333333333333343
1570 1570 0.33333333333333337
1572 1570 -0.083333333333333343
1663 1570 -0.083333333333333329
1571 1571 0.33333333333333337
1573 1571 -0.083333333333333343
1572 1572 0.33333333333333337
1573 1572 -0.083333333333333343
1573 1573 0.33333333333333337
1575 1573 -0.083333333333333343
1666 1573 -0.083333333333333329
1574 1574 0.33333333333333337
1576 1574 -0.083333333333333343
1575 1575 0.33333333333333337
1576 1575 -0.083333333333333343
1576 1576 0.33333333333333337
1578 1576 -0.083333333333333343
1669 1576 -0.083333333333333329
1577 1577 0.33333333333333337
1579 1577 -0.083333333333333343
1578 1578 0.33333333333333337
1579 1578 -0.083333333333333343
1579 1579 0.33333333333333337
1581 1579 -0.083333333333333343
1672 1579 -0.083333333333333329
1580 1580 0.33333333333333337
1582 1580 -0.083333333333333343
1581 1581 0.33333333333333337
1582 1581 -0.083333333333333343
1582 1582 0.33333333333333337
1584 1582 -0.083333333333333343
1675 1582 -0.083333333333333329
1583 1583 0.33333333333333337
1585 1583 -0.083333333333333343
1584 1584 0.33333333333333337
1585 1584 -0.083333333333333343
1585 1585 0.33333333333333337
1587 1585 -0.083333333333333343
1678 1585 -0.083333333333333329
1586 1586 0.33333333333333337
1588 1586 -0.083333333333333343
1587 1587 0.33333333333333337
1588 1587 -0.083333333333333343
1588 1588 0.33333333333333337
1590 1588 -0.083333333333333343
1681 1588 -0.083333333333333329
1589 1589 0.33333333333333337
1591 1589 -0.083333333333333343
1590 1590 0.33333333333333337
1591 1590 -0.083333333333333343
1591 1591 0.33333333333333337
1593 1591 -0.083333333333333343
1684 1591 -0.083333333333333329
1592 1592 0.33333333333333337
1594 1592 -0.083333333333333343
1593 1593 0.33333333333333337
1594 1593 -0.083333333333333343
1594 1594 0.33333333333333337
1687 1594 -0.083333333333333329
1595 1595 0.33333333333333337
1596 1595 -0.083333333333333343
1596 1596 0.33333333333333337
1598 1596 -0.083333333333333343
1690 1596 -0.083333333333333329
1597 1597 0.33333333333333337
1599 1597 -0.083333333333333343
1598 1598 0.33333333333333337
1599 1598 -0.083333333333333343
1599 1599 0.33333333333333337
1601 1599 -0.083333333333333343
1692 1599 -0.083333333333333329
1600 1600 0.33333333333333337
1602 1600 -0.083333333333333343
1601 1601 0.33333333333333337
1602 1601 -0.083333333333333343
1602 1602 0.33333333333333337
1604 1602 -0.083333333333333343
1695 1602 -0.083333333333333329
1603 1603 0.33333333333333337
1605 1603 -0.083333333333333343
1604 1604 0.33333333333333337
1605 1604 -0.083333333333333343
1605 1605 0.33333333333333337
1607 1605 -0.083333333333333343
1698 1605 -0.083333333333333329
1606 1606 0.33333333333333337
1608 1606 -0.083333333333333343
1607 1607 0.33333333333333337
1608 1607 -0.083333333333333343
1608 1608 0.33333333333333337
1610 1608 -0.083333333333333343
1701 1608 -0.083333333333333329
1609 1609 0.33333333333333337
1611 1609 -0.083333333333333343
1610 1610 0.33333333333333337
1611 1610 -0.083333333333333343
1611 1611 0.33333333333333337
1613 1611 -0.083333333333333343
1704 1611 -0.083333333333333329
1612 1612 0.33333333333333337
1614 1612 -0.083333333333333343
1613 1613 0.33333333333333337
1614 1613 -0.083333333333333343
1614 1614 0.33333333333333337
1616 1614 -0.083333333333333343
1707 1614 -0.083333333333333329
1615 1615 0.33333333333333337
1617 1615 -0.083333333333333343
1616 1616 0.33333333333333337
1617 1616 -0.083333333333333343
1617 1617 0.33333333333333337
1619 1617 -0.083333333333333343
1710 1617 -0.083333333333333329
1618 1618 0.33333333333333337
1620 1618 -0.083333333333333343
1619 1619 0.33333333333333337
1620 1619 -0.083333333333333343
1620 1620 0.33333333333333337
1622 1620 -0.083333333333333343
1713 1620 -0.083333333333333329
1621 1621 0.33333333333333337
1623 1621 -0.083333333333333343
1622 1622 0.33333333333333337
1623 1622 -0.083333333333333343
1623 1623 0.33333333333333337
1625 1623 -0.083333333333333343
1716 1623 -0.083333333333333329
1624 1624 0.33333333333333337
1626 1624 -0.083333333333333343
1625 1625 0.33333333333333337
1626 1625 -0.083333333333333343
1626 1626 0.33333333333333337
1628 1626 -0.083333333333333343
1719 1626 -0.083333333333333329
1627 1627 0.33333333333333337
1629 1627 -0.083333333333333343
1628 1628 0.33333333333333337
1629 1628 -0.083333333333333343
1629 1629 0.33333333333333337
1631 1629 -0.083333333333333343
1722 1629 -0.083333333333333329
1630 1630 0.33333333333333337
1632 1630 -0.083333333333333343
1631 1631 0.33333333333333337
1632 1631 -0.083333333333333343
1632 1632 0.33333333333333337
1634 1632 -0.083333333333333343
1725 1632 -0.083333333333333329
1633 1633 0.33333333333333337
1635 1633 -0.083333333333333343
1634 1634 0.33333333333333337
1635 1634 -0.083333333333333343
1635 1635 0.33333333333333337
1637 1635 -0.083333333333333343
1728 1635 -0.083333333333333329
1636 1636 0.33333333333333337
1638 1636 -0.083333333333333343
1637 1637 0.33333333333333337
1638 1637 -0.083333333333333343
1638 1638 0.33333333333333337
1640 1638 -0.083333333333333343
1731 1638 -0.083333333333333329
1639 1639 0.33333333333333337
1641 1639 -0.083333333333333343
1640 1640 0.33333333333333337
1641 1640 -0.083333333333333343
1641 1641 0.33333333333333337
1643 1641 -0.083333333333333343
1734 1641 -0.083333333333333329
1642 1642 0.33333333333333337
1644 1642 -0.083333333333333343
1643 1643 0.33333333333333337
1644 1643 -0.083333333333333343
1644 1644 0.33333333333333337
1646 1644 -0.083333333333333343
1737 1644 -0.083333333333333329
1645 1645 0.33333333333333337
1647 1645 -0.083333333333333343
1646 1646 0.33333333333333337
1647 1646 -0.083333333333333343
1647 1647 0.33333333333333337
1649 1647 -0.083333333333333343
1740 1647 -0.083333333333333329
1648 1648 0.33333333333333337
1650 1648 -0.083333333333333343
1649 1649 0.33333333333333337
1650 1649 -0.083333333333333343
1650 1650 0.33333333333333337
1652 1650 -0.083333333333333343
1743 1650 -0.083333333333333329
1651 1651 0.33333333333333337
1653 1651 -0.083333333333333343
1652 1652 0.33333333333333337
1653 1652 -0.083333333333333343
1653 1653 0.33333333333333337
1655 1653 -0.083333333333333343
1746 1653 -0.083333333333333329
1654 1654 0.33333333333333337
1656 1654 -0.083333333333333343
1655 1655 0.33333333333333337
1656 1655 -0.083333333333333343
1656 1656 0.33333333333333337
1658 1656 -0.083333333333333343
1749 1656 -0.083333333333333329
1657 1657 0.33333333333333337
1659 1657 -0.083333333333333343
1658 1658 0.33333333333333337
1659 1658 -0.083333333333333343
1659 1659 0.33333333333333337
1661 1659 -0.083333333333333343
1752 1659 -0.083333333333333329
1660 1660 0.33333333333333337
1662 1660 -0.083333333333333343
1661 1661 0.33333333333333337
1662 1661 -0.083333333333333343
1662 1662 0.33333333333333337
1664 1662 -0.083333333333333343
1755 1662 -0.083333333333333329
1663 1663 0.33333333333333337
1665 1663 -0.083333333333333343
1664 1664 0.33333333333333337
1665 1664 -0.083333333333333343
1665 1665 0.33333333333333337
1667 1665 -0.083333333333333343
1758 1665 -0.083333333333333329
1666 1666 0.33333333333333337
1668 1666 -0.083333333333333343
1667 1667 0.33333333333333337
1668 1667 -0.083333333333333343
1668 1668 0.33333333333333337
1670 1668 -0.083333333333333343
1761 1668 -0.083333333333333329
1669 1669 0.33333333333333337
1671 1669 -0.083333333333333343
1670 1670 0.33333333333333337
1671 1670 -0.083333333333333343
1671 1671 0.33333333333333337
1673 1671 -0.083333333333333343
1764 1671 -0.083333333333333329
1672 1672 0.33333333333333337
1674 1672 -0.083333333333333343
1673 1673 0.33333333333333337
1674 1673 -0.083333333333333343
1674 1674 0.33333333333333337
1676 1674 -0.083333333333333343
1767 1674 -0.083333333333333329
1675 1675 0.33333333333333337
1677 1675 -0.083333333333333343
1676 1676 0.33333333333333337
1677 1676 -0.083333333333333343
1677 1677 0.33333333333333337
1679 1677 -0.083333333333333343
1770 1677 -0.083333333333333329
1678 1678 0.33333333333333337
1680 1678 -0.083333333333333343
1679 1679 0.33333333333333337
1680 1679 -0.083333333333333343
1680 1680 0.33333333333333337
1682 1680 -0.083333333333333343
1773 1680 -0.083333333333333329
1681 1681 0.33333333333333337
1683 1681 -0.083333333333333343
1682 1682 0.33333333333333337
1683 1682 -0.083333333333333343
1683 1683 0.33333333333333337
1685 1683 -0.083333333333333343
1776 1683 -0.083333333333333329
1684 1684 0.33333333333333337
1686 1684 -0.083333333333333343
1685 1685 0.33333333333333337
1686 1685 -0.083333333333333343
1686 1686 0.33333333333333337
1688 1686 -0.083333333333333343
1779 1686 -0.083333333333333329
1687 1687 0.33333333333333337
1689 1687 -0.083333333333333343
1688 1688 0.33333333333333337
1689 1688 -0.083333333333333343
1689 1689 0.33333333333333337
1782 1689 -0.083333333333333329
1690 1690 0.33333333333333337
1691 1690 -0.083333333333333343
1691 1691 0.33333333333333337
1693 1691 -0.083333333333333343
1785 1691 -0.083333333333333329
1692 1692 0.33333333333333337
1694 1692 -0.083333333333333343
1693 1693 0.33333333333333337
1694 1693 -0.083333333333333343
1694 1694 0.33333333333333337
1696 1694 -0.083333333333333343
1787 1694 -0.083333333333333329
1695 1695 0.33333333333333337
1697 1695 -0.083333333333333343
1696 1696 0.33333333333333337
1697 1696 -0.083333333333333343
1697 1697 0.33333333333333337
1699 1697 -0.083333333333333343
1790 1697 -0.083333333333333329
1698 1698 0.33333333333333337
1700 1698 -0.083333333333333343
1699 1699 0.33333333333333337
1700 1699 -0.083333333333333343
1700 1700 0.33333333333333337
1702 1700 -0.083333333333333343
1793 1700 -0.083333333333333329
1701 1701 0.33333333333333337
1703 1701 -0.083333333333333343
1702 1702 0.33333333333333337
1703 1702 -0.083333333333333343
1703 1703 0.33333333333333337
1705 1703 -0.083333333333333343
1796 1703 -0.083333333333333329
1704 1704 0.33333333333333337
1706 1704 -0.083333333333333343
1705 1705 0.33333333333333337
1706 1705 -0.083333333333333343
1706 1706 0.33333333333333337
1708 1706 -0.083333333333333343
1799 1706 -0.083333333333333329
1707 1707 0.33333333333333337
1709 1707 -0.083333333333333343
1708 1708 0.33333333333333337
1709 1708 -0.083333333333333343
1709 1709 0.33333333333333337
1711 1709 -0.083333333333333343
1802 1709 -0.083333333333333329
1710 1710 0.33333333333333337
1712 1710 -0.083333333333333343
1711 1711 0.33333333333333337
1712 1711 -0.083333333333333343
1712 1712 0.33333333333333337
1714 1712 -0.083333333333333343
1805 1712 -0.083333333333333329
1713 1713 0.33333333333333337
1715 1713 -0.083333333333333343
1714 1714 0.33333333333333337
1715 1714 -0.083333333333333343
1715 1715 0.33333333333333337
1717 1715 -0.083333333333333343
1808 1715 -0.083333333333333329
1716 1716 0.33333333333333337
1718 1716 -0.083333333333333343
1717 1717 0.33333333333333337
1718 1717 -0.083333333333333343
1718 1718 0.33333333333333337
1720 1718 -0.083333333333333343
1811 1718 -0.083333333333333329
1719 1719 0.33333333333333337
1721 1719 -0.083333333333333343
1720 1720 0.33333333333333337
1721 1720 -0.083333333333333343
1721 1721 0.33333333333333337
1723 1721 -0.083333333333333343
1814 1721 -0.083333333333333329
1722 1722 0.33333333333333337
1724 1722 -0.083333333333333343
1723 1723 0.33333333333333337
1724 1723 -0.083333333333333343
1724 1724 0.33333333333333337
1726 1724 -0.083333333333333343
1817 1724 -0.083333333333333329
1725 1725 0.33333333333333337
1727 1725 -0.083333333333333343
1726 1726 0.33333333333333337
1727 1726 -0.083333333333333343
1727 1727 0.33333333333333337
1729 1727 -0.083333333333333343
1820 1727 -0.083333333333333329
1728 1728 0.33333333333333337
1730 1728 -0.083333333333333343
1729 1729 0.33333333333333337
1730 1729 -0.083333333333333343
1730 1730 0.33333333333333337
1732 1730 -0.083333333333333343
1823 1730 -0.083333333333333329
1731 1731 0.33333333333333337
1733 1731 -0.083333333333333343
1732 1732 0.33333333333333337
1733 1732 -0.083333333333333343
1733 1733 0.33333333333333337
1735 1733 -0.083333333333333343
1826 1733 -0.083333333333333329
1734 1734 0.33333333333333337
1736 1734 -0.083333333333333343
1735 1735 0.33333333333333337
1736 1735 -0.083333333333333343
1736 1736 0.33333333333333337
1738 1736 -0.083333333333333343
1829 1736 -0.083333333333333329
1737 1737 0.33333333333333337
1739 1737 -0.083333333333333343
1738 1738 0.33333333333333337
1739 1738 -0.083333333333333343
1739 1739 0.33333333333333337
1741 1739 -0.083333333333333343
1832 1739 -0.083333333333333329
1740 1740 0.33333333333333337
1742 1740 -0.083333333333333343
1741 1741 0.33333333333333337
1742 1741 -0.083333333333333343
1742 1742 0.33333333333333337
1744 1742 -0.083333333333333343
1835 1742 -0.083333333333333329
1743 1743 0.33333333333333337
1745 1743 -0.083333333333333343
1744 1744 0.33333333333333337
1745 1744 -0.083333333333333343
1745 1745 0.33333333333333337
1747 1745 -0.083333333333333343
1838 1745 -0.083333333333333329
1746 1746 0.33333333333333337
1748 1746 -0.083333333333333343
1747 1747 0.33333333333333337
1748 1747 -0.083333333333333343
1748 1748 0.33333333333333337
1750 1748 -0.083333333333333343
1841 1748 -0.083333333333333329
1749 1749 0.33333333333333337
1751 1749 -0.083333333333333343
1750 1750 0.33333333333333337
1751 1750 -0.083333333333333343
1751 1751 0.33333333333333337
1753 1751 -0.083333333333333343
1844 1751 -0.083333333333333329
1752 1752 0.33333333333333337
1754 1752 -0.083333333333333343
1753 1753 0.33333333333333337
1754 1753 -0.083333333333333343
1754 1754 0.33333333333333337
1756 1754 -0.083333333333333343
1847 1754 -0.083333333333333329
1755 1755 0.33333333333333337
1757 1755 -0.083333333333333343
1756 1756 0.33333333333333337
1757 1756 -0.083333333333333343
1757 1757 0.33333333333333337
1759 1757 -0.083333333333333343
1850 1757 -0.083333333333333329
1758 1758 0.33333333333333337
1760 1758 -0.083333333333333343
1759 1759 0.33333333333333337
1760 1759 -0.083333333333333343
1760 1760 0.33333333333333337
1762 1760 -0.083333333333333343
1853 1760 -0.083333333333333329
1761 1761 0.33333333333333337
1763 1761 -0.083333333333333343
1762 1762 0.33333333333333337
1763 1762 -0.083333333333333343
1763 1763 0.33333333333333337
1765 1763 -0.083333333333333343
1856 1763 -0.083333333333333329
1764 1764 0.33333333333333337
1766 1764 -0.083333333333333343
1765 1765 0.33333333333333337
1766 1765 -0.083333333333333343
1766 1766 0.33333333333333337
1768 1766 -0.083333333333333343
1859 1766 -0.083333333333333329
1767 1767 0.33333333333333337
1769 1767 -0.083333333333333343
1768 1768 0.33333333333333337
1769 1768 -0.083333333333333343
1769 1769 0.33333333333333337
1771 1769 -0.083333333333333343
1862 1769 -0.083333333333333329
1770 1770 0.33333333333333337
1772 1770 -0.083333333333333343
1771 1771 0.33333333333333337
1772 1771 -0.083333333333333343
1772 1772 0.33333333333333337
1774 1772 -0.083333333333333343
1865 1772 -0.083333333333333329
1773 1773 0.33333333333333337
1775 1773 -0.083333333333333343
1774 1774 0.33333333333333337
1775 1774 -0.083333333333333343
1775 1775 0.33333333333333337
1777 1775 -0.083333333333333343
1868 1775 -0.083333333333333329
1776 1776 0.33333333333333337
1778 1776 -0.083333333333333343
1777 1777 0.33333333333333337
1778 1777 -0.083333333333333343
1778 1778 0.33333333333333337
1780 1778 -0.083333333333333343
1871 1778 -0.083333333333333329
1779 1779 0.33333333333333337
1781 1779 -0.083333333333333343
1780 1780 0.33333333333333337
1781 1780 -0.083333333333333343
1781 1781 0.33333333333333337
1783 1781 -0.083333333333333343
1874 1781 -0.083333333333333329
1782 1782 0.33333333333333337
1784 1782 -0.083333333333333343
1783 1783 0.33333333333333337
1784 1783 -0.083333333333333343
1784 1784 0.33333333333333337
1877 1784 -0.083333333333333329
1785 1785 0.33333333333333337
1786 1785 -0.083333333333333343
1786 1786 0.33333333333333337
1788 1786 -0.083333333333333343
1880 1786 -0.083333333333333329
1787 1787 0.33333333333333337
1789 1787 -0.083333333333333343
1788 1788 0.33333333333333337
1789 1788 -0.083333333333333343
1789 1789 0.33333333333333337
1791 1789 -0.083333333333333343
1882 1789 -0.083333333333333329
1790 1790 0.33333333333333337
1792 1790 -0.083333333333333343
1791 1791 0.33333333333333337
1792 1791 -0.083333333333333343
1792 1792 0.33333333333333337
1794 1792 -0.083333333333333343
1885 1792 -0.083333333333333329
1793 1793 0.33333333333333337
1795 1793 -0.083333333333333343
1794 1794 0.33333333333333337
1795 1794 -0.083333333333333343
1795 1795 0.33333333333333337
1797 1795 -0.083333333333333343
1888 1795 -0.083333333333333329
1796 1796 0.33333333333333337
1798 1796 -0.083333333333333343
1797 1797 0.33333333333333337
1798 1797 -0.083333333333333343
1798 1798 0.33333333333333337
1800 1798 -0.083333333333333343
1891 1798 -0.083333333333333329
1799 1799 0.33333333333333337
1801 1799 -0.083333333333333343
1800 1800 0.33333333333333337
1801 1800 -0.083333333333333343
1801 1801 0.33333333333333337
1803 1801 -0.083333333333333343
1894 1801 -0.083333333333333329
1802 1802 0.33333333333333337
1804 1802 -0.083333333333333343
1803 1803 0.33333333333333337
1804 1803 -0.083333333333333343
1804 1804 0.33333333333333337
1806 1804 -0.083333333333333343
1897 1804 -0.083333333333333329
1805 1805 0.33333333333333337
1807 1805 -0.083333333333333343
1806 1806 0.33333333333333337
1807 1806 -0.083333333333333343
1807 1807 0.33333333333333337
1809 1807 -0.083333333333333343
1900 1807 -0.083333333333333329
1808 1808 0.33333333333333337
1810 1808 -0.083333333333333343
1809 1809 0.33333333333333337
1810 1809 -0.083333333333333343
1810 1810 0.33333333333333337
1812 1810 -0.083333333333333343
1903 1810 -0.083333333333333329
1811 1811 0.33333333333333337
1813 1811 -0.083333333333333343
1812 1812 0.33333333333333337
1813 1812 -0.083333333333333343
1813 1813 0.33333333333333337
1815 1813 -0.083333333333333343
1906 1813 -0.083333333333333329
1814 1814 0.33333333333333337
1816 1814 -0.083333333333333343
1815 1815 0.33333333333333337
1816 1815 -0.083333333333333343
1816 1816 0.33333333333333337
1818 1816 -0.083333333333333343
1909 1816 -0.083333333333333329
1817 1817 0.33333333333333337
1819 1817 -0.083333333333333343
1818 1818 0.33333333333333337
1819 1818 -0.083333333333333343
1819 1819 0.33333333333333337
1821 1819 -0.083333333333333343
1912 1819 -0.083333333333333329
1820 1820 0.33333333333333337
1822 1820 -0.083333333333333343
1821 1821 0.33333333333333337
1822 1821 -0.083333333333333343
1822 1822 0.33333333333333337
1824 1822 -0.083333333333333343
1915 1822 -0.083333333333333329
1823 1823 0.33333333333333337
1825 1823 -0.083333333333333343
1824 1824 0.33333333333333337
1825 1824 -0.083333333333333343
1825 1825 0.33333333333333337
1827 1825 -0.083333333333333343
1918 1825 -0.083333333333333329
1826 1826 0.33333333333333337
1828 1826 -0.083333333333333343
1827 1827 0.33333333333333337
1828 1827 -0.083333333333333343
1828 1828 0.33333333333333337
1830 1828 -0.083333333333333343
1921 1828 -0.083333333333333329
1829 1829 0.33333333333333337
1831 1829 -0.083333333333333343
1830 1830 0.33333333333333337
1831 1830 -0.083333333333333343
1831 1831 0.33333333333333337
1833 1831 -0.083333333333333343
1924 1831 -0.083333333333333329
1832 1832 0.33333333333333337
1834 1832 -0.083333333333333343
1833 1833 0.33333333333333337
1834 1833 -0.083333333333333343
1834 1834 0.33333333333333337
1836 1834 -0.083333333333333343
1927 1834 -0.083333333333333329
1835 1835 0.33333333333333337
1837 1835 -0.083333333333333343
1836 1836 0.33333333333333337
1837 1836 -0.083333333333333343
1837 1837 0.33333333333333337
1839 1837 -0.083333333333333343
1930 1837 -0.083333333333333329
1838 1838 0.33333333333333337
1840 1838 -0.083333333333333343
1839 1839 0.33333333333333337
1840 1839 -0.083333333333333343
1840 1840 0.33333333333333337
1842 1840 -0.083333333333333343
1933 1840 -0.083333333333333329
1841 1841 0.33333333333333337
1843 1841 -0.083333333333333343
1842 1842 0.33333333333333337
1843 1842 -0.083333333333333343
1843 1843 0.33333333333333337
1845 1843 -0.083333333333333343
1936 1843 -0.083333333333333329
1844 1844 0.33333333333333337
1846 1844 -0.083333333333333343
1845 1845 0.33333333333333337
1846 1845 -0.083333333333333343
1846 1846 0.33333333333333337
1848 1846 -0.083333333333333343
1939 1846 -0.083333333333333329
1847 1847 0.33333333333333337
1849 1847 -0.083333333333333343
1848 1848 0.33333333333333337
1849 1848 -0.083333333333333343
1849 1849 0.33333333333333337
1851 1849 -0.083333333333333343
1942 1849 -0.083333333333333329
1850 1850 0.33333333333333337
1852 1850 -0.083333333333333343
1851 1851 0.33333333333333337
1852 1851 -0.083333333333333343
1852 1852 0.33333333333333337
1854 1852 -0.083333333333333343
1945 1852 -0.083333333333333329
1853 1853 0.33333333333333337
1855 1853 -0.083333333333333343
1854 1854 0.33333333333333337
1855 1854 -0.083333333333333343
1855 1855 0.33333333333333337
1857 1855 -0.083333333333333343
1948 1855 -0.083333333333333329
1856 1856 0.33333333333333337
1858 1856 -0.083333333333333343
1857 1857 0.33333333333333337
1858 1857 -0.083333333333333343
1858 1858 0.33333333333333337
1860 1858 -0.083333333333333343
1951 1858 -0.083333333333333329
1859 1859 0.33333333333333337
1861 1859 -0.083333333333333343
1860 1860 0.33333333333333337
1861 1860 -0.083333333333333343
1861 1861 0.33333333333333337
1863 1861 -0.083333333333333343
1954 1861 -0.083333333333333329
1862 1862 0.33333333333333337
1864 1862 -0.083333333333333343
1863 1863 0.33333333333333337
1864 1863 -0.083333333333333343
1864 1864 0.33333333333333337
1866 1864 -0.083333333333333343
1957 1864 -0.083333333333333329
1865 1865 0.33333333333333337
1867 1865 -0.083333333333333343
1866 1866 0.33333333333333337
1867 1866 -0.083333333333333343
1867 1867 0.33333333333333337
1869 1867 -0.083333333333333343
1960 1867 -0.083333333333333329
1868 1868 0.33333333333333337
1870 1868 -0.083333333333333343
1869 1869 0.33333333333333337
1870 1869 -0.083333333333333343
1870 1870 0.33333333333333337
1872 1870 -0.083333333333333343
1963 1870 -0.083333333333333329
1871 1871 0.33333333333333337
1873 1871 -0.083333333333333343
1872 1872 0.33333333333333337
1873 1872 -0.083333333333333343
1873 1873 0.33333333333333337
1875 1873 -0.083333333333333343
1966 1873 -0.083333333333333329
1874 1874 0.33333333333333337
1876 1874 -0.083333333333333343
1875 1875 0.33333333333333337
1876 1875 -0.083333333333333343
1876 1876 0.33333333333333337
1878 1876 -0.083333333333333343
1969 1876 -0.083333333333333329
1877 1877 0.33333333333333337
1879 1877 -0.083333333333333343
1878 1878 0.33333333333333337
1879 1878 -0.083333333333333343
1879 1879 0.33333333333333337
1972 1879 -0.083333333333333329
1880 1880 0.33333333333333337
1881 1880 -0.083333333333333343
1881 1881 0.33333333333333337
1883 1881 -0.083333333333333343
1975 1881 -0.083333333333333329
1882 1882 0.33333333333333337
1884 1882 -0.083333333333333343
1883 1883 0.33333333333333337
1884 1883 -0.083333333333333343
1884 1884 0.33333333333333337
1886 1884 -0.083333333333333343
1977 1884 -0.083333333333333329
1885 1885 0.33333333333333337
1887 1885 -0.083333333333333343
1886 1886 0.33333333333333337
1887 1886 -0.083333333333333343
1887 1887 0.33333333333333337
1889 1887 -0.083333333333333343
1980 1887 -0.083333333333333329
1888 1888 0.33333333333333337
1890 1888 -0.083333333333333343
1889 1889 0.33333333333333337
1890 1889 -0.083333333333333343
1890 1890 0.33333333333333337
1892 1890 -0.083333333333333343
1983 1890 -0.083333333333333329
1891 1891 0.33333333333333337
1893 1891 -0.083333333333333343
1892 1892 0.33333333333333337
1893 1892 -0.083333333333333343
1893 1893 0.33333333333333337
1895 1893 -0.083333333333333343
1986 1893 -0.083333333333333329
1894 1894 0.33333333333333337
1896 1894 -0.083333333333333343
1895 1895 0.33333333333333337
1896 1895 -0.083333333333333343
1896 1896 0.33333333333333337
1898 1896 -0.083333333333333343
1989 1896 -0.083333333333333329
1897 1897 0.33333333333333337
1899 1897 -0.083333333333333343
1898 1898 0.33333333333333337
1899 1898 -0.083333333333333343
1899 1899 0.33333333333333337
1901 1899 -0.083333333333333343
1992 1899 -0.083333333333333329
1900 1900 0.33333333333333337
1902 1900 -0.083333333333333343
1901 1901 0.33333333333333337
1902 1901 -0.083333333333333343
1902 1902 0.33333333333333337
1904 1902 -0.083333333333333343
1995 1902 -0.083333333333333329
1903 1903 0.33333333333333337
1905 1903 -0.083333333333333343
1904 1904 0.33333333333333337
1905 1904 -0.083333333333333343
1905 1905 0.33333333333333337
1907 1905 -0.083333333333333343
1998 1905 -0.083333333333333329
1906 1906 0.33333333333333337
1908 1906 -0.083333333333333343
1907 1907 0.33333333333333337
1908 1907 -0.083333333333333343
1908 1908 0.33333333333333337
1910 1908 -0.083333333333333343
2001 1908 -0.083333333333333329
1909 1909 0.33333333333333337
1911 1909 -0.083333333333333343
1910 1910 0.33333333333333337
1911 1910 -0.083333333333333343
1911 1911 0.33333333333333337
1913 1911 -0.083333333333333343
2004 1911 -0.083333333333333329
1912 1912 0.33333333333333337
1914 1912 -0.083333333333333343
1913 1913 0.33333333333333337
1914 1913 -0.083333333333333343
1914 1914 0.33333333333333337
1916 1914 -0.083333333333333343
2007 1914 -0.083333333333333329
1915 1915 0.33333333333333337
1917 1915 -0.083333333333333343
1916 1916 0.33333333333333337
1917 1916 -0.083333333333333343
1917 1917 0.33333333333333337
1919 1917 -0.083333333333333343
2010 1917 -0.083333333333333329
1918 1918 0.33333333333333337
1920 1918 -0.083333333333333343
1919 1919 0.33333333333333337
1920 1919 -0.083333333333333343
1920 1920 0.33333333333333337
1922 1920 -0.083333333333333343
2013 1920 -0.083333333333333329
1921 1921 0.33333333333333337
1923 1921 -0.083333333333333343
1922 1922 0.33333333333333337
1923 1922 -0.083333333333333343
1923 1923 0.33333333333333337
1925 1923 -0.083333333333333343
2016 1923 -0.083333333333333329
1924 1924 0.33333333333333337
1926 1924 -0.083333333333333343
1925 1925 0.33333333333333337
1926 1925 -0.083333333333333343
1926 1926 0.33333333333333337
1928 1926 -0.083333333333333343
2019 1926 -0.083333333333333329
1927 1927 0.33333333333333337
1929 1927 -0.083333333333333343
1928 1928 0.33333333333333337
1929 1928 -0.083333333333333343
1929 1929 0.33333333333333337
1931 1929 -0.083333333333333343
2022 1929 -0.083333333333333329
1930 1930 0.33333333333333337
1932 1930 -0.083333333333333343
1931 1931 0.33333333333333337
1932 1931 -0.083333333333333343
1932 1932 0.33333333333333337
1934 1932 -0.083333333333333343
2025 1932 -0.083333333333333329
1933 1933 0.33333333333333337
1935 1933 -0.083333333333333343
1934 1934 0.33333333333333337
1935 1934 -0.083333333333333343
1935 1935 0.33333333333333337
1937 1935 -0.083333333333333343
2028 1935 -0.083333333333333329
1936 1936 0.33333333333333337
1938 1936 -0.083333333333333343
1937 1937 0.33333333333333337
1938 1937 -0.083333333333333343
1938 1938 0.33333333333333337
1940 1938 -0.083333333333333343
2031 1938 -0.083333333333333329
1939 1939 0.33333333333333337
1941 1939 -0.083333333333333343
1940 1940 0.33333333333333337
1941 1940 -0.083333333333333343
1941 1941 0.33333333333333337
1943 1941 -0.083333333333333343
2034 1941 -0.083333333333333329
1942 1942 0.33333333333333337
1944 1942 -0.083333333333333343
1943 1943 0.33333333333333337
1944 1943 -0.083333333333333343
1944 1944 0.33333333333333337
1946 1944 -0.083333333333333343
2037 1944 -0.083333333333333329
1945 1945 0.33333333333333337
1947 1945 -0.083333333333333343
1946 1946 0.33333333333333337
1947 1946 -0.083333333333333343
1947 1947 0.33333333333333337
1949 1947 -0.083333333333333343
2040 1947 -0.083333333333333329
1948 1948 0.33333333333333337
1950 1948 -0.083333333333333343
1949 1949 0.33333333333333337
1950 1949 -0.083333333333333343
1950 1950 0.33333333333333337
1952 1950 -0.083333333333333343
2043 1950 -0.083333333333333329
1951 1951 0.33333333333333337
1953 1951 -0.083333333333333343
1952 1952 0.33333333333333337
1953 1952 -0.083333333333333343
1953 1953 0.33333333333333337
1955 1953 -0.083333333333333343
2046 1953 -0.083333333333333329
1954 1954 0.33333333333333337
1956 1954 -0.083333333333333343
1955 1955 0.33333333333333337
1956 1955 -0.083333333333333343
1956 1956 0.33333333333333337
1958 1956 -0.083333333333333343
2049 1956 -0.083333333333333329
1957 1957 0.33333333333333337
1959 1957 -0.083333333333333343
1958 1958 0.33333333333333337
1959 1958 -0.083333333333333343
1959 1959 0.33333333333333337
1961 1959 -0.083333333333333343
2052 1959 -0.083333333333333329
1960 1960 0.33333333333333337
1962 1960 -0.083333333333333343
1961 1961 0.33333333333333337
1962 1961 -0.083333333333333343
1962 1962 0.33333333333333337
1964 1962 -0.083333333333333343
2055 1962 -0.083333333333333329
1963 1963 0.33333333333333337
1965 1963 -0.083333333333333343
1964 1964 0.33333333333333337
1965 1964 -0.083333333333333343
1965 1965 0.33333333333333337
1967 1965 -0.083333333333333343
2058 1965 -0.083333333333333329
1966 1966 0.33333333333333337
1968 1966 -0.083333333333333343
1967 1967 0.33333333333333337
1968 1967 -0.083333333333333343
1968 1968 0.33333333333333337
1970 1968 -0.083333333333333343
2061 1968 -0.083333333333333329
1969 1969 0.33333333333333337
1971 1969 -0.083333333333333343
1970 1970 0.33333333333333337
1971 1970 -0.083333333333333343
1971 1971 0.33333333333333337
1973 1971 -0.083333333333333343
2064 1971 -0.083333333333333329
1972 1972 0.33333333333333337
1974 1972 -0.083333333333333343
1973 1973 0.33333333333333337
1974 1973 -0.083333333333333343
1974 1974 0.33333333333333337
2067 1974 -0.083333333333333329
1975 1975 0.33333333333333337
1976 1975 -0.083333333333333343
1976 1976 0.33333333333333337
1978 1976 -0.083333333333333343
2070 1976 -0.083333333333333329
1977 1977 0.33333333333333337
1979 1977 -0.083333333333333343
1978 1978 0.33333333333333337
1979 1978 -0.083333333333333343
1979 1979 0.33333333333333337
1981 1979 -0.083333333333333343
2072 1979 -0.083333333333333329
1980 1980 0.33333333333333337
1982 1980 -0.083333333333333343
1981 1981 0.33333333333333337
1982 1981 -0.083333333333333343
1982 1982 0.33333333333333337
1984 1982 -0.083333333333333343
2075 1982 -0.083333333333333329
1983 1983 0.33333333333333337
1985 1983 -0.083333333333333343
1984 1984 0.33333333333333337
1985 1984 -0.083333333333333343
1985 1985 0.33333333333333337
1987 1985 -0.083333333333333343
2078 1985 -0.083333333333333329
1986 1986 0.33333333333333337
1988 1986 -0.083333333333333343
1987 1987 0.33333333333333337
1988 1987 -0.083333333333333343
1988 1988 0.33333333333333337
1990 1988 -0.083333333333333343
2081 1988 -0.083333333333333329
1989 1989 0.33333333333333337
1991 1989 -0.083333333333333343
1990 1990 0.33333333333333337
1991 1990 -0.083333333333333343
1991 1991 0.33333333333333337
1993 1991 -0.083333333333333343
2084 1991 -0.083333333333333329
1992 1992 0.33333333333333337
1994 1992 -0.083333333333333343
1993 1993 0.33333333333333337
1994 1993 -0.083333333333333343
1994 1994 0.33333333333333337
1996 1994 -0.083333333333333343
2087 1994 -0.083333333333333329
1995 1995 0.33333333333333337
1997 1995 -0.083333333333333343
1996 1996 0.33333333333333337
1997 1996 -0.083333333333333343
1997 1997 0.33333333333333337
1999 1997 -0.083333333333333343
2090 1997 -0.083333333333333329
1998 1998 0.33333333333333337
2000 1998 -0.083333333333333343
1999 1999 0.33333333333333337
2000 1999 -0.083333333333333343
2000 2000 0.33333333333333337
2002 2000 -0.083333333333333343
2093 2000 -0.083333333333333329
2001 2001 0.33333333333333337
2003 2001 -0.083333333333333343
2002 2002 0.33333333333333337
2003 2002 -0.083333333333333343
2003 2003 0.33333333333333337
2005 2003 -0.083333333333333343
2096 2003 -0.083333333333333329
2004 2004 0.33333333333333337
2006 2004 -0.083333333333333343
2005 2005 0.33333333333333337
2006 2005 -0.083333333333333343
2006 2006 0.33333333333333337
2008 2006 -0.083333333333333343
2099 2006 -0.083333333333333329
2007 2007 0.33333333333333337
2009 2007 -0.083333333333333343
2008 2008 0.33333333333333337
2009 2008 -0.083333333333333343
2009 2009 0.33333333333333337
2011 2009 -0.083333333333333343
2102 2009 -0.083333333333333329
2010 2010 0.33333333333333337
2012 2010 -0.083333333333333343
2011 2011 0.33333333333333337
2012 2011 -0.083333333333333343
2012 2012 0.33333333333333337
2014 2012 -0.083333333333333343
2105 2012 -0.083333333333333329
2013 2013 0.33333333333333337
2015 2013 -0.083333333333333343
2014 2014 0.33333333333333337
2015 2014 -0.083333333333333343
2015 2015 0.33333333333333337
2017 2015 -0.083333333333333343
2108 2015 -0.083333333333333329
2016 2016 0.33333333333333337
2018 2016 -0.083333333333333343
2017 2017 0.33333333333333337
2018 2017 -0.083333333333333343
2018 2018 0.33333333333333337
2020 2018 -0.083333333333333343
2111 2018 -0.083333333333333329
2019 2019 0.33333333333333337
2021 2019 -0.083333333333333343
2020 2020 0.33333333333333337
2021 2020 -0.083333333333333343
2021 2021 0.33333333333333337
2023 2021 -0.083333333333333343
2114 2021 -0.083333333333333329
2022 2022 0.33333333333333337
2024 2022 -0.083333333333333343
2023 2023 0.33333333333333337
2024 2023 -0.083333333333333343
2024 2024 0.33333333333333337
2026 2024 -0.083333333333333343
2117 2024 -0.083333333333333329
2025 2025 0.33333333333333337
2027 2025 -0.083333333333333343
2026 2026 0.33333333333333337
2027 2026 -0.083333333333333343
2027 2027 0.33333333333333337
2029 2027 -0.083333333333333343
2120 2027 -0.083333333333333329
2028 2028 0.33333333333333337
2030 2028 -0.083333333333333343
2029 2029 0.33333333333333337
2030 2029 -0.083333333333333343
2030 2030 0.33333333333333337
2032 2030 -0.083333333333333343
2123 2030 -0.083333333333333329
2031 2031 0.33333333333333337
2033 2031 -0.083333333333333343
2032 2032 0.33333333333333337
2033 2032 -0.083333333333333343
2033 2033 0.33333333333333337
2035 2033 -0.083333333333333343
2126 2033 -0.083333333333333329
2034 2034 0.33333333333333337
2036 2034 -0.083333333333333343
2035 2035 0.33333333333333337
2036 2035 -0.083333333333333343
2036 2036 0.33333333333333337
2038 2036 -0.083333333333333343
2129 2036 -0.083333333333333329
2037 2037 0.33333333333333337
2039 2037 -0.083333333333333343
2038 2038 0.33333333333333337
2039 2038 -0.083333333333333343
2039 2039 0.33333333333333337
2041 2039 -0.083333333333333343
2132 2039 -0.083333333333333329
2040 2040 0.33333333333333337
2042 2040 -0.083333333333333343
2041 2041 0.33333333333333337
2042 2041 -0.083333333333333343
2042 2042 0.33333333333333337
2044 2042 -0.083333333333333343
2135 2042 -0.083333333333333329
2043 2043 0.33333333333333337
2045 2043 -0.083333333333333343
2044 2044 0.33333333333333337
2045 2044 -0.083333333333333343
2045 2045 0.33333333333333337
2047 2045 -0.083333333333333343
2138 2045 -0.083333333333333329
2046 2046 0.33333333333333337
2048 2046 -0.083333333333333343
2047 2047 0.33333333333333337
2048 2047 -0.083333333333333343
2048 2048 0.33333333333333337
2050 2048 -0.083333333333333343
2141 2048 -0.083333333333333329
2049 2049 0.33333333333333337
2051 2049 -0.083333333333333343
2050 2050 0.33333333333333337
2051 2050 -0.083333333333333343
2051 2051 0.33333333333333337
2053 2051 -0.083333333333333343
2144 2051 -0.083333333333333329
2052 2052 0.33333333333333337
2054 2052 -0.083333333333333343
2053 2053 0.33333333333333337
2054 2053 -0.083333333333333343
2054 2054 0.33333333333333337
2056 2054 -0.083333333333333343
2147 2054 -0.083333333333333329
2055 2055 0.33333333333333337
2057 2055 -0.083333333333333343
2056 2056 0.33333333333333337
2057 2056 -0.083333333333333343
2057 2057 0.33333333333333337
2059 2057 -0.083333333333333343
2150 2057 -0.083333333333333329
2058 2058 0.33333333333333337
2060 2058 -0.083333333333333343
2059 2059 0.33333333333333337
2060 2059 -0.083333333333333343
2060 2060 0.33333333333333337
2062 2060 -0.083333333333333343
2153 2060 -0.083333333333333329
2061 2061 0.33333333333333337
2063 2061 -0.083333333333333343
2062 2062 0.33333333333333337
2063 2062 -0.083333333333333343
2063 2063 0.33333333333333337
2065 2063 -0.083333333333333343
2156 2063 -0.083333333333333329
2064 2064 0.33333333333333337
2066 2064 -0.083333333333333343
2065 2065 0.33333333333333337
2066 2065 -0.083333333333333343
2066 2066 0.33333333333333337
2068 2066 -0.083333333333333343
2159 2066 -0.083333333333333329
2067 2067 0.33333333333333337
2069 2067 -0.083333333333333343
2068 2068 0.33333333333333337
2069 2068 -0.083333333333333343
2069 2069 0.33333333333333337
2162 2069 -0.083333333333333329
2070 2070 0.33333333333333337
2071 2070 -0.083333333333333343
2071 2071 0.33333333333333337
2073 2071 -0.083333333333333343
2165 2071 -0.083333333333333329
2072 2072 0.33333333333333337
2074 2072 -0.083333333333333343
2073 2073 0.33333333333333337
2074 2073 -0.083333333333333343
2074 2074 0.33333333333333337
2076 2074 -0.083333333333333343
2167 2074 -0.083333333333333329
2075 2075 0.33333333333333337
2077 2075 -0.083333333333333343
2076 2076 0.33333333333333337
2077 2076 -0.083333333333333343
2077 2077 0.33333333333333337
2079 2077 -0.083333333333333343
2170 2077 -0.083333333333333329
2078 2078 0.33333333333333337
2080 2078 -0.083333333333333343
2079 2079 0.33333333333333337
2080 2079 -0.083333333333333343
2080 2080 0.33333333333333337
2082 2080 -0.083333333333333343
2173 2080 -0.083333333333333329
2081 2081 0.33333333333333337
2083 2081 -0.083333333333333343
2082 2082 0.33333333333333337
2083 2082 -0.083333333333333343
2083 2083 0.33333333333333337
2085 2083 -0.083333333333333343
2176 2083 -0.083333333333333329
2084 2084 0.33333333333333337
2086 2084 -0.083333333333333343
2085 2085 0.33333333333333337
2086 2085 -0.083333333333333343
2086 2086 0.33333333333333337
2088 2086 -0.083333333333333343
2179 2086 -0.083333333333333329
2087 2087 0.33333333333333337
2089 2087 -0.083333333333333343
2088 2088 0.33333333333333337
2089 2088 -0.083333333333333343
2089 2089 0.33333333333333337
2091 2089 -0.083333333333333343
2182 2089 -0.083333333333333329
2090 2090 0.33333333333333337
2092 2090 -0.083333333333333343
2091 2091 0.33333333333333337
2092 2091 -0.083333333333333343
2092 2092 0.33333333333333337
2094 2092 -0.083333333333333343
2185 2092 -0.083333333333333329
2093 2093 0.33333333333333337
2095 2093 -0.083333333333333343
2094 2094 0.33333333333333337
2095 2094 -0.083333333333333343
2095 2095 0.33333333333333337
2097 2095 -0.083333333333333343
2188 2095 -0.083333333333333329
2096 2096 0.33333333333333337
2098 2096 -0.083333333333333343
2097 2097 0.33333333333333337
2098 2097 -0.083333333333333343
2098 2098 0.33333333333333337
2100 2098 -0.083333333333333343
2191 2098 -0.083333333333333329
2099 2099 0.33333333333333337
2101 2099 -0.083333333333333343
2100 2100 0.33333333333333337
2101 2100 -0.083333333333333343
2101 2101 0.33333333333333337
2103 2101 -0.083333333333333343
2194 2101 -0.083333333333333329
2102 2102 0.33333333333333337
2104 2102 -0.083333333333333343
2103 2103 0.33333333333333337
2104 2103 -0.083333333333333343
2104 2104 0.33333333333333337
2106 2104 -0.083333333333333343
2197 2104 -0.083333333333333329
2105 2105 0.33333333333333337
2107 2105 -0.083333333333333343
2106 2106 0.33333333333333337
2107 2106 -0.083333333333333343
2107 2107 0.33333333333333337
2109 2107 -0.083333333333333343
2200 2107 -0.083333333333333329
2108 2108 0.33333333333333337
2110 2108 -0.083333333333333343
2109 2109 0.33333333333333337
2110 2109 -0.083333333333333343
2110 2110 0.33333333333333337
2112 2110 -0.083333333333333343
2203 2110 -0.083333333333333329
2111 2111 0.33333333333333337
2113 2111 -0.083333333333333343
2112 2112 0.33333333333333337
2113 2112 -0.083333333333333343
2113 2113 0.33333333333333337
2115 2113 -0.083333333333333343
2206 2113 -0.083333333333333329
2114 2114 0.33333333333333337
2116 2114 -0.083333333333333343
2115 2115 0.33333333333333337
2116 2115 -0.083333333333333343
2116 2116 0.33333333333333337
2118 2116 -0.083333333333333343
2209 2116 -0.083333333333333329
2117 2117 0.33333333333333337
2119 2117 -0.083333333333333343
2118 2118 0.33333333333333337
2119 2118 -0.083333333333333343
2119 2119 0.33333333333333337
2121 2119 -0.083333333333333343
2212 2119 -0.083333333333333329
2120 2120 0.33333333333333337
2122 2120 -0.083333333333333343
2121 2121 0.33333333333333337
2122 2121 -0.083333333333333343
2122 2122 0.33333333333333337
2124 2122 -0.083333333333333343
2215 2122 -0.083333333333333329
2123 2123 0.33333333333333337
2125 2123 -0.083333333333333343
2124 2124 0.33333333333333337
2125 2124 -0.083333333333333343
2125 2125 0.33333333333333337
2127 2125 -0.083333333333333343
2218 2125 -0.083333333333333329
2126 2126 0.33333333333333337
2128 2126 -0.083333333333333343
2127 2127 0.33333333333333337
2128 2127 -0.083333333333333343
2128 2128 0.33333333333333337
2130 2128 -0.083333333333333343
2221 2128 -0.083333333333333329
2129 2129 0.33333333333333337
2131 2129 -0.083333333333333343
2130 2130 0.33333333333333337
2131 2130 -0.083333333333333343
2131 2131 0.33333333333333337
2133 2131 -0.083333333333333343
2224 2131 -0.083333333333333329
2132 2132 0.33333333333333337
2134 2132 -0.083333333333333343
2133 2133 0.33333333333333337
2134 2133 -0.083333333333333343
2134 2134 0.33333333333333337
2136 2134 -0.083333333333333343
2227 2134 -0.083333333333333329
2135 2135 0.33333333333333337
2137 2135 -0.083333333333333343
2136 2136 0.33333333333333337
2137 2136 -0.083333333333333343
2137 2137 0.33333333333333337
2139 2137 -0.083333333333333343
2230 2137 -0.083333333333333329
2138 2138 0.33333333333333337
2140 2138 -0.083333333333333343
2139 2139 0.33333333333333337
2140 2139 -0.083333333333333343
2140 2140 0.33333333333333337
2142 2140 -0.083333333333333343
2233 2140 -0.083333333333333329
2141 2141 0.33333333333333337
2143 2141 -0.083333333333333343
2142 2142 0.33333333333333337
2143 2142 -0.083333333333333343
2143 2143 0.33333333333333337
2145 2143 -0.083333333333333343
2236 2143 -0.083333333333333329
2144 2144 0.33333333333333337
2146 2144 -0.083333333333333343
2145 2145 0.33333333333333337
2146 2145 -0.083333333333333343
2146 2146 0.33333333333333337
2148 2146 -0.083333333333333343
2239 2146 -0.083333333333333329
2147 2147 0.33333333333333337
2149 2147 -0.083333333333333343
2148 2148 0.33333333333333337
2149 2148 -0.083333333333333343
2149 2149 0.33333333333333337
2151 2149 -0.083333333333333343
2242 2149 -0.083333333333333329
2150 2150 0.33333333333333337
2152 2150 -0.083333333333333343
2151 2151 0.33333333333333337
2152 2151 -0.083333333333333343
2152 2152 0.33333333333333337
2154 2152 -0.083333333333333343
2245 2152 -0.083333333333333329
2153 2153 0.33333333333333337
2155 2153 -0.083333333333333343
2154 2154 0.33333333333333337
2155 2154 -0.083333333333333343
2155 2155 0.33333333333333337
2157 2155 -0.083333333333333343
2248 2155 -0.083333333333333329
2156 2156 0.33333333333333337
2158 2156 -0.083333333333333343
2157 2157 0.33333333333333337
2158 2157 -0.083333333333333343
2158 2158 0.33333333333333337
2160 2158 -0.083333333333333343
2251 2158 -0.083333333333333329
2159 2159 0.33333333333333337
2161 2159 -0.083333333333333343
2160 2160 0.33333333333333337
2161 2160 -0.083333333333333343
2161 2161 0.33333333333333337
2163 2161 -0.083333333333333343
2254 2161 -0.083333333333333329
2162 2162 0.33333333333333337
2164 2162 -0.083333333333333343
2163 2163 0.33333333333333337
2164 2163 -0.083333333333333343
2164 2164 0.33333333333333337
2257 2164 -0.083333333333333329
2165 2165 0.33333333333333337
2166 2165 -0.083333333333333343
2166 2166 0.33333333333333337
2168 2166 -0.083333333333333343
2260 2166 -0.083333333333333329
2167 2167 0.33333333333333337
2169 2167 -0.083333333333333343
2168 2168 0.33333333333333337
2169 2168 -0.083333333333333343
2169 2169 0.33333333333333337
2171 2169 -0.083333333333333343
2262 2169 -0.083333333333333329
2170 2170 0.33333333333333337
2172 2170 -0.083333333333333343
2171 2171 0.33333333333333337
2172 2171 -0.083333333333333343
2172 2172 0.33333333333333337
2174 2172 -0.083333333333333343
2265 2172 -0.083333333333333329
2173 2173 0.33333333333333337
2175 2173 -0.083333333333333343
2174 2174 0.33333333333333337
2175 2174 -0.083333333333333343
2175 2175 0.33333333333333337
2177 2175 -0.083333333333333343
2268 2175 -0.083333333333333329
2176 2176 0.33333333333333337
2178 2176 -0.083333333333333343
2177 2177 0.33333333333333337
2178 2177 -0.083333333333333343
2178 2178 0.33333333333333337
2180 2178 -0.083333333333333343
2271 2178 -0.083333333333333329
2179 2179 0.33333333333333337
2181 2179 -0.083333333333333343
2180 2180 0.33333333333333337
2181 2180 -0.083333333333333343
2181 2181 0.33333333333333337
2183 2181 -0.083333333333333343
2274 2181 -0.083333333333333329
2182 2182 0.33333333333333337
2184 2182 -0.083333333333333343
2183 2183 0.33333333333333337
2184 2183 -0.083333333333333343
2184 2184 0.33333333333333337
2186 2184 -0.083333333333333343
2277 2184 -0.083333333333333329
2185 2185 0.33333333333333337
2187 2185 -0.083333333333333343
2186 2186 0.33333333333333337
2187 2186 -0.083333333333333343
2187 2187 0.33333333333333337
2189 2187 -0.083333333333333343
2280 2187 -0.083333333333333329
2188 2188 0.33333333333333337
2190 2188 -0.083333333333333343
2189 2189 0.33333333333333337
2190 2189 -0.083333333333333343
2190 2190 0.33333333333333337
2192 2190 -0.083333333333333343
2283 2190 -0.083333333333333329
2191 2191 0.33333333333333337
2193 2191 -0.083333333333333343
2192 2192 0.33333333333333337
2193 2192 -0.083333333333333343
2193 2193 0.33333333333333337
2195 2193 -0.083333333333333343
2286 2193 -0.083333333333333329
2194 2194 0.33333333333333337
2196 2194 -0.083333333333333343
2195 2195 0.33333333333333337
2196 2195 -0.083333333333333343
2196 2196 0.33333333333333337
2198 2196 -0.083333333333333343
2289 2196 -0.083333333333333329
2197 2197 0.33333333333333337
2199 2197 -0.083333333333333343
2198 2198 0.33333333333333337
2199 2198 -0.083333333333333343
2199 2199 0.33333333333333337
2201 2199 -0.083333333333333343
2292 2199 -0.083333333333333329
2200 2200 0.33333333333333337
2202 2200 -0.083333333333333343
2201 2201 0.33333333333333337
2202 2201 -0.083333333333333343
2202 2202 0.33333333333333337
2204 2202 -0.083333333333333343
2295 2202 -0.083333333333333329
2203 2203 0.33333333333333337
2205 2203 -0.083333333333333343
2204 2204 0.33333333333333337
2205 2204 -0.083333333333333343
2205 2205 0.33333333333333337
2207 2205 -0.083333333333333343
2298 2205 -0.083333333333333329
2206 2206 0.33333333333333337
2208 2206 -0.083333333333333343
2207 2207 0.33333333333333337
2208 2207 -0.083333333333333343
2208 2208 0.33333333333333337
2210 2208 -0.083333333333333343
2301 2208 -0.083333333333333329
2209 2209 0.33333333333333337
2211 2209 -0.083333333333333343
2210 2210 0.33333333333333337
2211 2210 -0.083333333333333343
2211 2211 0.33333333333333337
2213 2211 -0.083333333333333343
2304 2211 -0.083333333333333329
2212 2212 0.33333333333333337
2214 2212 -0.083333333333333343
2213 2213 0.33333333333333337
2214 2213 -0.083333333333333343
2214 2214 0.33333333333333337
2216 2214 -0.083333333333333343
2307 2214 -0.083333333333333329
2215 2215 0.33333333333333337
2217 2215 -0.083333333333333343
2216 2216 0.33333333333333337
2217 2216 -0.083333333333333343
2217 2217 0.33333333333333337
2219 2217 -0.083333333333333343
2310 2217 -0.083333333333333329
2218 2218 0.33333333333333337
2220 2218 -0.083333333333333343
2219 2219 0.33333333333333337
2220 2219 -0.083333333333333343
2220 2220 0.33333333333333337
2222 2220 -0.083333333333333343
2313 2220 -0.083333333333333329
2221 2221 0.33333333333333337
2223 2221 -0.083333333333333343
2222 2222 0.33333333333333337
2223 2222 -0.083333333333333343
2223 2223 0.33333333333333337
2225 2223 -0.083333333333333343
2316 2223 -0.083333333333333329
2224 2224 0.33333333333333337
2226 2224 -0.083333333333333343
2225 2225 0.33333333333333337
2226 2225 -0.083333333333333343
2226 2226 0.33333333333333337
2228 2226 -0.083333333333333343
2319 2226 -0.083333333333333329
2227 2227 0.33333333333333337
2229 2227 -0.083333333333333343
2228 2228 0.33333333333333337
2229 2228 -0.083333333333333343
2229 2229 0.33333333333333337
2231 2229 -0.083333333333333343
2322 2229 -0.083333333333333329
2230 2230 0.33333333333333337
2232 2230 -0.083333333333333343
2231 2231 0.33333333333333337
2232 2231 -0.083333333333333343
2232 2232 0.33333333333333337
2234 2232 -0.083333333333333343
2325 2232 -0.083333333333333329
2233 2233 0.33333333333333337
2235 2233 -0.083333333333333343
2234 2234 0.33333333333333337
2235 2234 -0.083333333333333343
2235 2235 0.33333333333333337
2237 2235 -0.083333333333333343
2328 2235 -0.083333333333333329
2236 2236 0.33333333333333337
2238 2236 -0.083333333333333343
2237 2237 0.33333333333333337
2238 2237 -0.083333333333333343
2238 2238 0.33333333333333337
2240 2238 -0.083333333333333343
2331 2238 -0.083333333333333329
2239 2239 0.33333333333333337
2241 2239 -0.083333333333333343
2240 2240 0.33333333333333337
2241 2240 -0.083333333333333343
2241 2241 0.33333333333333337
2243 2241 -0.083333333333333343
2334 2241 -0.083333333333333329
2242 2242 0.33333333333333337
2244 2242 -0.083333333333333343
2243 2243 0.33333333333333337
2244 2243 -0.083333333333333343
2244 2244 0.33333333333333337
2246 2244 -0.083333333333333343
2337 2244 -0.083333333333333329
2245 2245 0.33333333333333337
2247 2245 -0.083333333333333343
2246 2246 0.33333333333333337
2247 2246 -0.083333333333333343
2247 2247 0.33333333333333337
2249 2247 -0.083333333333333343
2340 2247 -0.083333333333333329
2248 2248 0.33333333333333337
2250 2248 -0.083333333333333343
2249 2249 0.33333333333333337
2250 2249 -0.083333333333333343
2250 2250 0.33333333333333337
2252 2250 -0.083333333333333343
2343 2250 -0.083333333333333329
2251 2251 0.33333333333333337
2253 2251 -0.083333333333333343
2252 2252 0.33333333333333337
2253 2252 -0.083333333333333343
2253 2253 0.33333333333333337
2255 2253 -0.083333333333333343
2346 2253 -0.083333333333333329
2254 2254 0.33333333333333337
2256 2254 -0.083333333333333343
2255 2255 0.33333333333333337
2256 2255 -0.083333333333333343
2256 2256 0.33333333333333337
2258 2256 -0.083333333333333343
2349 2256 -0.083333333333333329
2257 2257 0.33333333333333337
2259 2257 -0.083333333333333343
2258 2258 0.33333333333333337
2259 2258 -0.083333333333333343
2259 2259 0.33333333333333337
2352 2259 -0.083333333333333329
2260 2260 0.33333333333333337
2261 2260 -0.083333333333333343
2261 2261 0.33333333333333337
2263 2261 -0.083333333333333343
2355 2261 -0.083333333333333329
2262 2262 0.33333333333333337
2264 2262 -0.083333333333333343
2263 2263 0.33333333333333337
2264 2263 -0.083333333333333343
2264 2264 0.33333333333333337
2266 2264 -0.083333333333333343
2357 2264 -0.083333333333333329
2265 2265 0.33333333333333337
2267 2265 -0.083333333333333343
2266 2266 0.33333333333333337
2267 2266 -0.083333333333333343
2267 2267 0.33333333333333337
2269 2267 -0.083333333333333343
2360 2267 -0.083333333333333329
2268 2268 0.33333333333333337
2270 2268 -0.083333333333333343
2269 2269 0.33333333333333337
2270 2269 -0.083333333333333343
2270 2270 0.33333333333333337
2272 2270 -0.083333333333333343
2363 2270 -0.083333333333333329
2271 2271 0.33333333333333337
2273 2271 -0.083333333333333343
2272 2272 0.33333333333333337
2273 2272 -0.083333333333333343
2273 2273 0.33333333333333337
2275 2273 -0.083333333333333343
2366 2273 -0.083333333333333329
2274 2274 0.33333333333333337
2276 2274 -0.083333333333333343
2275 2275 0.33333333333333337
2276 2275 -0.083333333333333343
2276 2276 0.33333333333333337
2278 2276 -0.083333333333333343
2369 2276 -0.083333333333333329
2277 2277 0.33333333333333337
2279 2277 -0.083333333333333343
2278 2278 0.33333333333333337
2279 2278 -0.083333333333333343
2279 2279 0.33333333333333337
2281 2279 -0.083333333333333343
2372 2279 -0.083333333333333329
2280 2280 0.33333333333333337
2282 2280 -0.083333333333333343
2281 2281 0.33333333333333337
2282 2281 -0.083333333333333343
2282 2282 0.33333333333333337
2284 2282 -0.083333333333333343
2375 2282 -0.083333333333333329
2283 2283 0.33333333333333337
2285 2283 -0.083333333333333343
2284 2284 0.33333333333333337
2285 2284 -0.083333333333333343
2285 2285 0.33333333333333337
2287 2285 -0.083333333333333343
2378 2285 -0.083333333333333329
2286 2286 0.33333333333333337
2288 2286 -0.083333333333333343
2287 2287 0.33333333333333337
2288 2287 -0.083333333333333343
2288 2288 0.33333333333333337
2290 2288 -0.083333333333333343
2381 2288 -0.083333333333333329
2289 2289 0.33333333333333337
2291 2289 -0.083333333333333343
2290 2290 0.33333333333333337
2291 2290 -0.083333333333333343
2291 2291 0.33333333333333337
2293 2291 -0.083333333333333343
2384 2291 -0.083333333333333329
2292 2292 0.33333333333333337
2294 2292 -0.083333333333333343
2293 2293 0.33333333333333337
2294 2293 -0.083333333333333343
2294 2294 0.33333333333333337
2296 2294 -0.083333333333333343
2387 2294 -0.083333333333333329
2295 2295 0.33333333333333337
2297 2295 -0.083333333333333343
2296 2296 0.33333333333333337
2297 2296 -0.083333333333333343
2297 2297 0.33333333333333337
2299 2297 -0.083333333333333343
2390 2297 -0.083333333333333329
2298 2298 0.33333333333333337
2300 2298 -0.083333333333333343
2299 2299 0.33333333333333337
2300 2299 -0.083333333333333343
2300 2300 0.33333333333333337
2302 2300 -0.083333333333333343
2393 2300 -0.083333333333333329
2301 2301 0.33333333333333337
2303 2301 -0.083333333333333343
2302 2302 0.33333333333333337
2303 2302 -0.083333333333333343
2303 2303 0.33333333333333337
2305 2303 -0.083333333333333343
2396 2303 -0.083333333333333329
2304 2304 0.33333333333333337
2306 2304 -0.083333333333333343
2305 2305 0.33333333333333337
2306 2305 -0.083333333333333343
2306 2306 0.33333333333333337
2308 2306 -0.083333333333333343
2399 2306 -0.083333333333333329
2307 2307 0.33333333333333337
2309 2307 -0.083333333333333343
2308 2308 0.33333333333333337
2309 2308 -0.083333333333333343
2309 2309 0.33333333333333337
2311 2309 -0.083333333333333343
2402 2309 -0.083333333333333329
2310 2310 0.33333333333333337
2312 2310 -0.083333333333333343
2311 2311 0.33333333333333337
2312 2311 -0.083333333333333343
2312 2312 0.33333333333333337
2314 2312 -0.083333333333333343
2405 2312 -0.083333333333333329
2313 2313 0.33333333333333337
2315 2313 -0.083333333333333343
2314 2314 0.33333333333333337
2315 2314 -0.083333333333333343
2315 2315 0.33333333333333337
2317 2315 -0.083333333333333343
2408 2315 -0.083333333333333329
2316 2316 0.33333333333333337
2318 2316 -0.083333333333333343
2317 2317 0.33333333333333337
2318 2317 -0.083333333333333343
2318 2318 0.33333333333333337
2320 2318 -0.083333333333333343
2411 2318 -0.083333333333333329
2319 2319 0.33333333333333337
2321 2319 -0.083333333333333343
2320 2320 0.33333333333333337
2321 2320 -0.083333333333333343
2321 2321 0.33333333333333337
2323 2321 -0.083333333333333343
2414 2321 -0.083333333333333329
2322 2322 0.33333333333333337
2324 2322 -0.083333333333333343
2323 2323 0.33333333333333337
2324 2323 -0.083333333333333343
2324 2324 0.33333333333333337
2326 2324 -0.083333333333333343
2417 2324 -0.083333333333333329
2325 2325 0.33333333333333337
2327 2325 -0.083333333333333343
2326 2326 0.33333333333333337
2327 2326 -0.083333333333333343
2327 2327 0.33333333333333337
2329 2327 -0.083333333333333343
2420 2327 -0.083333333333333329
2328 2328 0.33333333333333337
2330 2328 -0.083333333333333343
2329 2329 0.33333333333333337
2330 2329 -0.083333333333333343
2330 2330 0.33333333333333337
2332 2330 -0.083333333333333343
2423 2330 -0.083333333333333329
2331 2331 0.33333333333333337
2333 2331 -0.083333333333333343
2332 2332 0.33333333333333337
2333 2332 -0.083333333333333343
2333 2333 0.33333333333333337
2335 2333 -0.083333333333333343
2426 2333 -0.083333333333333329
2334 2334 0.33333333333333337
2336 2334 -0.083333333333333343
2335 2335 0.33333333333333337
2336 2335 -0.083333333333333343
2336 2336 0.33333333333333337
2338 2336 -0.083333333333333343
2429 2336 -0.083333333333333329
2337 2337 0.33333333333333337
2339 2337 -0.083333333333333343
2338 2338 0.33333333333333337
2339 2338 -0.083333333333333343
2339 2339 0.33333333333333337
2341 2339 -0.083333333333333343
2432 2339 -0.083333333333333329
2340 2340 0.33333333333333337
2342 2340 -0.083333333333333343
2341 2341 0.33333333333333337
2342 2341 -0.083333333333333343
2342 2342 0.33333333333333337
2344 2342 -0.083333333333333343
2435 2342 -0.083333333333333329
2343 2343 0.33333333333333337
2345 2343 -0.083333333333333343
2344 2344 0.33333333333333337
2345 2344 -0.083333333333333343
2345 2345 0.33333333333333337
2347 2345 -0.083333333333333343
2438 2345 -0.083333333333333329
2346 2346 0.33333333333333337
2348 2346 -0.083333333333333343
2347 2347 0.33333333333333337
2348 2347 -0.083333333333333343
2348 2348 0.33333333333333337
2350 2348 -0.083333333333333343
2441 2348 -0.083333333333333329
2349 2349 0.33333333333333337
2351 2349 -0.083333333333333343
2350 2350 0.33333333333333337
2351 2350 -0.083333333333333343
2351 2351 0.33333333333333337
2353 2351 -0.083333333333333343
2444 2351 -0.083333333333333329
2352 2352 0.33333333333333337
2354 2352 -0.083333333333333343
2353 2353 0.33333333333333337
2354 2353 -0.083333333333333343
2354 2354 0.33333333333333337
2447 2354 -0.083333333333333329
2355 2355 0.33333333333333337
2356 2355 -0.083333333333333343
2356 2356 0.33333333333333337
2358 2356 -0.083333333333333343
2450 2356 -0.083333333333333329
2357 2357 0.33333333333333337
2359 2357 -0.083333333333333343
2358 2358 0.33333333333333337
2359 2358 -0.083333333333333343
2359 2359 0.33333333333333337
2361 2359 -0.083333333333333343
2452 2359 -0.083333333333333329
2360 2360 0.33333333333333337
2362 2360 -0.083333333333333343
2361 2361 0.33333333333333337
2362 2361 -0.083333333333333343
2362 2362 0.33333333333333337
2364 2362 -0.083333333333333343
2455 2362 -0.083333333333333329
2363 2363 0.33333333333333337
2365 2363 -0.083333333333333343
2364 2364 0.33333333333333337
2365 2364 -0.083333333333333343
2365 2365 0.33333333333333337
2367 2365 -0.083333333333333343
2458 2365 -0.083333333333333329
2366 2366 0.33333333333333337
2368 2366 -0.083333333333333343
2367 2367 0.33333333333333337
2368 2367 -0.083333333333333343
2368 2368 0.33333333333333337
2370 2368 -0.083333333333333343
2461 2368 -0.083333333333333329
2369 2369 0.33333333333333337
2371 2369 -0.083333333333333343
2370 2370 0.33333333333333337
2371 2370 -0.083333333333333343
2371 2371 0.33333333333333337
2373 2371 -0.083333333333333343
2464 2371 -0.083333333333333329
2372 2372 0.33333333333333337
2374 2372 -0.083333333333333343
2373 2373 0.33333333333333337
2374 2373 -0.083333333333333343
2374 2374 0.33333333333333337
2376 2374 -0.083333333333333343
2467 2374 -0.083333333333333329
2375 2375 0.33333333333333337
2377 2375 -0.083333333333333343
2376 2376 0.33333333333333337
2377 2376 -0.083333333333333343
2377 2377 0.33333333333333337
2379 2377 -0.083333333333333343
2470 2377 -0.083333333333333329
2378 2378 0.33333333333333337
2380 2378 -0.083333333333333343
2379 2379 0.33333333333333337
2380 2379 -0.083333333333333343
2380 2380 0.33333333333333337
2382 2380 -0.083333333333333343
2473 2380 -0.083333333333333329
2381 2381 0.33333333333333337
2383 2381 -0.083333333333333343
2382 2382 0.33333333333333337
2383 2382 -0.083333333333333343
2383 2383 0.33333333333333337
2385 2383 -0.083333333333333343
2476 2383 -0.083333333333333329
2384 2384 0.33333333333333337
2386 2384 -0.083333333333333343
2385 2385 0.33333333333333337
2386 2385 -0.083333333333333343
2386 2386 0.33333333333333337
2388 2386 -0.083333333333333343
2479 2386 -0.083333333333333329
2387 2387 0.33333333333333337
2389 2387 -0.083333333333333343
2388 2388 0.33333333333333337
2389 2388 -0.083333333333333343
2389 2389 0.33333333333333337
2391 2389 -0.083333333333333343
2482 2389 -0.083333333333333329
2390 2390 0.33333333333333337
2392 2390 -0.083333333333333343
2391 2391 0.33333333333333337
2392 2391 -0.083333333333333343
2392 2392 0.33333333333333337
2394 2392 -0.083333333333333343
2485 2392 -0.083333333333333329
2393 2393 0.33333333333333337
2395 2393 -0.083333333333333343
2394 2394 0.33333333333333337
2395 2394 -0.083333333333333343
2395 2395 0.33333333333333337
2397 2395 -0.083333333333333343
2488 2395 -0.083333333333333329
2396 2396 0.33333333333333337
2398 2396 -0.083333333333333343
2397 2397 0.33333333333333337
2398 2397 -0.083333333333333343
2398 2398 0.33333333333333337
2400 2398 -0.083333333333333343
2491 2398 -0.083333333333333329
2399 2399 0.33333333333333337
2401 2399 -0.083333333333333343
2400 2400 0.33333333333333337
2401 2400 -0.083333333333333343
2401 2401 0.33333333333333337
2403 2401 -0.083333333333333343
2494 2401 -0.083333333333333329
2402 2402 0.33333333333333337
2404 2402 -0.083333333333333343
2403 2403 0.33333333333333337
2404 2403 -0.083333333333333343
2404 2404 0.33333333333333337
2406 2404 -0.083333333333333343
2497 2404 -0.083333333333333329
2405 2405 0.33333333333333337
2407 2405 -0.083333333333333343
2406 2406 0.33333333333333337
2407 2406 -0.083333333333333343
2407 2407 0.33333333333333337
2409 2407 -0.083333333333333343
2500 2407 -0.083333333333333329
2408 2408 0.33333333333333337
2410 2408 -0.083333333333333343
2409 2409 0.33333333333333337
2410 2409 -0.083333333333333343
2410 2410 0.33333333333333337
2412 2410 -0.083333333333333343
2503 2410 -0.083333333333333329
2411 2411 0.33333333333333337
2413 2411 -0.083333333333333343
2412 2412 0.33333333333333337
2413 2412 -0.083333333333333343
2413 2413 0.33333333333333337
2415 2413 -0.083333333333333343
2506 2413 -0.083333333333333329
2414 2414 0.33333333333333337
2416 2414 -0.083333333333333343
2415 2415 0.33333333333333337
2416 2415 -0.083333333333333343
2416 2416 0.33333333333333337
2418 2416 -0.083333333333333343
2509 2416 -0.083333333333333329
2417 2417 0.33333333333333337
2419 2417 -0.083333333333333343
2418 2418 0.33333333333333337
2419 2418 -0.083333333333333343
2419 2419 0.33333333333333337
2421 2419 -0.083333333333333343
2512 2419 -0.083333333333333329
2420 2420 0.33333333333333337
2422 2420 -0.083333333333333343
2421 2421 0.33333333333333337
2422 2421 -0.083333333333333343
2422 2422 0.33333333333333337
2424 2422 -0.083333333333333343
2515 2422 -0.083333333333333329
2423 2423 0.33333333333333337
2425 2423 -0.083333333333333343
2424 2424 0.33333333333333337
2425 2424 -0.083333333333333343
2425 2425 0.33333333333333337
2427 2425 -0.083333333333333343
2518 2425 -0.083333333333333329
2426 2426 0.33333333333333337
2428 2426 -0.083333333333333343
2427 2427 0.33333333333333337
2428 2427 -0.083333333333333343
2428 2428 0.33333333333333337
2430 2428 -0.083333333333333343
2521 2428 -0.083333333333333329
2429 2429 0.33333333333333337
2431 2429 -0.083333333333333343
2430 2430 0.33333333333333337
2431 2430 -0.083333333333333343
2431 2431 0.33333333333333337
2433 2431 -0.083333333333333343
2524 2431 -0.083333333333333329
2432 2432 0.33333333333333337
2434 2432 -0.083333333333333343
2433 2433 0.33333333333333337
2434 2433 -0.083333333333333343
2434 2434 0.33333333333333337
2436 2434 -0.083333333333333343
2527 2434 -0.083333333333333329
2435 2435 0.33333333333333337
2437 2435 -0.083333333333333343
2436 2436 0.33333333333333337
2437 2436 -0.083333333333333343
2437 2437 0.33333333333333337
2439 2437 -0.083333333333333343
2530 2437 -0.083333333333333329
2438 2438 0.33333333333333337
2440 2438 -0.083333333333333343
2439 2439 0.33333333333333337
2440 2439 -0.083333333333333343
2440 2440 0.33333333333333337
2442 2440 -0.083333333333333343
2533 2440 -0.083333333333333329
2441 2441 0.33333333333333337
2443 2441 -0.083333333333333343
2442 2442 0.33333333333333337
2443 2442 -0.083333333333333343
2443 2443 0.33333333333333337
2445 2443 -0.083333333333333343
2536 2443 -0.083333333333333329
2444 2444 0.33333333333333337
2446 2444 -0.083333333333333343
2445 2445 0.33333333333333337
2446 2445 -0.083333333333333343
2446 2446 0.33333333333333337
2448 2446 -0.083333333333333343
2539 2446 -0.083333333333333329
2447 2447 0.33333333333333337
2449 2447 -0.083333333333333343
2448 2448 0.33333333333333337
2449 2448 -0.083333333333333343
2449 2449 0.33333333333333337
2542 2449 -0.083333333333333329
2450 2450 0.33333333333333337
2451 2450 -0.083333333333333343
2451 2451 0.33333333333333337
2453 2451 -0.083333333333333343
2545 2451 -0.083333333333333329
2452 2452 0.33333333333333337
2454 2452 -0.083333333333333343
2453 2453 0.33333333333333337
2454 2453 -0.083333333333333343
2454 2454 0.33333333333333337
2456 2454 -0.083333333333333343
2547 2454 -0.083333333333333329
2455 2455 0.33333333333333337
2457 2455 -0.083333333333333343
2456 2456 0.33333333333333337
2457 2456 -0.083333333333333343
2457 2457 0.33333333333333337
2459 2457 -0.083333333333333343
2550 2457 -0.083333333333333329
2458 2458 0.33333333333333337
2460 2458 -0.083333333333333343
2459 2459 0.33333333333333337
2460 2459 -0.083333333333333343
2460 2460 0.33333333333333337
2462 2460 -0.083333333333333343
2553 2460 -0.083333333333333329
2461 2461 0.33333333333333337
2463 2461 -0.083333333333333343
2462 2462 0.33333333333333337
2463 2462 -0.083333333333333343
2463 2463 0.33333333333333337
2465 2463 -0.083333333333333343
2556 2463 -0.083333333333333329
2464 2464 0.33333333333333337
2466 2464 -0.083333333333333343
2465 2465 0.33333333333333337
2466 2465 -0.083333333333333343
2466 2466 0.33333333333333337
2468 2466 -0.083333333333333343
2559 2466 -0.083333333333333329
2467 2467 0.33333333333333337
2469 2467 -0.083333333333333343
2468 2468 0.33333333333333337
2469 2468 -0.083333333333333343
2469 2469 0.33333333333333337
2471 2469 -0.083333333333333343
2562 2469 -0.083333333333333329
2470 2470 0.33333333333333337
2472 2470 -0.083333333333333343
2471 2471 0.33333333333333337
2472 2471 -0.083333333333333343
2472 2472 0.33333333333333337
2474 2472 -0.083333333333333343
2565 2472 -0.083333333333333329
2473 2473 0.33333333333333337
2475 2473 -0.083333333333333343
2474 2474 0.33333333333333337
2475 2474 -0.083333333333333343
2475 2475 0.33333333333333337
2477 2475 -0.083333333333333343
2568 2475 -0.083333333333333329
2476 2476 0.33333333333333337
2478 2476 -0.083333333333333343
2477 2477 0.33333333333333337
2478 2477 -0.083333333333333343
2478 2478 0.33333333333333337
2480 2478 -0.083333333333333343
2571 2478 -0.083333333333333329
2479 2479 0.33333333333333337
2481 2479 -0.083333333333333343
2480 2480 0.33333333333333337
2481 2480 -0.083333333333333343
2481 2481 0.33333333333333337
2483 2481 -0.083333333333333343
2574 2481 -0.083333333333333329
2482 2482 0.33333333333333337
2484 2482 -0.083333333333333343
2483 2483 0.33333333333333337
2484 2483 -0.083333333333333343
2484 2484 0.33333333333333337
2486 2484 -0.083333333333333343
2577 2484 -0.083333333333333329
2485 2485 0.33333333333333337
2487 2485 -0.083333333333333343
2486 2486 0.33333333333333337
2487 2486 -0.083333333333333343
2487 2487 0.33333333333333337
2489 2487 -0.083333333333333343
2580 2487 -0.083333333333333329
2488 2488 0.33333333333333337
2490 2488 -0.083333333333333343
2489 2489 0.33333333333333337
2490 2489 -0.083333333333333343
2490 2490 0.33333333333333337
2492 2490 -0.083333333333333343
2583 2490 -0.083333333333333329
2491 2491 0.33333333333333337
2493 2491 -0.083333333333333343
2492 2492 0.33333333333333337
2493 2492 -0.083333333333333343
2493 2493 0.33333333333333337
2495 2493 -0.083333333333333343
2586 2493 -0.083333333333333329
2494 2494 0.33333333333333337
2496 2494 -0.083333333333333343
2495 2495 0.33333333333333337
2496 2495 -0.083333333333333343
2496 2496 0.33333333333333337
2498 2496 -0.083333333333333343
2589 2496 -0.083333333333333329
2497 2497 0.33333333333333337
2499 2497 -0.083333333333333343
2498 2498 0.33333333333333337
2499 2498 -0.083333333333333343
2499 2499 0.33333333333333337
2501 2499 -0.083333333333333343
2592 2499 -0.083333333333333329
2500 2500 0.33333333333333337
2502 2500 -0.083333333333333343
2501 2501 0.33333333333333337
2502 2501 -0.083333333333333343
2502 2502 0.33333333333333337
2504 2502 -0.083333333333333343
2595 2502 -0.083333333333333329
2503 2503 0.33333333333333337
2505 2503 -0.083333333333333343
2504 2504 0.33333333333333337
2505 2504 -0.083333333333333343
2505 2505 0.33333333333333337
2507 2505 -0.083333333333333343
2598 2505 -0.083333333333333329
2506 2506 0.33333333333333337
2508 2506 -0.083333333333333343
2507 2507 0.33333333333333337
2508 2507 -0.083333333333333343
2508 2508 0.33333333333333337
2510 2508 -0.083333333333333343
2601 2508 -0.083333333333333329
2509 2509 0.33333333333333337
2511 2509 -0.083333333333333343
2510 2510 0.33333333333333337
2511 2510 -0.083333333333333343
2511 2511 0.33333333333333337
2513 2511 -0.083333333333333343
2604 2511 -0.083333333333333329
2512 2512 0.33333333333333337
2514 2512 -0.083333333333333343
2513 2513 0.33333333333333337
2514 2513 -0.083333333333333343
2514 2514 0.33333333333333337
2516 2514 -0.083333333333333343
2607 2514 -0.083333333333333329
2515 2515 0.33333333333333337
2517 2515 -0.083333333333333343
2516 2516 0.33333333333333337
2517 2516 -0.083333333333333343
2517 2517 0.33333333333333337
2519 2517 -0.083333333333333343
2610 2517 -0.083333333333333329
2518 2518 0.33333333333333337
2520 2518 -0.083333333333333343
2519 2519 0.33333333333333337
2520 2519 -0.083333333333333343
2520 2520 0.33333333333333337
2522 2520 -0.083333333333333343
2613 2520 -0.083333333333333329
2521 2521 0.33333333333333337
2523 2521 -0.083333333333333343
2522 2522 0.33333333333333337
2523 2522 -0.083333333333333343
2523 2523 0.33333333333333337
2525 2523 -0.083333333333333343
2616 2523 -0.083333333333333329
2524 2524 0.33333333333333337
2526 2524 -0.083333333333333343
2525 2525 0.33333333333333337
2526 2525 -0.083333333333333343
2526 2526 0.33333333333333337
2528 2526 -0.083333333333333343
2619 2526 -0.083333333333333329
2527 2527 0.33333333333333337
2529 2527 -0.083333333333333343
2528 2528 0.33333333333333337
2529 2528 -0.083333333333333343
2529 2529 0.33333333333333337
2531 2529 -0.083333333333333343
2622 2529 -0.083333333333333329
2530 2530 0.33333333333333337
2532 2530 -0.083333333333333343
2531 2531 0.33333333333333337
2532 2531 -0.083333333333333343
2532 2532 0.33333333333333337
2534 2532 -0.083333333333333343
2625 2532 -0.083333333333333329
2533 2533 0.33333333333333337
2535 2533 -0.083333333333333343
2534 2534 0.33333333333333337
2535 2534 -0.083333333333333343
2535 2535 0.33333333333333337
2537 2535 -0.083333333333333343
2628 2535 -0.083333333333333329
2536 2536 0.33333333333333337
2538 2536 -0.083333333333333343
2537 2537 0.33333333333333337
2538 2537 -0.083333333333333343
2538 2538 0.33333333333333337
2540 2538 -0.083333333333333343
2631 2538 -0.083333333333333329
2539 2539 0.33333333333333337
2541 2539 -0.083333333333333343
2540 2540 0.33333333333333337
2541 2540 -0.083333333333333343
2541 2541 0.33333333333333337
2543 2541 -0.083333333333333343
2634 2541 -0.083333333333333329
2542 2542 0.33333333333333337
2544 2542 -0.083333333333333343
2543 2543 0.33333333333333337
2544 2543 -0.083333333333333343
2544 2544 0.33333333333333337
2637 2544 -0.083333333333333329
2545 2545 0.33333333333333337
2546 2545 -0.083333333333333343
2546 2546 0.33333333333333337
2548 2546 -0.083333333333333343
2640 2546 -0.083333333333333329
2547 2547 0.33333333333333337
2549 2547 -0.083333333333333343
2548 2548 0.33333333333333337
2549 2548 -0.083333333333333343
2549 2549 0.33333333333333337
2551 2549 -0.083333333333333343
2642 2549 -0.083333333333333329
2550 2550 0.33333333333333337
2552 2550 -0.083333333333333343
2551 2551 0.33333333333333337
2552 2551 -0.083333333333333343
2552 2552 0.33333333333333337
2554 2552 -0.083333333333333343
2645 2552 -0.083333333333333329
2553 2553 0.33333333333333337
2555 2553 -0.083333333333333343
2554 2554 0.33333333333333337
2555 2554 -0.083333333333333343
2555 2555 0.33333333333333337
2557 2555 -0.083333333333333343
2648 2555 -0.083333333333333329
2556 2556 0.33333333333333337
2558 2556 -0.083333333333333343
2557 2557 0.33333333333333337
2558 2557 -0.083333333333333343
2558 2558 0.33333333333333337
2560 2558 -0.083333333333333343
2651 2558 -0.083333333333333329
2559 2559 0.33333333333333337
2561 2559 -0.083333333333333343
2560 2560 0.33333333333333337
2561 2560 -0.083333333333333343
2561 2561 0.33333333333333337
2563 2561 -0.083333333333333343
2654 2561 -0.083333333333333329
2562 2562 0.33333333333333337
2564 2562 -0.083333333333333343
2563 2563 0.33333333333333337
2564 2563 -0.083333333333333343
2564 2564 0.33333333333333337
2566 2564 -0.083333333333333343
2657 2564 -0.083333333333333329
2565 2565 0.33333333333333337
2567 2565 -0.083333333333333343
2566 2566 0.33333333333333337
2567 2566 -0.083333333333333343
2567 2567 0.33333333333333337
2569 2567 -0.083333333333333343
2660 2567 -0.083333333333333329
2568 2568 0.33333333333333337
2570 2568 -0.083333333333333343
2569 2569 0.33333333333333337
2570 2569 -0.083333333333333343
2570 2570 0.33333333333333337
2572 2570 -0.083333333333333343
2663 2570 -0.083333333333333329
2571 2571 0.33333333333333337
2573 2571 -0.083333333333333343
2572 2572 0.33333333333333337
2573 2572 -0.083333333333333343
2573 2573 0.33333333333333337
2575 2573 -0.083333333333333343
2666 2573 -0.083333333333333329
2574 2574 0.33333333333333337
2576 2574 -0.083333333333333343
2575 2575 0.33333333333333337
2576 2575 -0.083333333333333343
2576 2576 0.33333333333333337
2578 2576 -0.083333333333333343
2669 2576 -0.083333333333333329
2577 2577 0.33333333333333337
2579 2577 -0.083333333333333343
2578 2578 0.33333333333333337
2579 2578 -0.083333333333333343
2579 2579 0.33333333333333337
2581 2579 -0.083333333333333343
2672 2579 -0.083333333333333329
2580 2580 0.33333333333333337
2582 2580 -0.083333333333333343
2581 2581 0.33333333333333337
2582 2581 -0.083333333333333343
2582 2582 0.33333333333333337
2584 2582 -0.083333333333333343
2675 2582 -0.083333333333333329
2583 2583 0.33333333333333337
2585 2583 -0.083333333333333343
2584 2584 0.33333333333333337
2585 2584 -0.083333333333333343
2585 2585 0.33333333333333337
2587 2585 -0.083333333333333343
2678 2585 -0.083333333333333329
2586 2586 0.33333333333333337
2588 2586 -0.083333333333333343
2587 2587 0.33333333333333337
2588 2587 -0.083333333333333343
2588 2588 0.33333333333333337
2590 2588 -0.083333333333333343
2681 2588 -0.083333333333333329
2589 2589 0.33333333333333337
2591 2589 -0.083333333333333343
2590 2590 0.33333333333333337
2591 2590 -0.083333333333333343
2591 2591 0.33333333333333337
2593 2591 -0.083333333333333343
2684 2591 -0.083333333333333329
2592 2592 0.33333333333333337
2594 2592 -0.083333333333333343
2593 2593 0.33333333333333337
2594 2593 -0.083333333333333343
2594 2594 0.33333333333333337
2596 2594 -0.083333333333333343
2687 2594 -0.083333333333333329
2595 2595 0.33333333333333337
2597 2595 -0.083333333333333343
2596 2596 0.33333333333333337
2597 2596 -0.083333333333333343
2597 2597 0.33333333333333337
2599 2597 -0.083333333333333343
2690 2597 -0.083333333333333329
2598 2598 0.33333333333333337
2600 2598 -0.083333333333333343
2599 2599 0.33333333333333337
2600 2599 -0.083333333333333343
2600 2600 0.33333333333333337
2602 2600 -0.083333333333333343
2693 2600 -0.083333333333333329
2601 2601 0.33333333333333337
2603 2601 -0.083333333333333343
2602 2602 0.33333333333333337
2603 2602 -0.083333333333333343
2603 2603 0.33333333333333337
2605 2603 -0.083333333333333343
2696 2603 -0.083333333333333329
2604 2604 0.33333333333333337
2606 2604 -0.083333333333333343
2605 2605 0.33333333333333337
2606 2605 -0.083333333333333343
2606 2606 0.33333333333333337
2608 2606 -0.083333333333333343
2699 2606 -0.083333333333333329
2607 2607 0.33333333333333337
2609 2607 -0.083333333333333343
2608 2608 0.33333333333333337
2609 2608 -0.083333333333333343
2609 2609 0.33333333333333337
2611 2609 -0.083333333333333343
2702 2609 -0.083333333333333329
2610 2610 0.33333333333333337
2612 2610 -0.083333333333333343
2611 2611 0.33333333333333337
2612 2611 -0.083333333333333343
2612 2612 0.33333333333333337
2614 2612 -0.083333333333333343
2705 2612 -0.083333333333333329
2613 2613 0.33333333333333337
2615 2613 -0.083333333333333343
2614 2614 0.33333333333333337
2615 2614 -0.083333333333333343
2615 2615 0.33333333333333337
2617 2615 -0.083333333333333343
2708 2615 -0.083333333333333329
2616 2616 0.33333333333333337
2618 2616 -0.083333333333333343
2617 2617 0.33333333333333337
2618 2617 -0.083333333333333343
2618 2618 0.33333333333333337
2620 2618 -0.083333333333333343
2711 2618 -0.083333333333333329
2619 2619 0.33333333333333337
2621 2619 -0.083333333333333343
2620 2620 0.33333333333333337
2621 2620 -0.083333333333333343
2621 2621 0.33333333333333337
2623 2621 -0.083333333333333343
2714 2621 -0.083333333333333329
2622 2622 0.33333333333333337
2624 2622 -0.083333333333333343
2623 2623 0.33333333333333337
2624 2623 -0.083333333333333343
2624 2624 0.33333333333333337
2626 2624 -0.083333333333333343
2717 2624 -0.083333333333333329
2625 2625 0.33333333333333337
2627 2625 -0.083333333333333343
2626 2626 0.33333333333333337
2627 2626 -0.083333333333333343
2627 2627 0.33333333333333337
2629 2627 -0.083333333333333343
2720 2627 -0.083333333333333329
2628 2628 0.33333333333333337
2630 2628 -0.083333333333333343
2629 2629 0.33333333333333337
2630 2629 -0.083333333333333343
2630 2630 0.33333333333333337
2632 2630 -0.083333333333333343
2723 2630 -0.083333333333333329
2631 2631 0.33333333333333337
2633 2631 -0.083333333333333343
2632 2632 0.33333333333333337
2633 2632 -0.083333333333333343
2633 2633 0.33333333333333337
2635 2633 -0.083333333333333343
2726 2633 -0.083333333333333329
2634 2634 0.33333333333333337
2636 2634 -0.083333333333333343
2635 2635 0.33333333333333337
2636 2635 -0.083333333333333343
2636 2636 0.33333333333333337
2638 2636 -0.083333333333333343
2729 2636 -0.083333333333333329
2637 2637 0.33333333333333337
2639 2637 -0.083333333333333343
2638 2638 0.33333333333333337
2639 2638 -0.083333333333333343
2639 2639 0.33333333333333337
2732 2639 -0.083333333333333329
2640 2640 0.33333333333333337
2641 2640 -0.083333333333333343
2641 2641 0.33333333333333337
2643 2641 -0.083333333333333343
2735 2641 -0.083333333333333329
2642 2642 0.33333333333333337
2644 2642 -0.083333333333333343
2643 2643 0.33333333333333337
2644 2643 -0.083333333333333343
2644 2644 0.33333333333333337
2646 2644 -0.083333333333333343
2737 2644 -0.083333333333333329
2645 2645 0.33333333333333337
2647 2645 -0.083333333333333343
2646 2646 0.33333333333333337
2647 2646 -0.083333333333333343
2647 2647 0.33333333333333337
2649 2647 -0.083333333333333343
2740 2647 -0.083333333333333329
2648 2648 0.33333333333333337
2650 2648 -0.083333333333333343
2649 2649 0.33333333333333337
2650 2649 -0.083333333333333343
2650 2650 0.33333333333333337
2652 2650 -0.083333333333333343
2743 2650 -0.083333333333333329
2651 2651 0.33333333333333337
2653 2651 -0.083333333333333343
2652 2652 0.33333333333333337
2653 2652 -0.083333333333333343
2653 2653 0.33333333333333337
2655 2653 -0.083333333333333343
2746 2653 -0.083333333333333329
2654 2654 0.33333333333333337
2656 2654 -0.083333333333333343
2655 2655 0.33333333333333337
2656 2655 -0.083333333333333343
2656 2656 0.33333333333333337
2658 2656 -0.083333333333333343
2749 2656 -0.083333333333333329
2657 2657 0.33333333333333337
2659 2657 -0.083333333333333343
2658 2658 0.33333333333333337
2659 2658 -0.083333333333333343
2659 2659 0.33333333333333337
2661 2659 -0.083333333333333343
2752 2659 -0.083333333333333329
2660 2660 0.33333333333333337
2662 2660 -0.083333333333333343
2661 2661 0.33333333333333337
2662 2661 -0.083333333333333343
2662 2662 0.33333333333333337
2664 2662 -0.083333333333333343
2755 2662 -0.083333333333333329
2663 2663 0.33333333333333337
2665 2663 -0.083333333333333343
2664 2664 0.33333333333333337
2665 2664 -0.083333333333333343
2665 2665 0.33333333333333337
2667 2665 -0.083333333333333343
2758 2665 -0.083333333333333329
2666 2666 0.33333333333333337
2668 2666 -0.083333333333333343
2667 2667 0.33333333333333337
2668 2667 -0.083333333333333343
2668 2668 0.33333333333333337
2670 2668 -0.083333333333333343
2761 2668 -0.083333333333333329
2669 2669 0.33333333333333337
2671 2669 -0.083333333333333343
2670 2670 0.33333333333333337
2671 2670 -0.083333333333333343
2671 2671 0.33333333333333337
2673 2671 -0.083333333333333343
2764 2671 -0.083333333333333329
2672 2672 0.33333333333333337
2674 2672 -0.083333333333333343
2673 2673 0.33333333333333337
2674 2673 -0.083333333333333343
2674 2674 0.33333333333333337
2676 2674 -0.083333333333333343
2767 2674 -0.083333333333333329
2675 2675 0.33333333333333337
2677 2675 -0.083333333333333343
2676 2676 0.33333333333333337
2677 2676 -0.083333333333333343
2677 2677 0.33333333333333337
2679 2677 -0.083333333333333343
2770 2677 -0.083333333333333329
2678 2678 0.33333333333333337
2680 2678 -0.083333333333333343
2679 2679 0.33333333333333337
2680 2679 -0.083333333333333343
2680 2680 0.33333333333333337
2682 2680 -0.083333333333333343
2773 2680 -0.083333333333333329
2681 2681 0.33333333333333337
2683 2681 -0.083333333333333343
2682 2682 0.33333333333333337
2683 2682 -0.083333333333333343
2683 2683 0.33333333333333337
2685 2683 -0.083333333333333343
2776 2683 -0.083333333333333329
2684 2684 0.33333333333333337
2686 2684 -0.083333333333333343
2685 2685 0.33333333333333337
2686 2685 -0.083333333333333343
2686 2686 0.33333333333333337
2688 2686 -0.083333333333333343
2779 2686 -0.083333333333333329
2687 2687 0.33333333333333337
2689 2687 -0.083333333333333343
2688 2688 0.33333333333333337
2689 2688 -0.083333333333333343
2689 2689 0.33333333333333337
2691 2689 -0.083333333333333343
2782 2689 -0.083333333333333329
2690 2690 0.33333333333333337
2692 2690 -0.083333333333333343
2691 2691 0.33333333333333337
2692 2691 -0.083333333333333343
2692 2692 0.33333333333333337
2694 2692 -0.083333333333333343
2785 2692 -0.083333333333333329
2693 2693 0.33333333333333337
2695 2693 -0.083333333333333343
2694 2694 0.33333333333333337
2695 2694 -0.083333333333333343
2695 2695 0.33333333333333337
2697 2695 -0.083333333333333343
2788 2695 -0.083333333333333329
2696 2696 0.33333333333333337
2698 2696 -0.083333333333333343
2697 2697 0.33333333333333337
2698 2697 -0.083333333333333343
2698 2698 0.33333333333333337
2700 2698 -0.083333333333333343
2791 2698 -0.083333333333333329
2699 2699 0.33333333333333337
2701 2699 -0.083333333333333343
2700 2700 0.33333333333333337
2701 2700 -0.083333333333333343
2701 2701 0.33333333333333337
2703 2701 -0.083333333333333343
2794 2701 -0.083333333333333329
2702 2702 0.33333333333333337
2704 2702 -0.083333333333333343
2703 2703 0.33333333333333337
2704 2703 -0.083333333333333343
2704 2704 0.33333333333333337
2706 2704 -0.083333333333333343
2797 2704 -0.083333333333333329
2705 2705 0.33333333333333337
2707 2705 -0.083333333333333343
2706 2706 0.33333333333333337
2707 2706 -0.083333333333333343
2707 2707 0.33333333333333337
2709 2707 -0.083333333333333343
2800 2707 -0.083333333333333329
2708 2708 0.33333333333333337
2710 2708 -0.083333333333333343
2709 2709 0.33333333333333337
2710 2709 -0.083333333333333343
2710 2710 0.33333333333333337
2712 2710 -0.083333333333333343
2803 2710 -0.083333333333333329
2711 2711 0.33333333333333337
2713 2711 -0.083333333333333343
2712 2712 0.33333333333333337
2713 2712 -0.083333333333333343
2713 2713 0.33333333333333337
2715 2713 -0.083333333333333343
2806 2713 -0.083333333333333329
2714 2714 0.33333333333333337
2716 2714 -0.083333333333333343
2715 2715 0.33333333333333337
2716 2715 -0.083333333333333343
2716 2716 0.33333333333333337
2718 2716 -0.083333333333333343
2809 2716 -0.083333333333333329
2717 2717 0.33333333333333337
2719 2717 -0.083333333333333343
2718 2718 0.33333333333333337
2719 2718 -0.083333333333333343
2719 2719 0.33333333333333337
2721 2719 -0.083333333333333343
2812 2719 -0.083333333333333329
2720 2720 0.33333333333333337
2722 2720 -0.083333333333333343
2721 2721 0.33333333333333337
2722 2721 -0.083333333333333343
2722 2722 0.33333333333333337
2724 2722 -0.083333333333333343
2815 2722 -0.083333333333333329
2723 2723 0.33333333333333337
2725 2723 -0.083333333333333343
2724 2724 0.33333333333333337
2725 2724 -0.083333333333333343
2725 2725 0.33333333333333337
2727 2725 -0.083333333333333343
2818 2725 -0.083333333333333329
2726 2726 0.33333333333333337
2728 2726 -0.083333333333333343
2727 2727 0.33333333333333337
2728 2727 -0.083333333333333343
2728 2728 0.33333333333333337
2730 2728 -0.083333333333333343
2821 2728 -0.083333333333333329
2729 2729 0.33333333333333337
2731 2729 -0.083333333333333343
2730 2730 0.33333333333333337
2731 2730 -0.083333333333333343
2731 2731 0.33333333333333337
2733 2731 -0.083333333333333343
2824 2731 -0.083333333333333329
2732 2732 0.33333333333333337
2734 2732 -0.083333333333333343
2733 2733 0.33333333333333337
2734 2733 -0.083333333333333343
2734 2734 0.33333333333333337
2827 2734 -0.083333333333333329
2735 2735 0.33333333333333337
2736 2735 -0.083333333333333343
2736 2736 0.33333333333333337
2738 2736 -0.083333333333333343
2830 2736 -0.083333333333333329
2737 2737 0.33333333333333337
2739 2737 -0.083333333333333343
2738 2738 0.33333333333333337
2739 2738 -0.083333333333333343
2739 2739 0.33333333333333337
2741 2739 -0.083333333333333343
2832 2739 -0.083333333333333329
2740 2740 0.33333333333333337
2742 2740 -0.083333333333333343
2741 2741 0.33333333333333337
2742 2741 -0.083333333333333343
2742 2742 0.33333333333333337
2744 2742 -0.083333333333333343
2835 2742 -0.083333333333333329
2743 2743 0.33333333333333337
2745 2743 -0.083333333333333343
2744 2744 0.33333333333333337
2745 2744 -0.083333333333333343
2745 2745 0.33333333333333337
2747 2745 -0.083333333333333343
2838 2745 -0.083333333333333329
2746 2746 0.33333333333333337
2748 2746 -0.083333333333333343
2747 2747 0.33333333333333337
2748 2747 -0.083333333333333343
2748 2748 0.33333333333333337
2750 2748 -0.083333333333333343
2841 2748 -0.083333333333333329
2749 2749 0.33333333333333337
2751 2749 -0.083333333333333343
2750 2750 0.33333333333333337
2751 2750 -0.083333333333333343
2751 2751 0.33333333333333337
2753 2751 -0.083333333333333343
2844 2751 -0.083333333333333329
2752 2752 0.33333333333333337
2754 2752 -0.083333333333333343
2753 2753 0.33333333333333337
2754 2753 -0.083333333333333343
2754 2754 0.33333333333333337
2756 2754 -0.083333333333333343
2847 2754 -0.083333333333333329
2755 2755 0.33333333333333337
2757 2755 -0.083333333333333343
2756 2756 0.33333333333333337
2757 2756 -0.083333333333333343
2757 2757 0.33333333333333337
2759 2757 -0.083333333333333343
2850 2757 -0.083333333333333329
2758 2758 0.33333333333333337
2760 2758 -0.083333333333333343
2759 2759 0.33333333333333337
2760 2759 -0.083333333333333343
2760 2760 0.33333333333333337
2762 2760 -0.083333333333333343
2853 2760 -0.083333333333333329
2761 2761 0.33333333333333337
2763 2761 -0.083333333333333343
2762 2762 0.33333333333333337
2763 2762 -0.083333333333333343
2763 2763 0.33333333333333337
2765 2763 -0.083333333333333343
2856 2763 -0.083333333333333329
2764 2764 0.33333333333333337
2766 2764 -0.083333333333333343
2765 2765 0.33333333333333337
2766 2765 -0.083333333333333343
2766 2766 0.33333333333333337
2768 2766 -0.083333333333333343
2859 2766 -0.083333333333333329
2767 2767 0.33333333333333337
2769 2767 -0.083333333333333343
2768 2768 0.33333333333333337
2769 2768 -0.083333333333333343
2769 2769 0.33333333333333337
2771 2769 -0.083333333333333343
2862 2769 -0.083333333333333329
2770 2770 0.33333333333333337
2772 2770 -0.083333333333333343
2771 2771 0.33333333333333337
2772 2771 -0.083333333333333343
2772 2772 0.33333333333333337
2774 2772 -0.083333333333333343
2865 2772 -0.083333333333333329
2773 2773 0.33333333333333337
2775 2773 -0.083333333333333343
2774 2774 0.33333333333333337
2775 2774 -0.083333333333333343
2775 2775 0.33333333333333337
2777 2775 -0.083333333333333343
2868 2775 -0.083333333333333329
2776 2776 0.33333333333333337
2778 2776 -0.083333333333333343
2777 2777 0.33333333333333337
2778 2777 -0.083333333333333343
2778 2778 0.33333333333333337
2780 2778 -0.083333333333333343
2871 2778 -0.083333333333333329
2779 2779 0.33333333333333337
2781 2779 -0.083333333333333343
2780 2780 0.33333333333333337
2781 2780 -0.083333333333333343
2781 2781 0.33333333333333337
2783 2781 -0.083333333333333343
2874 2781 -0.083333333333333329
2782 2782 0.33333333333333337
2784 2782 -0.083333333333333343
2783 2783 0.33333333333333337
2784 2783 -0.083333333333333343
2784 2784 0.33333333333333337
2786 2784 -0.083333333333333343
2877 2784 -0.083333333333333329
2785 2785 0.33333333333333337
2787 2785 -0.083333333333333343
2786 2786 0.33333333333333337
2787 2786 -0.083333333333333343
2787 2787 0.33333333333333337
2789 2787 -0.083333333333333343
2880 2787 -0.083333333333333329
2788 2788 0.33333333333333337
2790 2788 -0.083333333333333343
2789 2789 0.33333333333333337
2790 2789 -0.083333333333333343
2790 2790 0.33333333333333337
2792 2790 -0.083333333333333343
2883 2790 -0.083333333333333329
2791 2791 0.33333333333333337
2793 2791 -0.083333333333333343
2792 2792 0.33333333333333337
2793 2792 -0.083333333333333343
2793 2793 0.33333333333333337
2795 2793 -0.083333333333333343
2886 2793 -0.083333333333333329
2794 2794 0.33333333333333337
2796 2794 -0.083333333333333343
2795 2795 0.33333333333333337
2796 2795 -0.083333333333333343
2796 2796 0.33333333333333337
2798 2796 -0.083333333333333343
2889 2796 -0.083333333333333329
2797 2797 0.33333333333333337
2799 2797 -0.083333333333333343
2798 2798 0.33333333333333337
2799 2798 -0.083333333333333343
2799 2799 0.33333333333333337
2801 2799 -0.083333333333333343
2892 2799 -0.083333333333333329
2800 2800 0.33333333333333337
2802 2800 -0.083333333333333343
2801 2801 0.33333333333333337
2802 2801 -0.083333333333333343
2802 2802 0.33333333333333337
2804 2802 -0.083333333333333343
2895 2802 -0.083333333333333329
2803 2803 0.33333333333333337
2805 2803 -0.083333333333333343
2804 2804 0.33333333333333337
2805 2804 -0.083333333333333343
2805 2805 0.33333333333333337
2807 2805 -0.083333333333333343
2898 2805 -0.083333333333333329
2806 2806 0.33333333333333337
2808 2806 -0.083333333333333343
2807 2807 0.33333333333333337
2808 2807 -0.083333333333333343
2808 2808 0.33333333333333337
2810 2808 -0.083333333333333343
2901 2808 -0.083333333333333329
2809 2809 0.33333333333333337
2811 2809 -0.083333333333333343
2810 2810 0.33333333333333337
2811 2810 -0.083333333333333343
2811 2811 0.33333333333333337
2813 2811 -0.083333333333333343
2904 2811 -0.083333333333333329
2812 2812 0.33333333333333337
2814 2812 -0.083333333333333343
2813 2813 0.33333333333333337
2814 2813 -0.083333333333333343
2814 2814 0.33333333333333337
2816 2814 -0.083333333333333343
2907 2814 -0.083333333333333329
2815 2815 0.33333333333333337
2817 2815 -0.083333333333333343
2816 2816 0.33333333333333337
2817 2816 -0.083333333333333343
2817 2817 0.33333333333333337
2819 2817 -0.083333333333333343
2910 2817 -0.083333333333333329
2818 2818 0.33333333333333337
2820 2818 -0.083333333333333343
2819 2819 0.33333333333333337
2820 2819 -0.083333333333333343
2820 2820 0.33333333333333337
2822 2820 -0.083333333333333343
2913 2820 -0.083333333333333329
2821 2821 0.33333333333333337
2823 2821 -0.083333333333333343
2822 2822 0.33333333333333337
2823 2822 -0.083333333333333343
2823 2823 0.33333333333333337
2825 2823 -0.083333333333333343
2916 2823 -0.083333333333333329
2824 2824 0.33333333333333337
2826 2824 -0.083333333333333343
2825 2825 0.33333333333333337
2826 2825 -0.083333333333333343
2826 2826 0.33333333333333337
2828 2826 -0.083333333333333343
2919 2826 -0.083333333333333329
2827 2827 0.33333333333333337
2829 2827 -0.083333333333333343
2828 2828 0.33333333333333337
2829 2828 -0.083333333333333343
2829 2829 0.33333333333333337
2922 2829 -0.083333333333333329
2830 2830 0.33333333333333337
2831 2830 -0.083333333333333343
2831 2831 0.33333333333333337
2833 2831 -0.083333333333333343
2925 2831 -0.083333333333333329
2832 2832 0.33333333333333337
2834 2832 -0.083333333333333343
2833 2833 0.33333333333333337
2834 2833 -0.083333333333333343
2834 2834 0.33333333333333337
2836 2834 -0.083333333333333343
2927 2834 -0.083333333333333329
2835 2835 0.33333333333333337
2837 2835 -0.083333333333333343
2836 2836 0.33333333333333337
2837 2836 -0.083333333333333343
2837 2837 0.33333333333333337
2839 2837 -0.083333333333333343
2930 2837 -0.083333333333333329
2838 2838 0.33333333333333337
2840 2838 -0.083333333333333343
2839 2839 0.33333333333333337
2840 2839 -0.083333333333333343
2840 2840 0.33333333333333337
2842 2840 -0.083333333333333343
2933 2840 -0.083333333333333329
2841 2841 0.33333333333333337
2843 2841 -0.083333333333333343
2842 2842 0.33333333333333337
2843 2842 -0.083333333333333343
2843 2843 0.33333333333333337
2845 2843 -0.083333333333333343
2936 2843 -0.083333333333333329
2844 2844 0.33333333333333337
2846 2844 -0.083333333333333343
2845 2845 0.33333333333333337
2846 2845 -0.083333333333333343
2846 2846 0.33333333333333337
2848 2846 -0.083333333333333343
2939 2846 -0.083333333333333329
2847 2847 0.33333333333333337
2849 2847 -0.083333333333333343
2848 2848 0.33333333333333337
2849 2848 -0.083333333333333343
2849 2849 0.33333333333333337
2851 2849 -0.083333333333333343
2942 2849 -0.083333333333333329
2850 2850 0.33333333333333337
2852 2850 -0.083333333333333343
2851 2851 0.33333333333333337
2852 2851 -0.083333333333333343
2852 2852 0.33333333333333337
2854 2852 -0.083333333333333343
2945 2852 -0.083333333333333329
2853 2853 0.33333333333333337
2855 2853 -0.083333333333333343
2854 2854 0.33333333333333337
2855 2854 -0.083333333333333343
2855 2855 0.33333333333333337
2857 2855 -0.083333333333333343
2948 2855 -0.083333333333333329
2856 2856 0.33333333333333337
2858 2856 -0.083333333333333343
2857 2857 0.33333333333333337
2858 2857 -0.083333333333333343
2858 2858 0.33333333333333337
2860 2858 -0.083333333333333343
2951 2858 -0.083333333333333329
2859 2859 0.33333333333333337
2861 2859 -0.083333333333333343
2860 2860 0.33333333333333337
2861 2860 -0.083333333333333343
2861 2861 0.33333333333333337
2863 2861 -0.083333333333333343
2954 2861 -0.083333333333333329
2862 2862 0.33333333333333337
2864 2862 -0.083333333333333343
2863 2863 0.33333333333333337
2864 2863 -0.083333333333333343
2864 2864 0.33333333333333337
2866 2864 -0.083333333333333343
2957 2864 -0.083333333333333329
2865 2865 0.33333333333333337
2867 2865 -0.083333333333333343
2866 2866 0.33333333333333337
2867 2866 -0.083333333333333343
2867 2867 0.33333333333333337
2869 2867 -0.083333333333333343
2960 2867 -0.083333333333333329
2868 2868 0.33333333333333337
2870 2868 -0.083333333333333343
2869 2869 0.33333333333333337
2870 2869 -0.083333333333333343
2870 2870 0.33333333333333337
2872 2870 -0.083333333333333343
2963 2870 -0.083333333333333329
2871 2871 0.33333333333333337
2873 2871 -0.083333333333333343
2872 2872 0.33333333333333337
2873 2872 -0.083333333333333343
2873 2873 0.33333333333333337
2875 2873 -0.083333333333333343
2966 2873 -0.083333333333333329
2874 2874 0.33333333333333337
2876 2874 -0.083333333333333343
2875 2875 0.33333333333333337
2876 2875 -0.083333333333333343
2876 2876 0.33333333333333337
2878 2876 -0.083333333333333343
2969 2876 -0.083333333333333329
2877 2877 0.33333333333333337
2879 2877 -0.083333333333333343
2878 2878 0.33333333333333337
2879 2878 -0.083333333333333343
2879 2879 0.33333333333333337
2881 2879 -0.083333333333333343
2972 2879 -0.083333333333333329
2880 2880 0.33333333333333337
2882 2880 -0.083333333333333343
2881 2881 0.33333333333333337
2882 2881 -0.083333333333333343
2882 2882 0.33333333333333337
2884 2882 -0.083333333333333343
2975 2882 -0.083333333333333329
2883 2883 0.33333333333333337
2885 2883 -0.083333333333333343
2884 2884 0.33333333333333337
2885 2884 -0.083333333333333343
2885 2885 0.33333333333333337
2887 2885 -0.083333333333333343
2978 2885 -0.083333333333333329
2886 2886 0.33333333333333337
2888 2886 -0.083333333333333343
2887 2887 0.33333333333333337
2888 2887 -0.083333333333333343
2888 2888 0.33333333333333337
2890 2888 -0.083333333333333343
2981 2888 -0.083333333333333329
2889 2889 0.33333333333333337
2891 2889 -0.083333333333333343
2890 2890 0.33333333333333337
2891 2890 -0.083333333333333343
2891 2891 0.33333333333333337
2893 2891 -0.083333333333333343
2984 2891 -0.083333333333333329
2892 2892 0.33333333333333337
2894 2892 -0.083333333333333343
2893 2893 0.33333333333333337
2894 2893 -0.083333333333333343
2894 2894 0.33333333333333337
2896 2894 -0.083333333333333343
2987 2894 -0.083333333333333329
2895 2895 0.33333333333333337
2897 2895 -0.083333333333333343
2896 2896 0.33333333333333337
2897 2896 -0.083333333333333343
2897 2897 0.33333333333333337
2899 2897 -0.083333333333333343
2990 2897 -0.083333333333333329
2898 2898 0.33333333333333337
2900 2898 -0.083333333333333343
2899 2899 0.33333333333333337
2900 2899 -0.083333333333333343
2900 2900 0.33333333333333337
2902 2900 -0.083333333333333343
2993 2900 -0.083333333333333329
2901 2901 0.33333333333333337
2903 2901 -0.083333333333333343
2902 2902 0.33333333333333337
2903 2902 -0.083333333333333343
2903 2903 0.33333333333333337
2905 2903 -0.083333333333333343
2996 2903 -0.083333333333333329
2904 2904 0.33333333333333337
2906 2904 -0.083333333333333343
2905 2905 0.33333333333333337
2906 2905 -0.083333333333333343
2906 2906 0.33333333333333337
2908 2906 -0.083333333333333343
2999 2906 -0.083333333333333329
2907 2907 0.33333333333333337
2909 2907 -0.083333333333333343
2908 2908 0.33333333333333337
2909 2908 -0.083333333333333343
2909 2909 0.33333333333333337
2911 2909 -0.083333333333333343
3002 2909 -0.083333333333333329
2910 2910 0.33333333333333337
2912 2910 -0.083333333333333343
2911 2911 0.33333333333333337
2912 2911 -0.083333333333333343
2912 2912 0.33333333333333337
2914 2912 -0.083333333333333343
3005 2912 -0.083333333333333329
2913 2913 0.33333333333333337
2915 2913 -0.083333333333333343
2914 2914 0.33333333333333337
2915 2914 -0.083333333333333343
2915 2915 0.33333333333333337
2917 2915 -0.083333333333333343
3008 2915 -0.083333333333333329
2916 2916 0.33333333333333337
2918 2916 -0.083333333333333343
2917 2917 0.33333333333333337
2918 2917 -0.083333333333333343
2918 2918 0.33333333333333337
2920 2918 -0.083333333333333343
3011 2918 -0.083333333333333329
2919 2919 0.33333333333333337
2921 2919 -0.083333333333333343
2920 2920 0.33333333333333337
2921 2920 -0.083333333333333343
2921 2921 0.33333333333333337
2923 2921 -0.083333333333333343
3014 2921 -0.083333333333333329
2922 2922 0.33333333333333337
2924 2922 -0.083333333333333343
2923 2923 0.33333333333333337
2924 2923 -0.083333333333333343
2924 2924 0.33333333333333337
3017 2924 -0.083333333333333329
2925 2925 0.33333333333333337
2926 2925 -0.083333333333333343
2926 2926 0.33333333333333337
2928 2926 -0.083333333333333343
3020 2926 -0.083333333333333329
2927 2927 0.33333333333333337
2929 2927 -0.083333333333333343
2928 2928 0.33333333333333337
2929 2928 -0.083333333333333343
2929 2929 0.33333333333333337
2931 2929 -0.083333333333333343
3022 2929 -0.083333333333333329
2930 2930 0.33333333333333337
2932 2930 -0.083333333333333343
2931 2931 0.33333333333333337
2932 2931 -0.083333333333333343
2932 2932 0.33333333333333337
2934 2932 -0.083333333333333343
3025 2932 -0.083333333333333329
2933 2933 0.33333333333333337
2935 2933 -0.083333333333333343
2934 2934 0.33333333333333337
2935 2934 -0.083333333333333343
2935 2935 0.33333333333333337
2937 2935 -0.083333333333333343
3028 2935 -0.083333333333333329
2936 2936 0.33333333333333337
2938 2936 -0.083333333333333343
2937 2937 0.33333333333333337
2938 2937 -0.083333333333333343
2938 2938 0.33333333333333337
2940 2938 -0.083333333333333343
3031 2938 -0.083333333333333329
2939 2939 0.33333333333333337
2941 2939 -0.083333333333333343
2940 2940 0.33333333333333337
2941 2940 -0.083333333333333343
2941 2941 0.33333333333333337
2943 2941 -0.083333333333333343
3034 2941 -0.083333333333333329
2942 2942 0.33333333333333337
2944 2942 -0.083333333333333343
2943 2943 0.33333333333333337
2944 2943 -0.083333333333333343
2944 2944 0.33333333333333337
2946 2944 -0.083333333333333343
3037 2944 -0.083333333333333329
2945 2945 0.33333333333333337
2947 2945 -0.083333333333333343
2946 2946 0.33333333333333337
2947 2946 -0.083333333333333343
2947 2947 0.33333333333333337
2949 2947 -0.083333333333333343
3040 2947 -0.083333333333333329
2948 2948 0.33333333333333337
2950 2948 -0.083333333333333343
2949 2949 0.33333333333333337
2950 2949 -0.083333333333333343
2950 2950 0.33333333333333337
2952 2950 -0.083333333333333343
3043 2950 -0.083333333333333329
2951 2951 0.33333333333333337
2953 2951 -0.083333333333333343
2952 2952 0.33333333333333337
2953 2952 -0.083333333333333343
2953 2953 0.33333333333333337
2955 2953 -0.083333333333333343
3046 2953 -0.083333333333333329
2954 2954 0.33333333333333337
2956 2954 -0.083333333333333343
2955 2955 0.33333333333333337
2956 2955 -0.083333333333333343
2956 2956 0.33333333333333337
2958 2956 -0.083333333333333343
3049 2956 -0.083333333333333329
2957 2957 0.33333333333333337
2959 2957 -0.083333333333333343
2958 2958 0.33333333333333337
2959 2958 -0.083333333333333343
2959 2959 0.33333333333333337
2961 2959 -0.083333333333333343
3052 2959 -0.083333333333333329
2960 2960 0.33333333333333337
2962 2960 -0.083333333333333343
2961 2961 0.33333333333333337
2962 2961 -0.083333333333333343
2962 2962 0.33333333333333337
2964 2962 -0.083333333333333343
3055 2962 -0.083333333333333329
2963 2963 0.33333333333333337
2965 2963 -0.083333333333333343
2964 2964 0.33333333333333337
2965 2964 -0.083333333333333343
2965 2965 0.33333333333333337
2967 2965 -0.083333333333333343
3058 2965 -0.083333333333333329
2966 2966 0.33333333333333337
2968 2966 -0.083333333333333343
2967 2967 0.33333333333333337
2968 2967 -0.083333333333333343
2968 2968 0.33333333333333337
2970 2968 -0.083333333333333343
3061 2968 -0.083333333333333329
2969 2969 0.33333333333333337
2971 2969 -0.083333333333333343
2970 2970 0.33333333333333337
2971 2970 -0.083333333333333343
2971 2971 0.33333333333333337
2973 2971 -0.083333333333333343
3064 2971 -0.083333333333333329
2972 2972 0.33333333333333337
2974 2972 -0.083333333333333343
2973 2973 0.33333333333333337
2974 2973 -0.083333333333333343
2974 2974 0.33333333333333337
2976 2974 -0.083333333333333343
3067 2974 -0.083333333333333329
2975 2975 0.33333333333333337
2977 2975 -0.083333333333333343
2976 2976 0.33333333333333337
2977 2976 -0.083333333333333343
2977 2977 0.33333333333333337
2979 2977 -0.083333333333333343
3070 2977 -0.083333333333333329
2978 2978 0.33333333333333337
2980 2978 -0.083333333333333343
2979 2979 0.33333333333333337
2980 2979 -0.083333333333333343
2980 2980 0.33333333333333337
2982 2980 -0.083333333333333343
3073 2980 -0.083333333333333329
2981 2981 0.33333333333333337
2983 2981 -0.083333333333333343
2982 2982 0.33333333333333337
2983 2982 -0.083333333333333343
2983 2983 0.33333333333333337
2985 2983 -0.083333333333333343
3076 2983 -0.083333333333333329
2984 2984 0.33333333333333337
2986 2984 -0.083333333333333343
2985 2985 0.33333333333333337
2986 2985 -0.083333333333333343
2986 2986 0.33333333333333337
2988 2986 -0.083333333333333343
3079 2986 -0.083333333333333329
2987 2987 0.33333333333333337
2989 2987 -0.083333333333333343
2988 2988 0.33333333333333337
2989 2988 -0.083333333333333343
2989 2989 0.33333333333333337
2991 2989 -0.083333333333333343
3082 2989 -0.083333333333333329
2990 2990 0.33333333333333337
2992 2990 -0.083333333333333343
2991 2991 0.33333333333333337
2992 2991 -0.083333333333333343
2992 2992 0.33333333333333337
2994 2992 -0.083333333333333343
3085 2992 -0.083333333333333329
2993 2993 0.33333333333333337
2995 2993 -0.083333333333333343
2994 2994 0.33333333333333337
2995 2994 -0.083333333333333343
2995 2995 0.33333333333333337
2997 2995 -0.083333333333333343
3088 2995 -0.083333333333333329
2996 2996 0.33333333333333337
2998 2996 -0.083333333333333343
2997 2997 0.33333333333333337
2998 2997 -0.083333333333333343
2998 2998 0.33333333333333337
3000 2998 -0.083333333333333343
3091 2998 -0.083333333333333329
2999 2999 0.33333333333333337
3001 2999 -0.083333333333333343
3000 3000 0.33333333333333337
3001 3000 -0.083333333333333343
3001 3001 0.33333333333333337
3003 3001 -0.083333333333333343
3094 3001 -0.083333333333333329
3002 3002 0.33333333333333337
3004 3002 -0.083333333333333343
3003 3003 0.33333333333333337
3004 3003 -0.083333333333333343
3004 3004 0.33333333333333337
3006 3004 -0.083333333333333343
3097 3004 -0.083333333333333329
3005 3005 0.33333333333333337
3007 3005 -0.083333333333333343
3006 3006 0.33333333333333337
3007 3006 -0.083333333333333343
3007 3007 0.33333333333333337
3009 3007 -0.083333333333333343
3100 3007 -0.083333333333333329
3008 3008 0.33333333333333337
3010 3008 -0.083333333333333343
3009 3009 0.33333333333333337
3010 3009 -0.083333333333333343
3010 3010 0.33333333333333337
3012 3010 -0.083333333333333343
3103 3010 -0.083333333333333329
3011 3011 0.33333333333333337
3013 3011 -0.083333333333333343
3012 3012 0.33333333333333337
3013 3012 -0.083333333333333343
3013 3013 0.33333333333333337
3015 3013 -0.083333333333333343
3106 3013 -0.083333333333333329
3014 3014 0.33333333333333337
3016 3014 -0.083333333333333343
3015 3015 0.33333333333333337
3016 3015 -0.083333333333333343
3016 3016 0.33333333333333337
3018 3016 -0.083333333333333343
3109 3016 -0.083333333333333329
3017 3017 0.33333333333333337
3019 3017 -0.083333333333333343
3018 3018 0.33333333333333337
3019 3018 -0.083333333333333343
3019 3019 0.33333333333333337
3112 3019 -0.083333333333333329
3020 3020 0.33333333333333337
3021 3020 -0.083333333333333343
3021 3021 0.33333333333333337
3023 3021 -0.083333333333333343
3115 3021 -0.083333333333333329
3022 3022 0.33333333333333337
3024 3022 -0.083333333333333343
3023 3023 0.33333333333333337
3024 3023 -0.083333333333333343
3024 3024 0.33333333333333337
3026 3024 -0.083333333333333343
3117 3024 -0.083333333333333329
3025 3025 0.33333333333333337
3027 3025 -0.083333333333333343
3026 3026 0.33333333333333337
3027 3026 -0.083333333333333343
3027 3027 0.33333333333333337
3029 3027 -0.083333333333333343
3120 3027 -0.083333333333333329
3028 3028 0.33333333333333337
3030 3028 -0.083333333333333343
3029 3029 0.33333333333333337
3030 3029 -0.083333333333333343
3030 3030 0.33333333333333337
3032 3030 -0.083333333333333343
3123 3030 -0.083333333333333329
3031 3031 0.33333333333333337
3033 3031 -0.083333333333333343
3032 3032 0.33333333333333337
3033 3032 -0.083333333333333343
3033 3033 0.33333333333333337
3035 3033 -0.083333333333333343
3126 3033 -0.083333333333333329
3034 3034 0.33333333333333337
3036 3034 -0.083333333333333343
3035 3035 0.33333333333333337
3036 3035 -0.083333333333333343
3036 3036 0.33333333333333337
3038 3036 -0.083333333333333343
3129 3036 -0.083333333333333329
3037 3037 0.33333333333333337
3039 3037 -0.083333333333333343
3038 3038 0.33333333333333337
3039 3038 -0.083333333333333343
3039 3039 0.33333333333333337
3041 3039 -0.083333333333333343
3132 3039 -0.083333333333333329
3040 3040 0.33333333333333337
3042 3040 -0.083333333333333343
3041 3041 0.33333333333333337
3042 3041 -0.083333333333333343
3042 3042 0.33333333333333337
3044 3042 -0.083333333333333343
3135 3042 -0.083333333333333329
3043 3043 0.33333333333333337
3045 3043 -0.083333333333333343
3044 3044 0.33333333333333337
3045 3044 -0.083333333333333343
3045 3045 0.33333333333333337
3047 3045 -0.083333333333333343
3138 3045 -0.083333333333333329
3046 3046 0.33333333333333337
3048 3046 -0.083333333333333343
3047 3047 0.33333333333333337
3048 3047 -0.083333333333333343
3048 3048 0.33333333333333337
3050 3048 -0.083333333333333343
3141 3048 -0.083333333333333329
3049 3049 0.33333333333333337
3051 3049 -0.083333333333333343
3050 3050 0.33333333333333337
3051 3050 -0.083333333333333343
3051 3051 0.33333333333333337
3053 3051 -0.083333333333333343
3144 3051 -0.083333333333333329
3052 3052 0.33333333333333337
3054 3052 -0.083333333333333343
3053 3053 0.33333333333333337
3054 3053 -0.083333333333333343
3054 3054 0.33333333333333337
3056 3054 -0.083333333333333343
3147 3054 -0.083333333333333329
3055 3055 0.33333333333333337
3057 3055 -0.083333333333333343
3056 3056 0.33333333333333337
3057 3056 -0.083333333333333343
3057 3057 0.33333333333333337
3059 3057 -0.083333333333333343
3150 3057 -0.083333333333333329
3058 3058 0.33333333333333337
3060 3058 -0.083333333333333343
3059 3059 0.33333333333333337
3060 3059 -0.083333333333333343
3060 3060 0.33333333333333337
3062 3060 -0.083333333333333343
3153 3060 -0.083333333333333329
3061 3061 0.33333333333333337
3063 3061 -0.083333333333333343
3062 3062 0.33333333333333337
3063 3062 -0.083333333333333343
3063 3063 0.33333333333333337
3065 3063 -0.083333333333333343
3156 3063 -0.083333333333333329
3064 3064 0.33333333333333337
3066 3064 -0.083333333333333343
3065 3065 0.33333333333333337
3066 3065 -0.083333333333333343
3066 3066 0.33333333333333337
3068 3066 -0.083333333333333343
3159 3066 -0.083333333333333329
3067 3067 0.33333333333333337
3069 3067 -0.083333333333333343
3068 3068 0.33333333333333337
3069 3068 -0.083333333333333343
3069 3069 0.33333333333333337
3071 3069 -0.083333333333333343
3162 3069 -0.083333333333333329
3070 3070 0.33333333333333337
3072 3070 -0.083333333333333343
3071 3071 0.33333333333333337
3072 3071 -0.083333333333333343
3072 3072 0.33333333333333337
3074 3072 -0.083333333333333343
3165 3072 -0.083333333333333329
3073 3073 0.33333333333333337
3075 3073 -0.083333333333333343
3074 3074 0.33333333333333337
3075 3074 -0.083333333333333343
3075 3075 0.33333333333333337
3077 3075 -0.083333333333333343
3168 3075 -0.083333333333333329
3076 3076 0.33333333333333337
3078 3076 -0.083333333333333343
3077 3077 0.33333333333333337
3078 3077 -0.083333333333333343
3078 3078 0.33333333333333337
3080 3078 -0.083333333333333343
3171 3078 -0.083333333333333329
3079 3079 0.33333333333333337
3081 3079 -0.083333333333333343
3080 3080 0.33333333333333337
3081 3080 -0.083333333333333343
3081 3081 0.33333333333333337
3083 3081 -0.083333333333333343
3174 3081 -0.083333333333333329
3082 3082 0.33333333333333337
3084 3082 -0.083333333333333343
3083 3083 0.33333333333333337
3084 3083 -0.083333333333333343
3084 3084 0.33333333333333337
3086 3084 -0.083333333333333343
3177 3084 -0.083333333333333329
3085 3085 0.33333333333333337
3087 3085 -0.083333333333333343
3086 3086 0.33333333333333337
3087 3086 -0.083333333333333343
3087 3087 0.33333333333333337
3089 3087 -0.083333333333333343
3180 3087 -0.083333333333333329
3088 3088 0.33333333333333337
3090 3088 -0.083333333333333343
3089 3089 0.33333333333333337
3090 3089 -0.083333333333333343
3090 3090 0.33333333333333337
3092 3090 -0.083333333333333343
3183 3090 -0.083333333333333329
3091 3091 0.33333333333333337
3093 3091 -0.083333333333333343
3092 3092 0.33333333333333337
3093 3092 -0.083333333333333343
3093 3093 0.33333333333333337
3095 3093 -0.083333333333333343
3186 3093 -0.083333333333333329
3094 3094 0.33333333333333337
3096 3094 -0.083333333333333343
3095 3095 0.33333333333333337
3096 3095 -0.083333333333333343
3096 3096 0.33333333333333337
3098 3096 -0.083333333333333343
3189 3096 -0.083333333333333329
3097 3097 0.33333333333333337
3099 3097 -0.083333333333333343
3098 3098 0.33333333333333337
3099 3098 -0.083333333333333343
3099 3099 0.33333333333333337
3101 3099 -0.083333333333333343
3192 3099 -0.083333333333333329
3100 3100 0.33333333333333337
3102 3100 -0.083333333333333343
3101 3101 0.33333333333333337
3102 3101 -0.083333333333333343
3102 3102 0.33333333333333337
3104 3102 -0.083333333333333343
3195 3102 -0.083333333333333329
3103 3103 0.33333333333333337
3105 3103 -0.083333333333333343
3104 3104 0.33333333333333337
3105 3104 -0.083333333333333343
3105 3105 0.33333333333333337
3107 3105 -0.083333333333333343
3198 3105 -0.083333333333333329
3106 3106 0.33333333333333337
3108 3106 -0.083333333333333343
3107 3107 0.33333333333333337
3108 3107 -0.083333333333333343
3108 3108 0.33333333333333337
3110 3108 -0.083333333333333343
3201 3108 -0.083333333333333329
3109 3109 0.33333333333333337
3111 3109 -0.083333333333333343
3110 3110 0.33333333333333337
3111 3110 -0.083333333333333343
3111 3111 0.33333333333333337
3113 3111 -0.083333333333333343
3204 3111 -0.083333333333333329
3112 3112 0.33333333333333337
3114 3112 -0.083333333333333343
3113 3113 0.33333333333333337
3114 3113 -0.083333333333333343
3114 3114 0.33333333333333337
3207 3114 -0.083333333333333329
3115 3115 0.33333333333333337
3116 3115 -0.083333333333333343
3116 3116 0.33333333333333337
3118 3116 -0.083333333333333343
3210 3116 -0.083333333333333329
3117 3117 0.33333333333333337
3119 3117 -0.083333333333333343
3118 3118 0.33333333333333337
3119 3118 -0.083333333333333343
3119 3119 0.33333333333333337
3121 3119 -0.083333333333333343
3212 3119 -0.083333333333333329
3120 3120 0.33333333333333337
3122 3120 -0.083333333333333343
3121 3121 0.33333333333333337
3122 3121 -0.083333333333333343
3122 3122 0.33333333333333337
3124 3122 -0.083333333333333343
3215 3122 -0.083333333333333329
3123 3123 0.33333333333333337
3125 3123 -0.083333333333333343
3124 3124 0.33333333333333337
3125 3124 -0.083333333333333343
3125 3125 0.33333333333333337
3127 3125 -0.083333333333333343
3218 3125 -0.083333333333333329
3126 3126 0.33333333333333337
3128 3126 -0.083333333333333343
3127 3127 0.33333333333333337
3128 3127 -0.083333333333333343
3128 3128 0.33333333333333337
3130 3128 -0.083333333333333343
3221 3128 -0.083333333333333329
3129 3129 0.33333333333333337
3131 3129 -0.083333333333333343
3130 3130 0.33333333333333337
3131 3130 -0.083333333333333343
3131 3131 0.33333333333333337
3133 3131 -0.083333333333333343
3224 3131 -0.083333333333333329
3132 3132 0.33333333333333337
3134 3132 -0.083333333333333343
3133 3133 0.33333333333333337
3134 3133 -0.083333333333333343
3134 3134 0.33333333333333337
3136 3134 -0.083333333333333343
3227 3134 -0.083333333333333329
3135 3135 0.33333333333333337
3137 3135 -0.083333333333333343
3136 3136 0.33333333333333337
3137 3136 -0.083333333333333343
3137 3137 0.33333333333333337
3139 3137 -0.083333333333333343
3230 3137 -0.083333333333333329
3138 3138 0.33333333333333337
3140 3138 -0.083333333333333343
3139 3139 0.33333333333333337
3140 3139 -0.083333333333333343
3140 3140 0.33333333333333337
3142 3140 -0.083333333333333343
3233 3140 -0.083333333333333329
3141 3141 0.33333333333333337
3143 3141 -0.083333333333333343
3142 3142 0.33333333333333337
3143 3142 -0.083333333333333343
3143 3143 0.33333333333333337
3145 3143 -0.083333333333333343
3236 3143 -0.083333333333333329
3144 3144 0.33333333333333337
3146 3144 -0.083333333333333343
3145 3145 0.33333333333333337
3146 3145 -0.083333333333333343
3146 3146 0.33333333333333337
3148 3146 -0.083333333333333343
3239 3146 -0.083333333333333329
3147 3147 0.33333333333333337
3149 3147 -0.083333333333333343
3148 3148 0.33333333333333337
3149 3148 -0.083333333333333343
3149 3149 0.33333333333333337
3151 3149 -0.083333333333333343
3242 3149 -0.083333333333333329
3150 3150 0.33333333333333337
3152 3150 -0.083333333333333343
3151 3151 0.33333333333333337
3152 3151 -0.083333333333333343
3152 3152 0.33333333333333337
3154 3152 -0.083333333333333343
3245 3152 -0.083333333333333329
3153 3153 0.33333333333333337
3155 3153 -0.083333333333333343
3154 3154 0.33333333333333337
3155 3154 -0.083333333333333343
3155 3155 0.33333333333333337
3157 3155 -0.083333333333333343
3248 3155 -0.083333333333333329
3156 3156 0.33333333333333337
3158 3156 -0.083333333333333343
3157 3157 0.33333333333333337
3158 3157 -0.083333333333333343
3158 3158 0.33333333333333337
3160 3158 -0.083333333333333343
3251 3158 -0.083333333333333329
3159 3159 0.33333333333333337
3161 3159 -0.083333333333333343
3160 3160 0.33333333333333337
3161 3160 -0.083333333333333343
3161 3161 0.33333333333333337
3163 3161 -0.083333333333333343
3254 3161 -0.083333333333333329
3162 3162 0.33333333333333337
3164 3162 -0.083333333333333343
3163 3163 0.33333333333333337
3164 3163 -0.083333333333333343
3164 3164 0.33333333333333337
3166 3164 -0.083333333333333343
3257 3164 -0.083333333333333329
3165 3165 0.33333333333333337
3167 3165 -0.083333333333333343
3166 3166 0.33333333333333337
3167 3166 -0.083333333333333343
3167 3167 0.33333333333333337
3169 3167 -0.083333333333333343
3260 3167 -0.083333333333333329
3168 3168 0.33333333333333337
3170 3168 -0.083333333333333343
3169 3169 0.33333333333333337
3170 3169 -0.083333333333333343
3170 3170 0.33333333333333337
3172 3170 -0.083333333333333343
3263 3170 -0.083333333333333329
3171 3171 0.33333333333333337
3173 3171 -0.083333333333333343
3172 3172 0.33333333333333337
3173 3172 -0.083333333333333343
3173 3173 0.33333333333333337
3175 3173 -0.083333333333333343
3266 3173 -0.083333333333333329
3174 3174 0.33333333333333337
3176 3174 -0.083333333333333343
3175 3175 0.33333333333333337
3176 3175 -0.083333333333333343
3176 3176 0.33333333333333337
3178 3176 -0.083333333333333343
3269 3176 -0.083333333333333329
3177 3177 0.33333333333333337
3179 3177 -0.083333333333333343
3178 3178 0.33333333333333337
3179 3178 -0.083333333333333343
3179 3179 0.33333333333333337
3181 3179 -0.083333333333333343
3272 3179 -0.083333333333333329
3180 3180 0.33333333333333337
3182 3180 -0.083333333333333343
3181 3181 0.33333333333333337
3182 3181 -0.083333333333333343
3182 3182 0.33333333333333337
3184 3182 -0.083333333333333343
3275 3182 -0.083333333333333329
3183 3183 0.33333333333333337
3185 3183 -0.083333333333333343
3184 3184 0.33333333333333337
3185 3184 -0.083333333333333343
3185 3185 0.33333333333333337
3187 3185 -0.083333333333333343
3278 3185 -0.083333333333333329
3186 3186 0.33333333333333337
3188 3186 -0.083333333333333343
3187 3187 0.33333333333333337
3188 3187 -0.083333333333333343
3188 3188 0.33333333333333337
3190 3188 -0.083333333333333343
3281 3188 -0.083333333333333329
3189 3189 0.33333333333333337
3191 3189 -0.083333333333333343
3190 3190 0.33333333333333337
3191 3190 -0.083333333333333343
3191 3191 0.33333333333333337
3193 3191 -0.083333333333333343
3284 3191 -0.083333333333333329
3192 3192 0.33333333333333337
3194 3192 -0.083333333333333343
3193 3193 0.33333333333333337
3194 3193 -0.083333333333333343
3194 3194 0.33333333333333337
3196 3194 -0.083333333333333343
3287 3194 -0.083333333333333329
3195 3195 0.33333333333333337
3197 3195 -0.083333333333333343
3196 3196 0.33333333333333337
3197 3196 -0.083333333333333343
3197 3197 0.33333333333333337
3199 3197 -0.083333333333333343
3290 3197 -0.083333333333333329
3198 3198 0.33333333333333337
3200 3198 -0.083333333333333343
3199 3199 0.33333333333333337
3200 3199 -0.083333333333333343
3200 3200 0.33333333333333337
3202 3200 -0.083333333333333343
3293 3200 -0.083333333333333329
3201 3201 0.33333333333333337
3203 3201 -0.083333333333333343
3202 3202 0.33333333333333337
3203 3202 -0.083333333333333343
3203 3203 0.33333333333333337
3205 3203 -0.083333333333333343
3296 3203 -0.083333333333333329
3204 3204 0.33333333333333337
3206 3204 -0.083333333333333343
3205 3205 0.33333333333333337
3206 3205 -0.083333333333333343
3206 3206 0.33333333333333337
3208 3206 -0.083333333333333343
3299 3206 -0.083333333333333329
3207 3207 0.33333333333333337
3209 3207 -0.083333333333333343
3208 3208 0.33333333333333337
3209 3208 -0.083333333333333343
3209 3209 0.33333333333333337
3302 3209 -0.083333333333333329
3210 3210 0.33333333333333337
3211 3210 -0.083333333333333343
3211 3211 0.33333333333333337
3213 3211 -0.083333333333333343
3305 3211 -0.083333333333333329
3212 3212 0.33333333333333337
3214 3212 -0.083333333333333343
3213 3213 0.33333333333333337
3214 3213 -0.083333333333333343
3214 3214 0.33333333333333337
3216 3214 -0.083333333333333343
3307 3214 -0.083333333333333329
3215 3215 0.33333333333333337
3217 3215 -0.083333333333333343
3216 3216 0.33333333333333337
3217 3216 -0.083333333333333343
3217 3217 0.33333333333333337
3219 3217 -0.083333333333333343
3310 3217 -0.083333333333333329
3218 3218 0.33333333333333337
3220 3218 -0.083333333333333343
3219 3219 0.33333333333333337
3220 3219 -0.083333333333333343
3220 3220 0.33333333333333337
3222 3220 -0.083333333333333343
3313 3220 -0.083333333333333329
3221 3221 0.33333333333333337
3223 3221 -0.083333333333333343
3222 3222 0.33333333333333337
3223 3222 -0.083333333333333343
3223 3223 0.33333333333333337
3225 3223 -0.083333333333333343
3316 3223 -0.083333333333333329
3224 3224 0.33333333333333337
3226 3224 -0.083333333333333343
3225 3225 0.33333333333333337
3226 3225 -0.083333333333333343
3226 3226 0.33333333333333337
3228 3226 -0.083333333333333343
3319 3226 -0.083333333333333329
3227 3227 0.33333333333333337
3229 3227 -0.083333333333333343
3228 3228 0.33333333333333337
3229 3228 -0.083333333333333343
3229 3229 0.33333333333333337
3231 3229 -0.083333333333333343
3322 3229 -0.083333333333333329
3230 3230 0.33333333333333337
3232 3230 -0.083333333333333343
3231 3231 0.33333333333333337
3232 3231 -0.083333333333333343
3232 3232 0.33333333333333337
3234 3232 -0.083333333333333343
3325 3232 -0.083333333333333329
3233 3233 0.33333333333333337
3235 3233 -0.083333333333333343
3234 3234 0.33333333333333337
3235 3234 -0.083333333333333343
3235 3235 0.33333333333333337
3237 3235 -0.083333333333333343
3328 3235 -0.083333333333333329
3236 3236 0.33333333333333337
3238 3236 -0.083333333333333343
3237 3237 0.33333333333333337
3238 3237 -0.083333333333333343
3238 3238 0.33333333333333337
3240 3238 -0.083333333333333343
3331 3238 -0.083333333333333329
3239 3239 0.33333333333333337
3241 3239 -0.083333333333333343
3240 3240 0.33333333333333337
3241 3240 -0.083333333333333343
3241 3241 0.33333333333333337
3243 3241 -0.083333333333333343
3334 3241 -0.083333333333333329
3242 3242 0.33333333333333337
3244 3242 -0.083333333333333343
3243 3243 0.33333333333333337
3244 3243 -0.083333333333333343
3244 3244 0.33333333333333337
3246 3244 -0.083333333333333343
3337 3244 -0.083333333333333329
3245 3245 0.33333333333333337
3247 3245 -0.083333333333333343
3246 3246 0.33333333333333337
3247 3246 -0.083333333333333343
3247 3247 0.33333333333333337
3249 3247 -0.083333333333333343
3340 3247 -0.083333333333333329
3248 3248 0.33333333333333337
3250 3248 -0.083333333333333343
3249 3249 0.33333333333333337
3250 3249 -0.083333333333333343
3250 3250 0.33333333333333337
3252 3250 -0.083333333333333343
3343 3250 -0.083333333333333329
3251 3251 0.33333333333333337
3253 3251 -0.083333333333333343
3252 3252 0.33333333333333337
3253 3252 -0.083333333333333343
3253 3253 0.33333333333333337
3255 3253 -0.083333333333333343
3346 3253 -0.083333333333333329
3254 3254 0.33333333333333337
3256 3254 -0.083333333333333343
3255 3255 0.33333333333333337
3256 3255 -0.083333333333333343
3256 3256 0.33333333333333337
3258 3256 -0.083333333333333343
3349 3256 -0.083333333333333329
3257 3257 0.33333333333333337
3259 3257 -0.083333333333333343
3258 3258 0.33333333333333337
3259 3258 -0.083333333333333343
3259 3259 0.33333333333333337
3261 3259 -0.083333333333333343
3352 3259 -0.083333333333333329
3260 3260 0.33333333333333337
3262 3260 -0.083333333333333343
3261 3261 0.33333333333333337
3262 3261 -0.083333333333333343
3262 3262 0.33333333333333337
3264 3262 -0.083333333333333343
3355 3262 -0.083333333333333329
3263 3263 0.33333333333333337
3265 3263 -0.083333333333333343
3264 3264 0.33333333333333337
3265 3264 -0.083333333333333343
3265 3265 0.33333333333333337
3267 3265 -0.083333333333333343
3358 3265 -0.083333333333333329
3266 3266 0.33333333333333337
3268 3266 -0.083333333333333343
3267 3267 0.33333333333333337
3268 3267 -0.083333333333333343
3268 3268 0.33333333333333337
3270 3268 -0.083333333333333343
3361 3268 -0.083333333333333329
3269 3269 0.33333333333333337
3271 3269 -0.083333333333333343
3270 3270 0.33333333333333337
3271 3270 -0.083333333333333343
3271 3271 0.33333333333333337
3273 3271 -0.083333333333333343
3364 3271 -0.083333333333333329
3272 3272 0.33333333333333337
3274 3272 -0.083333333333333343
3273 3273 0.33333333333333337
3274 3273 -0.083333333333333343
3274 3274 0.33333333333333337
3276 3274 -0.083333333333333343
3367 3274 -0.083333333333333329
3275 3275 0.33333333333333337
3277 3275 -0.083333333333333343
3276 3276 0.33333333333333337
3277 3276 -0.083333333333333343
3277 3277 0.33333333333333337
3279 3277 -0.083333333333333343
3370 3277 -0.083333333333333329
3278 3278 0.33333333333333337
3280 3278 -0.083333333333333343
3279 3279 0.33333333333333337
3280 3279 -0.083333333333333343
3280 3280 0.33333333333333337
3282 3280 -0.083333333333333343
3373 3280 -0.083333333333333329
3281 3281 0.33333333333333337
3283 3281 -0.083333333333333343
3282 3282 0.33333333333333337
3283 3282 -0.083333333333333343
3283 3283 0.33333333333333337
3285 3283 -0.083333333333333343
3376 3283 -0.083333333333333329
3284 3284 0.33333333333333337
3286 3284 -0.083333333333333343
3285 3285 0.33333333333333337
3286 3285 -0.083333333333333343
3286 3286 0.33333333333333337
3288 3286 -0.083333333333333343
3379 3286 -0.083333333333333329
3287 3287 0.33333333333333337
3289 3287 -0.083333333333333343
3288 3288 0.33333333333333337
3289 3288 -0.083333333333333343
3289 3289 0.33333333333333337
3291 3289 -0.083333333333333343
3382 3289 -0.083333333333333329
3290 3290 0.33333333333333337
3292 3290 -0.083333333333333343
3291 3291 0.33333333333333337
3292 3291 -0.083333333333333343
3292 3292 0.33333333333333337
3294 3292 -0.083333333333333343
3385 3292 -0.083333333333333329
3293 3293 0.33333333333333337
3295 3293 -0.083333333333333343
3294 3294 0.33333333333333337
3295 3294 -0.083333333333333343
3295 3295 0.33333333333333337
3297 3295 -0.083333333333333343
3388 3295 -0.083333333333333329
3296 3296 0.33333333333333337
3298 3296 -0.083333333333333343
3297 3297 0.33333333333333337
3298 3297 -0.083333333333333343
3298 3298 0.33333333333333337
3300 3298 -0.083333333333333343
3391 3298 -0.083333333333333329
3299 3299 0.33333333333333337
3301 3299 -0.083333333333333343
3300 3300 0.33333333333333337
3301 3300 -0.083333333333333343
3301 3301 0.33333333333333337
3303 3301 -0.083333333333333343
3394 3301 -0.083333333333333329
3302 3302 0.33333333333333337
3304 3302 -0.083333333333333343
3303 3303 0.33333333333333337
3304 3303 -0.083333333333333343
3304 3304 0.33333333333333337
3397 3304 -0.083333333333333329
3305 3305 0.33333333333333337
3306 3305 -0.083333333333333343
3306 3306 0.33333333333333337
3308 3306 -0.083333333333333343
3400 3306 -0.083333333333333329
3307 3307 0.33333333333333337
3309 3307 -0.083333333333333343
3308 3308 0.33333333333333337
3309 3308 -0.083333333333333343
3309 3309 0.33333333333333337
3311 3309 -0.083333333333333343
3402 3309 -0.083333333333333329
3310 3310 0.33333333333333337
3312 3310 -0.083333333333333343
3311 3311 0.33333333333333337
3312 3311 -0.083333333333333343
3312 3312 0.33333333333333337
3314 3312 -0.083333333333333343
3405 3312 -0.083333333333333329
3313 3313 0.33333333333333337
3315 3313 -0.083333333333333343
3314 3314 0.33333333333333337
3315 3314 -0.083333333333333343
3315 3315 0.33333333333333337
3317 3315 -0.083333333333333343
3408 3315 -0.083333333333333329
3316 3316 0.33333333333333337
3318 3316 -0.083333333333333343
3317 3317 0.33333333333333337
3318 3317 -0.083333333333333343
3318 3318 0.33333333333333337
3320 3318 -0.083333333333333343
3411 3318 -0.083333333333333329
3319 3319 0.33333333333333337
3321 3319 -0.083333333333333343
3320 3320 0.33333333333333337
3321 3320 -0.083333333333333343
3321 3321 0.33333333333333337
3323 3321 -0.083333333333333343
3414 3321 -0.083333333333333329
3322 3322 0.33333333333333337
3324 3322 -0.083333333333333343
3323 3323 0.33333333333333337
3324 3323 -0.083333333333333343
3324 3324 0.33333333333333337
3326 3324 -0.083333333333333343
3417 3324 -0.083333333333333329
3325 3325 0.33333333333333337
3327 3325 -0.083333333333333343
3326 3326 0.33333333333333337
3327 3326 -0.083333333333333343
3327 3327 0.33333333333333337
3329 3327 -0.083333333333333343
3420 3327 -0.083333333333333329
3328 3328 0.33333333333333337
3330 3328 -0.083333333333333343
3329 3329 0.33333333333333337
3330 3329 -0.083333333333333343
3330 3330 0.33333333333333337
3332 3330 -0.083333333333333343
3423 3330 -0.083333333333333329
3331 3331 0.33333333333333337
3333 3331 -0.083333333333333343
3332 3332 0.33333333333333337
3333 3332 -0.083333333333333343
3333 3333 0.33333333333333337
3335 3333 -0.083333333333333343
3426 3333 -0.083333333333333329
3334 3334 0.33333333333333337
3336 3334 -0.083333333333333343
3335 3335 0.33333333333333337
3336 3335 -0.083333333333333343
3336 3336 0.33333333333333337
3338 3336 -0.083333333333333343
3429 3336 -0.083333333333333329
3337 3337 0.33333333333333337
3339 3337 -0.083333333333333343
3338 3338 0.33333333333333337
3339 3338 -0.083333333333333343
3339 3339 0.33333333333333337
3341 3339 -0.083333333333333343
3432 3339 -0.083333333333333329
3340 3340 0.33333333333333337
3342 3340 -0.083333333333333343
3341 3341 0.33333333333333337
3342 3341 -0.083333333333333343
3342 3342 0.33333333333333337
3344 3342 -0.083333333333333343
3435 3342 -0.083333333333333329
3343 3343 0.33333333333333337
3345 3343 -0.083333333333333343
3344 3344 0.33333333333333337
3345 3344 -0.083333333333333343
3345 3345 0.33333333333333337
3347 3345 -0.083333333333333343
3438 3345 -0.083333333333333329
3346 3346 0.33333333333333337
3348 3346 -0.083333333333333343
3347 3347 0.33333333333333337
3348 3347 -0.083333333333333343
3348 3348 0.33333333333333337
3350 3348 -0.083333333333333343
3441 3348 -0.083333333333333329
3349 3349 0.33333333333333337
3351 3349 -0.083333333333333343
3350 3350 0.33333333333333337
3351 3350 -0.083333333333333343
3351 3351 0.33333333333333337
3353 3351 -0.083333333333333343
3444 3351 -0.083333333333333329
3352 3352 0.33333333333333337
3354 3352 -0.083333333333333343
3353 3353 0.33333333333333337
3354 3353 -0.083333333333333343
3354 3354 0.33333333333333337
3356 3354 -0.083333333333333343
3447 3354 -0.083333333333333329
3355 3355 0.33333333333333337
3357 3355 -0.083333333333333343
3356 3356 0.33333333333333337
3357 3356 -0.083333333333333343
3357 3357 0.33333333333333337
3359 3357 -0.083333333333333343
3450 3357 -0.083333333333333329
3358 3358 0.33333333333333337
3360 3358 -0.083333333333333343
3359 3359 0.33333333333333337
3360 3359 -0.083333333333333343
3360 3360 0.33333333333333337
3362 3360 -0.083333333333333343
3453 3360 -0.083333333333333329
3361 3361 0.33333333333333337
3363 3361 -0.083333333333333343
3362 3362 0.33333333333333337
3363 3362 -0.083333333333333343
3363 3363 0.33333333333333337
3365 3363 -0.083333333333333343
3456 3363 -0.083333333333333329
3364 3364 0.33333333333333337
3366 3364 -0.083333333333333343
3365 3365 0.33333333333333337
3366 3365 -0.083333333333333343
3366 3366 0.33333333333333337
3368 3366 -0.083333333333333343
3459 3366 -0.083333333333333329
3367 3367 0.33333333333333337
3369 3367 -0.083333333333333343
3368 3368 0.33333333333333337
3369 3368 -0.083333333333333343
3369 3369 0.33333333333333337
3371 3369 -0.083333333333333343
3462 3369 -0.083333333333333329
3370 3370 0.33333333333333337
3372 3370 -0.083333333333333343
3371 3371 0.33333333333333337
3372 3371 -0.083333333333333343
3372 3372 0.33333333333333337
3374 3372 -0.083333333333333343
3465 3372 -0.083333333333333329
3373 3373 0.33333333333333337
3375 3373 -0.083333333333333343
3374 3374 0.33333333333333337
3375 3374 -0.083333333333333343
3375 3375 0.33333333333333337
3377 3375 -0.083333333333333343
3468 3375 -0.083333333333333329
3376 3376 0.33333333333333337
3378 3376 -0.083333333333333343
3377 3377 0.33333333333333337
3378 3377 -0.083333333333333343
3378 3378 0.33333333333333337
3380 3378 -0.083333333333333343
3471 3378 -0.083333333333333329
3379 3379 0.33333333333333337
3381 3379 -0.083333333333333343
3380 3380 0.33333333333333337
3381 3380 -0.083333333333333343
3381 3381 0.33333333333333337
3383 3381 -0.083333333333333343
3474 3381 -0.083333333333333329
3382 3382 0.33333333333333337
3384 3382 -0.083333333333333343
3383 3383 0.33333333333333337
3384 3383 -0.083333333333333343
3384 3384 0.33333333333333337
3386 3384 -0.083333333333333343
3477 3384 -0.083333333333333329
3385 3385 0.33333333333333337
3387 3385 -0.083333333333333343
3386 3386 0.33333333333333337
3387 3386 -0.083333333333333343
3387 3387 0.33333333333333337
3389 3387 -0.083333333333333343
3480 3387 -0.083333333333333329
3388 3388 0.33333333333333337
3390 3388 -0.083333333333333343
3389 3389 0.33333333333333337
3390 3389 -0.083333333333333343
3390 3390 0.33333333333333337
3392 3390 -0.083333333333333343
3483 3390 -0.083333333333333329
3391 3391 0.33333333333333337
3393 3391 -0.083333333333333343
3392 3392 0.33333333333333337
3393 3392 -0.083333333333333343
3393 3393 0.33333333333333337
3395 3393 -0.083333333333333343
3486 3393 -0.083333333333333329
3394 3394 0.33333333333333337
3396 3394 -0.083333333333333343
3395 3395 0.33333333333333337
3396 3395 -0.083333333333333343
3396 3396 0.33333333333333337
3398 3396 -0.083333333333333343
3489 3396 -0.083333333333333329
3397 3397 0.33333333333333337
3399 3397 -0.083333333333333343
3398 3398 0.33333333333333337
3399 3398 -0.083333333333333343
3399 3399 0.33333333333333337
3492 3399 -0.083333333333333329
3400 3400 0.33333333333333337
3401 3400 -0.083333333333333343
3401 3401 0.33333333333333337
3403 3401 -0.083333333333333343
3495 3401 -0.083333333333333329
3402 3402 0.33333333333333337
3404 3402 -0.083333333333333343
3403 3403 0.33333333333333337
3404 3403 -0.083333333333333343
3404 3404 0.33333333333333337
3406 3404 -0.083333333333333343
3497 3404 -0.083333333333333329
3405 3405 0.33333333333333337
3407 3405 -0.083333333333333343
3406 3406 0.33333333333333337
3407 3406 -0.083333333333333343
3407 3407 0.33333333333333337
3409 3407 -0.083333333333333343
3500 3407 -0.083333333333333329
3408 3408 0.33333333333333337
3410 3408 -0.083333333333333343
3409 3409 0.33333333333333337
3410 3409 -0.083333333333333343
3410 3410 0.33333333333333337
3412 3410 -0.083333333333333343
3503 3410 -0.083333333333333329
3411 3411 0.33333333333333337
3413 3411 -0.083333333333333343
3412 3412 0.33333333333333337
3413 3412 -0.083333333333333343
3413 3413 0.33333333333333337
3415 3413 -0.083333333333333343
3506 3413 -0.083333333333333329
3414 3414 0.33333333333333337
3416 3414 -0.083333333333333343
3415 3415 0.33333333333333337
3416 3415 -0.083333333333333343
3416 3416 0.33333333333333337
3418 3416 -0.083333333333333343
3509 3416 -0.083333333333333329
3417 3417 0.33333333333333337
3419 3417 -0.083333333333333343
3418 3418 0.33333333333333337
3419 3418 -0.083333333333333343
3419 3419 0.33333333333333337
3421 3419 -0.083333333333333343
3512 3419 -0.083333333333333329
3420 3420 0.33333333333333337
3422 3420 -0.083333333333333343
3421 3421 0.33333333333333337
3422 3421 -0.083333333333333343
3422 3422 0.33333333333333337
3424 3422 -0.083333333333333343
3515 3422 -0.083333333333333329
3423 3423 0.33333333333333337
3425 3423 -0.083333333333333343
3424 3424 0.33333333333333337
3425 3424 -0.083333333333333343
3425 3425 0.33333333333333337
3427 3425 -0.083333333333333343
3518 3425 -0.083333333333333329
3426 3426 0.33333333333333337
3428 3426 -0.083333333333333343
3427 3427 0.33333333333333337
3428 3427 -0.083333333333333343
3428 3428 0.33333333333333337
3430 3428 -0.083333333333333343
3521 3428 -0.083333333333333329
3429 3429 0.33333333333333337
3431 3429 -0.083333333333333343
3430 3430 0.33333333333333337
3431 3430 -0.083333333333333343
3431 3431 0.33333333333333337
3433 3431 -0.083333333333333343
3524 3431 -0.083333333333333329
3432 3432 0.33333333333333337
3434 3432 -0.083333333333333343
3433 3433 0.33333333333333337
3434 3433 -0.083333333333333343
3434 3434 0.33333333333333337
3436 3434 -0.083333333333333343
3527 3434 -0.083333333333333329
3435 3435 0.33333333333333337
3437 3435 -0.083333333333333343
3436 3436 0.33333333333333337
3437 3436 -0.083333333333333343
3437 3437 0.33333333333333337
3439 3437 -0.083333333333333343
3530 3437 -0.083333333333333329
3438 3438 0.33333333333333337
3440 3438 -0.083333333333333343
3439 3439 0.33333333333333337
3440 3439 -0.083333333333333343
3440 3440 0.33333333333333337
3442 3440 -0.083333333333333343
3533 3440 -0.083333333333333329
3441 3441 0.33333333333333337
3443 3441 -0.083333333333333343
3442 3442 0.33333333333333337
3443 3442 -0.083333333333333343
3443 3443 0.33333333333333337
3445 3443 -0.083333333333333343
3536 3443 -0.083333333333333329
3444 3444 0.33333333333333337
3446 3444 -0.083333333333333343
3445 3445 0.33333333333333337
3446 3445 -0.083333333333333343
3446 3446 0.33333333333333337
3448 3446 -0.083333333333333343
3539 3446 -0.083333333333333329
3447 3447 0.33333333333333337
3449 3447 -0.083333333333333343
3448 3448 0.33333333333333337
3449 3448 -0.083333333333333343
3449 3449 0.33333333333333337
3451 3449 -0.083333333333333343
3542 3449 -0.083333333333333329
3450 3450 0.33333333333333337
3452 3450 -0.083333333333333343
3451 3451 0.33333333333333337
3452 3451 -0.083333333333333343
3452 3452 0.33333333333333337
3454 3452 -0.083333333333333343
3545 3452 -0.083333333333333329
3453 3453 0.33333333333333337
3455 3453 -0.083333333333333343
3454 3454 0.33333333333333337
3455 3454 -0.083333333333333343
3455 3455 0.33333333333333337
3457 3455 -0.083333333333333343
3548 3455 -0.083333333333333329
3456 3456 0.33333333333333337
3458 3456 -0.083333333333333343
3457 3457 0.33333333333333337
3458 3457 -0.083333333333333343
3458 3458 0.33333333333333337
3460 3458 -0.083333333333333343
3551 3458 -0.083333333333333329
3459 3459 0.33333333333333337
3461 3459 -0.083333333333333343
3460 3460 0.33333333333333337
3461 3460 -0.083333333333333343
3461 3461 0.33333333333333337
3463 3461 -0.083333333333333343
3554 3461 -0.083333333333333329
3462 3462 0.33333333333333337
3464 3462 -0.083333333333333343
3463 3463 0.33333333333333337
3464 3463 -0.083333333333333343
3464 3464 0.33333333333333337
3466 3464 -0.083333333333333343
3557 3464 -0.083333333333333329
3465 3465 0.33333333333333337
3467 3465 -0.083333333333333343
3466 3466 0.33333333333333337
3467 3466 -0.083333333333333343
3467 3467 0.33333333333333337
3469 3467 -0.083333333333333343
3560 3467 -0.083333333333333329
3468 3468 0.33333333333333337
3470 3468 -0.083333333333333343
3469 3469 0.33333333333333337
3470 3469 -0.083333333333333343
3470 3470 0.33333333333333337
3472 3470 -0.083333333333333343
3563 3470 -0.083333333333333329
3471 3471 0.33333333333333337
3473 3471 -0.083333333333333343
3472 3472 0.33333333333333337
3473 3472 -0.083333333333333343
3473 3473 0.33333333333333337
3475 3473 -0.083333333333333343
3566 3473 -0.083333333333333329
3474 3474 0.33333333333333337
3476 3474 -0.083333333333333343
3475 3475 0.33333333333333337
3476 3475 -0.083333333333333343
3476 3476 0.33333333333333337
3478 3476 -0.083333333333333343
3569 3476 -0.083333333333333329
3477 3477 0.33333333333333337
3479 3477 -0.083333333333333343
3478 3478 0.33333333333333337
3479 3478 -0.083333333333333343
3479 3479 0.33333333333333337
3481 3479 -0.083333333333333343
3572 3479 -0.083333333333333329
3480 3480 0.33333333333333337
3482 3480 -0.083333333333333343
3481 3481 0.33333333333333337
3482 3481 -0.083333333333333343
3482 3482 0.33333333333333337
3484 3482 -0.083333333333333343
3575 3482 -0.083333333333333329
3483 3483 0.33333333333333337
3485 3483 -0.083333333333333343
3484 3484 0.33333333333333337
3485 3484 -0.083333333333333343
3485 3485 0.33333333333333337
3487 3485 -0.083333333333333343
3578 3485 -0.083333333333333329
3486 3486 0.33333333333333337
3488 3486 -0.083333333333333343
3487 3487 0.33333333333333337
3488 3487 -0.083333333333333343
3488 3488 0.33333333333333337
3490 3488 -0.083333333333333343
3581 3488 -0.083333333333333329
3489 3489 0.33333333333333337
3491 3489 -0.083333333333333343
3490 3490 0.33333333333333337
3491 3490 -0.083333333333333343
3491 3491 0.33333333333333337
3493 3491 -0.083333333333333343
3584 3491 -0.083333333333333329
3492 3492 0.33333333333333337
3494 3492 -0.083333333333333343
3493 3493 0.33333333333333337
3494 3493 -0.083333333333333343
3494 3494 0.33333333333333337
3587 3494 -0.083333333333333329
3495 3495 0.33333333333333337
3496 3495 -0.083333333333333343
3496 3496 0.33333333333333337
3498 3496 -0.083333333333333343
3590 3496 -0.083333333333333329
3497 3497 0.33333333333333337
3499 3497 -0.083333333333333343
3498 3498 0.33333333333333337
3499 3498 -0.083333333333333343
3499 3499 0.33333333333333337
3501 3499 -0.083333333333333343
3592 3499 -0.083333333333333329
3500 3500 0.33333333333333337
3502 3500 -0.083333333333333343
3501 3501 0.33333333333333337
3502 3501 -0.083333333333333343
3502 3502 0.33333333333333337
3504 3502 -0.083333333333333343
3595 3502 -0.083333333333333329
3503 3503 0.33333333333333337
3505 3503 -0.083333333333333343
3504 3504 0.33333333333333337
3505 3504 -0.083333333333333343
3505 3505 0.33333333333333337
3507 3505 -0.083333333333333343
3598 3505 -0.083333333333333329
3506 3506 0.33333333333333337
3508 3506 -0.083333333333333343
3507 3507 0.33333333333333337
3508 3507 -0.083333333333333343
3508 3508 0.33333333333333337
3510 3508 -0.083333333333333343
3601 3508 -0.083333333333333329
3509 3509 0.33333333333333337
3511 3509 -0.083333333333333343
3510 3510 0.33333333333333337
3511 3510 -0.083333333333333343
3511 3511 0.33333333333333337
3513 3511 -0.083333333333333343
3604 3511 -0.083333333333333329
3512 3512 0.33333333333333337
3514 3512 -0.083333333333333343
3513 3513 0.33333333333333337
3514 3513 -0.083333333333333343
3514 3514 0.33333333333333337
3516 3514 -0.083333333333333343
3607 3514 -0.083333333333333329
3515 3515 0.33333333333333337
3517 3515 -0.083333333333333343
3516 3516 0.33333333333333337
3517 3516 -0.083333333333333343
3517 3517 0.33333333333333337
3519 3517 -0.083333333333333343
3610 3517 -0.083333333333333329
3518 3518 0.33333333333333337
3520 3518 -0.083333333333333343
3519 3519 0.33333333333333337
3520 3519 -0.083333333333333343
3520 3520 0.33333333333333337
3522 3520 -0.083333333333333343
3613 3520 -0.083333333333333329
3521 3521 0.33333333333333337
3523 3521 -0.083333333333333343
3522 3522 0.33333333333333337
3523 3522 -0.083333333333333343
3523 3523 0.33333333333333337
3525 3523 -0.083333333333333343
3616 3523 -0.083333333333333329
3524 3524 0.33333333333333337
3526 3524 -0.083333333333333343
3525 3525 0.33333333333333337
3526 3525 -0.083333333333333343
3526 3526 0.33333333333333337
3528 3526 -0.083333333333333343
3619 3526 -0.083333333333333329
3527 3527 0.33333333333333337
3529 3527 -0.083333333333333343
3528 3528 0.33333333333333337
3529 3528 -0.083333333333333343
3529 3529 0.33333333333333337
3531 3529 -0.083333333333333343
3622 3529 -0.083333333333333329
3530 3530 0.33333333333333337
3532 3530 -0.083333333333333343
3531 3531 0.33333333333333337
3532 3531 -0.083333333333333343
3532 3532 0.33333333333333337
3534 3532 -0.083333333333333343
3625 3532 -0.083333333333333329
3533 3533 0.33333333333333337
3535 3533 -0.083333333333333343
3534 3534 0.33333333333333337
3535 3534 -0.083333333333333343
3535 3535 0.33333333333333337
3537 3535 -0.083333333333333343
3628 3535 -0.083333333333333329
3536 3536 0.33333333333333337
3538 3536 -0.083333333333333343
3537 3537 0.33333333333333337
3538 3537 -0.083333333333333343
3538 3538 0.33333333333333337
3540 3538 -0.083333333333333343
3631 3538 -0.083333333333333329
3539 3539 0.33333333333333337
3541 3539 -0.083333333333333343
3540 3540 0.33333333333333337
3541 3540 -0.083333333333333343
3541 3541 0.33333333333333337
3543 3541 -0.083333333333333343
3634 3541 -0.083333333333333329
3542 3542 0.33333333333333337
3544 3542 -0.083333333333333343
3543 3543 0.33333333333333337
3544 3543 -0.083333333333333343
3544 3544 0.33333333333333337
3546 3544 -0.083333333333333343
3637 3544 -0.083333333333333329
3545 3545 0.33333333333333337
3547 3545 -0.083333333333333343
3546 3546 0.33333333333333337
3547 3546 -0.083333333333333343
3547 3547 0.33333333333333337
3549 3547 -0.083333333333333343
3640 3547 -0.083333333333333329
3548 3548 0.33333333333333337
3550 3548 -0.083333333333333343
3549 3549 0.33333333333333337
3550 3549 -0.083333333333333343
3550 3550 0.33333333333333337
3552 3550 -0.083333333333333343
3643 3550 -0.083333333333333329
3551 3551 0.33333333333333337
3553 3551 -0.083333333333333343
3552 3552 0.33333333333333337
3553 3552 -0.083333333333333343
3553 3553 0.33333333333333337
3555 3553 -0.083333333333333343
3646 3553 -0.083333333333333329
3554 3554 0.33333333333333337
3556 3554 -0.083333333333333343
3555 3555 0.33333333333333337
3556 3555 -0.083333333333333343
3556 3556 0.33333333333333337
3558 3556 -0.083333333333333343
3649 3556 -0.083333333333333329
3557 3557 0.33333333333333337
3559 3557 -0.083333333333333343
3558 3558 0.33333333333333337
3559 3558 -0.083333333333333343
3559 3559 0.33333333333333337
3561 3559 -0.083333333333333343
3652 3559 -0.083333333333333329
3560 3560 0.33333333333333337
3562 3560 -0.083333333333333343
3561 3561 0.33333333333333337
3562 3561 -0.083333333333333343
3562 3562 0.33333333333333337
3564 3562 -0.083333333333333343
3655 3562 -0.083333333333333329
3563 3563 0.33333333333333337
3565 3563 -0.083333333333333343
3564 3564 0.33333333333333337
3565 3564 -0.083333333333333343
3565 3565 0.33333333333333337
3567 3565 -0.083333333333333343
3658 3565 -0.083333333333333329
3566 3566 0.33333333333333337
3568 3566 -0.083333333333333343
3567 3567 0.33333333333333337
3568 3567 -0.083333333333333343
3568 3568 0.33333333333333337
3570 3568 -0.083333333333333343
3661 3568 -0.083333333333333329
3569 3569 0.33333333333333337
3571 3569 -0.083333333333333343
3570 3570 0.33333333333333337
3571 3570 -0.083333333333333343
3571 3571 0.33333333333333337
3573 3571 -0.083333333333333343
3664 3571 -0.083333333333333329
3572 3572 0.33333333333333337
3574 3572 -0.083333333333333343
3573 3573 0.33333333333333337
3574 3573 -0.083333333333333343
3574 3574 0.33333333333333337
3576 3574 -0.083333333333333343
3667 3574 -0.083333333333333329
3575 3575 0.33333333333333337
3577 3575 -0.083333333333333343
3576 3576 0.33333333333333337
3577 3576 -0.083333333333333343
3577 3577 0.33333333333333337
3579 3577 -0.083333333333333343
3670 3577 -0.083333333333333329
3578 3578 0.33333333333333337
3580 3578 -0.083333333333333343
3579 3579 0.33333333333333337
3580 3579 -0.083333333333333343
3580 3580 0.33333333333333337
3582 3580 -0.083333333333333343
3673 3580 -0.083333333333333329
3581 3581 0.33333333333333337
3583 3581 -0.083333333333333343
3582 3582 0.33333333333333337
3583 3582 -0.083333333333333343
3583 3583 0.33333333333333337
3585 3583 -0.083333333333333343
3676 3583 -0.083333333333333329
3584 3584 0.33333333333333337
3586 3584 -0.083333333333333343
3585 3585 0.33333333333333337
3586 3585 -0.083333333333333343
3586 3586 0.33333333333333337
3588 3586 -0.083333333333333343
3679 3586 -0.083333333333333329
3587 3587 0.33333333333333337
3589 3587 -0.083333333333333343
3588 3588 0.33333333333333337
3589 3588 -0.083333333333333343
3589 3589 0.33333333333333337
3682 3589 -0.083333333333333329
3590 3590 0.33333333333333337
3591 3590 -0.083333333333333343
3591 3591 0.33333333333333337
3593 3591 -0.083333333333333343
3685 3591 -0.083333333333333329
3592 3592 0.33333333333333337
3594 3592 -0.083333333333333343
3593 3593 0.33333333333333337
3594 3593 -0.083333333333333343
3594 3594 0.33333333333333337
3596 3594 -0.083333333333333343
3687 3594 -0.083333333333333329
3595 3595 0.33333333333333337
3597 3595 -0.083333333333333343
3596 3596 0.33333333333333337
3597 3596 -0.083333333333333343
3597 3597 0.33333333333333337
3599 3597 -0.083333333333333343
3690 3597 -0.083333333333333329
3598 3598 0.33333333333333337
3600 3598 -0.083333333333333343
3599 3599 0.33333333333333337
3600 3599 -0.083333333333333343
3600 3600 0.33333333333333337
3602 3600 -0.083333333333333343
3693 3600 -0.083333333333333329
3601 3601 0.33333333333333337
3603 3601 -0.083333333333333343
3602 3602 0.33333333333333337
3603 3602 -0.083333333333333343
3603 3603 0.33333333333333337
3605 3603 -0.083333333333333343
3696 3603 -0.083333333333333329
3604 3604 0.33333333333333337
3606 3604 -0.083333333333333343
3605 3605 0.33333333333333337
3606 3605 -0.083333333333333343
3606 3606 0.33333333333333337
3608 3606 -0.083333333333333343
3699 3606 -0.083333333333333329
3607 3607 0.33333333333333337
3609 3607 -0.083333333333333343
3608 3608 0.33333333333333337
3609 3608 -0.083333333333333343
3609 3609 0.33333333333333337
3611 3609 -0.083333333333333343
3702 3609 -0.083333333333333329
3610 3610 0.33333333333333337
3612 3610 -0.083333333333333343
3611 3611 0.33333333333333337
3612 3611 -0.083333333333333343
3612 3612 0.33333333333333337
3614 3612 -0.083333333333333343
3705 3612 -0.083333333333333329
3613 3613 0.33333333333333337
3615 3613 -0.083333333333333343
3614 3614 0.33333333333333337
3615 3614 -0.083333333333333343
3615 3615 0.33333333333333337
3617 3615 -0.083333333333333343
3708 3615 -0.083333333333333329
3616 3616 0.33333333333333337
3618 3616 -0.083333333333333343
3617 3617 0.33333333333333337
3618 3617 -0.083333333333333343
3618 3618 0.33333333333333337
3620 3618 -0.083333333333333343
3711 3618 -0.083333333333333329
3619 3619 0.33333333333333337
3621 3619 -0.083333333333333343
3620 3620 0.33333333333333337
3621 3620 -0.083333333333333343
3621 3621 0.33333333333333337
3623 3621 -0.083333333333333343
3714 3621 -0.083333333333333329
3622 3622 0.33333333333333337
3624 3622 -0.083333333333333343
3623 3623 0.33333333333333337
3624 3623 -0.083333333333333343
3624 3624 0.33333333333333337
3626 3624 -0.083333333333333343
3717 3624 -0.083333333333333329
3625 3625 0.33333333333333337
3627 3625 -0.083333333333333343
3626 3626 0.33333333333333337
3627 3626 -0.083333333333333343
3627 3627 0.33333333333333337
3629 3627 -0.083333333333333343
3720 3627 -0.083333333333333329
3628 3628 0.33333333333333337
3630 3628 -0.083333333333333343
3629 3629 0.33333333333333337
3630 3629 -0.083333333333333343
3630 3630 0.33333333333333337
3632 3630 -0.083333333333333343
3723 3630 -0.083333333333333329
3631 3631 0.33333333333333337
3633 3631 -0.083333333333333343
3632 3632 0.33333333333333337
3633 3632 -0.083333333333333343
3633 3633 0.33333333333333337
3635 3633 -0.083333333333333343
3726 3633 -0.083333333333333329
3634 3634 0.33333333333333337
3636 3634 -0.083333333333333343
3635 3635 0.33333333333333337
3636 3635 -0.083333333333333343
3636 3636 0.33333333333333337
3638 3636 -0.083333333333333343
3729 3636 -0.083333333333333329
3637 3637 0.33333333333333337
3639 3637 -0.083333333333333343
3638 3638 0.33333333333333337
3639 3638 -0.083333333333333343
3639 3639 0.33333333333333337
3641 3639 -0.083333333333333343
3732 3639 -0.083333333333333329
3640 3640 0.33333333333333337
3642 3640 -0.083333333333333343
3641 3641 0.33333333333333337
3642 3641 -0.083333333333333343
3642 3642 0.33333333333333337
3644 3642 -0.083333333333333343
3735 3642 -0.083333333333333329
3643 3643 0.33333333333333337
3645 3643 -0.083333333333333343
3644 3644 0.33333333333333337
3645 3644 -0.083333333333333343
3645 3645 0.33333333333333337
3647 3645 -0.083333333333333343
3738 3645 -0.083333333333333329
3646 3646 0.33333333333333337
3648 3646 -0.083333333333333343
3647 3647 0.33333333333333337
3648 3647 -0.083333333333333343
3648 3648 0.33333333333333337
3650 3648 -0.083333333333333343
3741 3648 -0.083333333333333329
3649 3649 0.33333333333333337
3651 3649 -0.083333333333333343
3650 3650 0.33333333333333337
3651 3650 -0.083333333333333343
3651 3651 0.33333333333333337
3653 3651 -0.083333333333333343
3744 3651 -0.083333333333333329
3652 3652 0.33333333333333337
3654 3652 -0.083333333333333343
3653 3653 0.33333333333333337
3654 3653 -0.083333333333333343
3654 3654 0.33333333333333337
3656 3654 -0.083333333333333343
3747 3654 -0.083333333333333329
3655 3655 0.33333333333333337
3657 3655 -0.083333333333333343
3656 3656 0.33333333333333337
3657 3656 -0.083333333333333343
3657 3657 0.33333333333333337
3659 3657 -0.083333333333333343
3750 3657 -0.083333333333333329
3658 3658 0.33333333333333337
3660 3658 -0.083333333333333343
3659 3659 0.33333333333333337
3660 3659 -0.083333333333333343
3660 3660 0.33333333333333337
3662 3660 -0.083333333333333343
3753 3660 -0.083333333333333329
3661 3661 0.33333333333333337
3663 3661 -0.083333333333333343
3662 3662 0.33333333333333337
3663 3662 -0.083333333333333343
3663 3663 0.33333333333333337
3665 3663 -0.083333333333333343
3756 3663 -0.083333333333333329
3664 3664 0.33333333333333337
3666 3664 -0.083333333333333343
3665 3665 0.33333333333333337
3666 3665 -0.083333333333333343
3666 3666 0.33333333333333337
3668 3666 -0.083333333333333343
3759 3666 -0.083333333333333329
3667 3667 0.33333333333333337
3669 3667 -0.083333333333333343
3668 3668 0.33333333333333337
3669 3668 -0.083333333333333343
3669 3669 0.33333333333333337
3671 3669 -0.083333333333333343
3762 3669 -0.083333333333333329
3670 3670 0.33333333333333337
3672 3670 -0.083333333333333343
3671 3671 0.33333333333333337
3672 3671 -0.083333333333333343
3672 3672 0.33333333333333337
3674 3672 -0.083333333333333343
3765 3672 -0.083333333333333329
3673 3673 0.33333333333333337
3675 3673 -0.083333333333333343
3674 3674 0.33333333333333337
3675 3674 -0.083333333333333343
3675 3675 0.33333333333333337
3677 3675 -0.083333333333333343
3768 3675 -0.083333333333333329
3676 3676 0.33333333333333337
3678 3676 -0.083333333333333343
3677 3677 0.33333333333333337
3678 3677 -0.083333333333333343
3678 3678 0.33333333333333337
3680 3678 -0.083333333333333343
3771 3678 -0.083333333333333329
3679 3679 0.33333333333333337
3681 3679 -0.083333333333333343
3680 3680 0.33333333333333337
3681 3680 -0.083333333333333343
3681 3681 0.33333333333333337
3683 3681 -0.083333333333333343
3774 3681 -0.083333333333333329
3682 3682 0.33333333333333337
3684 3682 -0.083333333333333343
3683 3683 0.33333333333333337
3684 3683 -0.083333333333333343
3684 3684 0.33333333333333337
3777 3684 -0.083333333333333329
3685 3685 0.33333333333333337
3686 3685 -0.083333333333333343
3686 3686 0.33333333333333337
3688 3686 -0.083333333333333343
3780 3686 -0.083333333333333329
3687 3687 0.33333333333333337
3689 3687 -0.083333333333333343
3688 3688 0.33333333333333337
3689 3688 -0.083333333333333343
3689 3689 0.33333333333333337
3691 3689 -0.083333333333333343
3782 3689 -0.083333333333333329
3690 3690 0.33333333333333337
3692 3690 -0.083333333333333343
3691 3691 0.33333333333333337
3692 3691 -0.083333333333333343
3692 3692 0.33333333333333337
3694 3692 -0.083333333333333343
3785 3692 -0.083333333333333329
3693 3693 0.33333333333333337
3695 3693 -0.083333333333333343
3694 3694 0.33333333333333337
3695 3694 -0.083333333333333343
3695 3695 0.33333333333333337
3697 3695 -0.083333333333333343
3788 3695 -0.083333333333333329
3696 3696 0.33333333333333337
3698 3696 -0.083333333333333343
3697 3697 0.33333333333333337
3698 3697 -0.083333333333333343
3698 3698 0.33333333333333337
3700 3698 -0.083333333333333343
3791 3698 -0.083333333333333329
3699 3699 0.33333333333333337
3701 3699 -0.083333333333333343
3700 3700 0.33333333333333337
3701 3700 -0.083333333333333343
3701 3701 0.33333333333333337
3703 3701 -0.083333333333333343
3794 3701 -0.083333333333333329
3702 3702 0.33333333333333337
3704 3702 -0.083333333333333343
3703 3703 0.33333333333333337
3704 3703 -0.083333333333333343
3704 3704 0.33333333333333337
3706 3704 -0.083333333333333343
3797 3704 -0.083333333333333329
3705 3705 0.33333333333333337
3707 3705 -0.083333333333333343
3706 3706 0.33333333333333337
3707 3706 -0.083333333333333343
3707 3707 0.33333333333333337
3709 3707 -0.083333333333333343
3800 3707 -0.083333333333333329
3708 3708 0.33333333333333337
3710 3708 -0.083333333333333343
3709 3709 0.33333333333333337
3710 3709 -0.083333333333333343
3710 3710 0.33333333333333337
3712 3710 -0.083333333333333343
3803 3710 -0.083333333333333329
3711 3711 0.33333333333333337
3713 3711 -0.083333333333333343
3712 3712 0.33333333333333337
3713 3712 -0.083333333333333343
3713 3713 0.33333333333333337
3715 3713 -0.083333333333333343
3806 3713 -0.083333333333333329
3714 3714 0.33333333333333337
3716 3714 -0.083333333333333343
3715 3715 0.33333333333333337
3716 3715 -0.083333333333333343
3716 3716 0.33333333333333337
3718 3716 -0.083333333333333343
3809 3716 -0.083333333333333329
3717 3717 0.33333333333333337
3719 3717 -0.083333333333333343
3718 3718 0.33333333333333337
3719 3718 -0.083333333333333343
3719 3719 0.33333333333333337
3721 3719 -0.083333333333333343
3812 3719 -0.083333333333333329
3720 3720 0.33333333333333337
3722 3720 -0.083333333333333343
3721 3721 0.33333333333333337
3722 3721 -0.083333333333333343
3722 3722 0.33333333333333337
3724 3722 -0.083333333333333343
3815 3722 -0.083333333333333329
3723 3723 0.33333333333333337
3725 3723 -0.083333333333333343
3724 3724 0.33333333333333337
3725 3724 -0.083333333333333343
3725 3725 0.33333333333333337
3727 3725 -0.083333333333333343
3818 3725 -0.083333333333333329
3726 3726 0.33333333333333337
3728 3726 -0.083333333333333343
3727 3727 0.33333333333333337
3728 3727 -0.083333333333333343
3728 3728 0.33333333333333337
3730 3728 -0.083333333333333343
3821 3728 -0.083333333333333329
3729 3729 0.33333333333333337
3731 3729 -0.083333333333333343
3730 3730 0.33333333333333337
3731 3730 -0.083333333333333343
3731 3731 0.33333333333333337
3733 3731 -0.083333333333333343
3824 3731 -0.083333333333333329
3732 3732 0.33333333333333337
3734 3732 -0.083333333333333343
3733 3733 0.33333333333333337
3734 3733 -0.083333333333333343
3734 3734 0.33333333333333337
3736 3734 -0.083333333333333343
3827 3734 -0.083333333333333329
3735 3735 0.33333333333333337
3737 3735 -0.083333333333333343
3736 3736 0.33333333333333337
3737 3736 -0.083333333333333343
3737 3737 0.33333333333333337
3739 3737 -0.083333333333333343
3830 3737 -0.083333333333333329
3738 3738 0.33333333333333337
3740 3738 -0.083333333333333343
3739 3739 0.33333333333333337
3740 3739 -0.083333333333333343
3740 3740 0.33333333333333337
3742 3740 -0.083333333333333343
3833 3740 -0.083333333333333329
3741 3741 0.33333333333333337
3743 3741 -0.083333333333333343
3742 3742 0.33333333333333337
3743 3742 -0.083333333333333343
3743 3743 0.33333333333333337
3745 3743 -0.083333333333333343
3836 3743 -0.083333333333333329
3744 3744 0.33333333333333337
3746 3744 -0.083333333333333343
3745 3745 0.33333333333333337
3746 3745 -0.083333333333333343
3746 3746 0.33333333333333337
3748 3746 -0.083333333333333343
3839 3746 -0.083333333333333329
3747 3747 0.33333333333333337
3749 3747 -0.083333333333333343
3748 3748 0.33333333333333337
3749 3748 -0.083333333333333343
3749 3749 0.33333333333333337
3751 3749 -0.083333333333333343
3842 3749 -0.083333333333333329
3750 3750 0.33333333333333337
3752 3750 -0.083333333333333343
3751 3751 0.33333333333333337
3752 3751 -0.083333333333333343
3752 3752 0.33333333333333337
3754 3752 -0.083333333333333343
3845 3752 -0.083333333333333329
3753 3753 0.33333333333333337
3755 3753 -0.083333333333333343
3754 3754 0.33333333333333337
3755 3754 -0.083333333333333343
3755 3755 0.33333333333333337
3757 3755 -0.083333333333333343
3848 3755 -0.083333333333333329
3756 3756 0.33333333333333337
3758 3756 -0.083333333333333343
3757 3757 0.33333333333333337
3758 3757 -0.083333333333333343
3758 3758 0.33333333333333337
3760 3758 -0.083333333333333343
3851 3758 -0.083333333333333329
3759 3759 0.33333333333333337
3761 3759 -0.083333333333333343
3760 3760 0.33333333333333337
3761 3760 -0.083333333333333343
3761 3761 0.33333333333333337
3763 3761 -0.083333333333333343
3854 3761 -0.083333333333333329
3762 3762 0.33333333333333337
3764 3762 -0.083333333333333343
3763 3763 0.33333333333333337
3764 3763 -0.083333333333333343
3764 3764 0.33333333333333337
3766 3764 -0.083333333333333343
3857 3764 -0.083333333333333329
3765 3765 0.33333333333333337
3767 3765 -0.083333333333333343
3766 3766 0.33333333333333337
3767 3766 -0.083333333333333343
3767 3767 0.33333333333333337
3769 3767 -0.083333333333333343
3860 3767 -0.083333333333333329
3768 3768 0.33333333333333337
3770 3768 -0.083333333333333343
3769 3769 0.33333333333333337
3770 3769 -0.083333333333333343
3770 3770 0.33333333333333337
3772 3770 -0.083333333333333343
3863 3770 -0.083333333333333329
3771 3771 0.33333333333333337
3773 3771 -0.083333333333333343
3772 3772 0.33333333333333337
3773 3772 -0.083333333333333343
3773 3773 0.33333333333333337
3775 3773 -0.083333333333333343
3866 3773 -0.083333333333333329
3774 3774 0.33333333333333337
3776 3774 -0.083333333333333343
3775 3775 0.33333333333333337
3776 3775 -0.083333333333333343
3776 3776 0.33333333333333337
3778 3776 -0.083333333333333343
3869 3776 -0.083333333333333329
3777 3777 0.33333333333333337
3779 3777 -0.083333333333333343
3778 3778 0.33333333333333337
3779 3778 -0.083333333333333343
3779 3779 0.33333333333333337
3872 3779 -0.083333333333333329
3780 3780 0.33333333333333337
3781 3780 -0.083333333333333343
3781 3781 0.33333333333333337
3783 3781 -0.083333333333333343
3875 3781 -0.083333333333333329
3782 3782 0.33333333333333337
3784 3782 -0.083333333333333343
3783 3783 0.33333333333333337
3784 3783 -0.083333333333333343
3784 3784 0.33333333333333337
3786 3784 -0.083333333333333343
3877 3784 -0.083333333333333329
3785 3785 0.33333333333333337
3787 3785 -0.083333333333333343
3786 3786 0.33333333333333337
3787 3786 -0.083333333333333343
3787 3787 0.33333333333333337
3789 3787 -0.083333333333333343
3880 3787 -0.083333333333333329
3788 3788 0.33333333333333337
3790 3788 -0.083333333333333343
3789 3789 0.33333333333333337
3790 3789 -0.083333333333333343
3790 3790 0.33333333333333337
3792 3790 -0.083333333333333343
3883 3790 -0.083333333333333329
3791 3791 0.33333333333333337
3793 3791 -0.083333333333333343
3792 3792 0.33333333333333337
3793 3792 -0.083333333333333343
3793 3793 0.33333333333333337
3795 3793 -0.083333333333333343
3886 3793 -0.083333333333333329
3794 3794 0.33333333333333337
3796 3794 -0.083333333333333343
3795 3795 0.33333333333333337
3796 3795 -0.083333333333333343
3796 3796 0.33333333333333337
3798 3796 -0.083333333333333343
3889 3796 -0.083333333333333329
3797 3797 0.33333333333333337
3799 3797 -0.083333333333333343
3798 3798 0.33333333333333337
3799 3798 -0.083333333333333343
3799 3799 0.33333333333333337
3801 3799 -0.083333333333333343
3892 3799 -0.083333333333333329
3800 3800 0.33333333333333337
3802 3800 -0.083333333333333343
3801 3801 0.33333333333333337
3802 3801 -0.083333333333333343
3802 3802 0.33333333333333337
3804 3802 -0.083333333333333343
3895 3802 -0.083333333333333329
3803 3803 0.33333333333333337
3805 3803 -0.083333333333333343
3804 3804 0.33333333333333337
3805 3804 -0.083333333333333343
3805 3805 0.33333333333333337
3807 3805 -0.083333333333333343
3898 3805 -0.083333333333333329
3806 3806 0.33333333333333337
3808 3806 -0.083333333333333343
3807 3807 0.33333333333333337
3808 3807 -0.083333333333333343
3808 3808 0.33333333333333337
3810 3808 -0.083333333333333343
3901 3808 -0.083333333333333329
3809 3809 0.33333333333333337
3811 3809 -0.083333333333333343
3810 3810 0.33333333333333337
3811 3810 -0.083333333333333343
3811 3811 0.33333333333333337
3813 3811 -0.083333333333333343
3904 3811 -0.083333333333333329
3812 3812 0.33333333333333337
3814 3812 -0.083333333333333343
3813 3813 0.33333333333333337
3814 3813 -0.083333333333333343
3814 3814 0.33333333333333337
3816 3814 -0.083333333333333343
3907 3814 -0.083333333333333329
3815 3815 0.33333333333333337
3817 3815 -0.083333333333333343
3816 3816 0.33333333333333337
3817 3816 -0.083333333333333343
3817 3817 0.33333333333333337
3819 3817 -0.083333333333333343
3910 3817 -0.083333333333333329
3818 3818 0.33333333333333337
3820 3818 -0.083333333333333343
3819 3819 0.33333333333333337
3820 3819 -0.083333333333333343
3820 3820 0.33333333333333337
3822 3820 -0.083333333333333343
3913 3820 -0.083333333333333329
3821 3821 0.33333333333333337
3823 3821 -0.083333333333333343
3822 3822 0.33333333333333337
3823 3822 -0.083333333333333343
3823 3823 0.33333333333333337
3825 3823 -0.083333333333333343
3916 3823 -0.083333333333333329
3824 3824 0.33333333333333337
3826 3824 -0.083333333333333343
3825 3825 0.33333333333333337
3826 3825 -0.083333333333333343
3826 3826 0.33333333333333337
3828 3826 -0.083333333333333343
3919 3826 -0.083333333333333329
3827 3827 0.33333333333333337
3829 3827 -0.083333333333333343
3828 3828 0.33333333333333337
3829 3828 -0.083333333333333343
3829 3829 0.33333333333333337
3831 3829 -0.083333333333333343
3922 3829 -0.083333333333333329
3830 3830 0.33333333333333337
3832 3830 -0.083333333333333343
3831 3831 0.33333333333333337
3832 3831 -0.083333333333333343
3832 3832 0.33333333333333337
3834 3832 -0.083333333333333343
3925 3832 -0.083333333333333329
3833 3833 0.33333333333333337
3835 3833 -0.083333333333333343
3834 3834 0.33333333333333337
3835 3834 -0.083333333333333343
3835 3835 0.33333333333333337
3837 3835 -0.083333333333333343
3928 3835 -0.083333333333333329
3836 3836 0.33333333333333337
3838 3836 -0.083333333333333343
3837 3837 0.33333333333333337
3838 3837 -0.083333333333333343
3838 3838 0.33333333333333337
3840 3838 -0.083333333333333343
3931 3838 -0.083333333333333329
3839 3839 0.33333333333333337
3841 3839 -0.083333333333333343
3840 3840 0.33333333333333337
3841 3840 -0.083333333333333343
3841 3841 0.33333333333333337
3843 3841 -0.083333333333333343
3934 3841 -0.083333333333333329
3842 3842 0.33333333333333337
3844 3842 -0.083333333333333343
3843 3843 0.33333333333333337
3844 3843 -0.083333333333333343
3844 3844 0.33333333333333337
3846 3844 -0.083333333333333343
3937 3844 -0.083333333333333329
3845 3845 0.33333333333333337
3847 3845 -0.083333333333333343
3846 3846 0.33333333333333337
3847 3846 -0.083333333333333343
3847 3847 0.33333333333333337
3849 3847 -0.083333333333333343
3940 3847 -0.083333333333333329
3848 3848 0.33333333333333337
3850 3848 -0.083333333333333343
3849 3849 0.33333333333333337
3850 3849 -0.083333333333333343
3850 3850 0.33333333333333337
3852 3850 -0.083333333333333343
3943 3850 -0.083333333333333329
3851 3851 0.33333333333333337
3853 3851 -0.083333333333333343
3852 3852 0.33333333333333337
3853 3852 -0.083333333333333343
3853 3853 0.33333333333333337
3855 3853 -0.083333333333333343
3946 3853 -0.083333333333333329
3854 3854 0.33333333333333337
3856 3854 -0.083333333333333343
3855 3855 0.33333333333333337
3856 3855 -0.083333333333333343
3856 3856 0.33333333333333337
3858 3856 -0.083333333333333343
3949 3856 -0.083333333333333329
3857 3857 0.33333333333333337
3859 3857 -0.083333333333333343
3858 3858 0.33333333333333337
3859 3858 -0.083333333333333343
3859 3859 0.33333333333333337
3861 3859 -0.083333333333333343
3952 3859 -0.083333333333333329
3860 3860 0.33333333333333337
3862 3860 -0.083333333333333343
3861 3861 0.33333333333333337
3862 3861 -0.083333333333333343
3862 3862 0.33333333333333337
3864 3862 -0.083333333333333343
3955 3862 -0.083333333333333329
3863 3863 0.33333333333333337
3865 3863 -0.083333333333333343
3864 3864 0.33333333333333337
3865 3864 -0.083333333333333343
3865 3865 0.33333333333333337
3867 3865 -0.083333333333333343
3958 3865 -0.083333333333333329
3866 3866 0.33333333333333337
3868 3866 -0.083333333333333343
3867 3867 0.33333333333333337
3868 3867 -0.083333333333333343
3868 3868 0.33333333333333337
3870 3868 -0.083333333333333343
3961 3868 -0.083333333333333329
3869 3869 0.33333333333333337
3871 3869 -0.083333333333333343
3870 3870 0.33333333333333337
3871 3870 -0.083333333333333343
3871 3871 0.33333333333333337
3873 3871 -0.083333333333333343
3964 3871 -0.083333333333333329
3872 3872 0.33333333333333337
3874 3872 -0.083333333333333343
3873 3873 0.33333333333333337
3874 3873 -0.083333333333333343
3874 3874 0.33333333333333337
3967 3874 -0.083333333333333329
3875 3875 0.33333333333333337
3876 3875 -0.083333333333333343
3876 3876 0.33333333333333337
3878 3876 -0.083333333333333343
3877 3877 0.33333333333333337
3879 3877 -0.083333333333333343
3878 3878 0.33333333333333337
3879 3878 -0.083333333333333343
3879 3879 0.33333333333333337
3881 3879 -0.083333333333333343
3880 3880 0.33333333333333337
3882 3880 -0.083333333333333343
3881 3881 0.33333333333333337
3882 3881 -0.083333333333333343
3882 3882 0.33333333333333337
3884 3882 -0.083333333333333343
3883 3883 0.33333333333333337
3885 3883 -0.083333333333333343
3884 3884 0.33333333333333337
3885 3884 -0.083333333333333343
3885 3885 0.33333333333333337
3887 3885 -0.083333333333333343
3886 3886 0.33333333333333337
3888 3886 -0.083333333333333343
3887 3887 0.33333333333333337
3888 3887 -0.083333333333333343
3888 3888 0.33333333333333337
3890 3888 -0.083333333333333343
3889 3889 0.33333333333333337
3891 3889 -0.083333333333333343
3890 3890 0.33333333333333337
3891 3890 -0.083333333333333343
3891 3891 0.33333333333333337
3893 3891 -0.083333333333333343
3892 3892 0.33333333333333337
3894 3892 -0.083333333333333343
3893 3893 0.33333333333333337
3894 3893 -0.083333333333333343
3894 3894 0.33333333333333337
3896 3894 -0.083333333333333343
3895 3895 0.33333333333333337
3897 3895 -0.083333333333333343
3896 3896 0.33333333333333337
3897 3896 -0.083333333333333343
3897 3897 0.33333333333333337
3899 3897 -0.083333333333333343
3898 3898 0.33333333333333337
3900 3898 -0.083333333333333343
3899 3899 0.33333333333333337
3900 3899 -0.083333333333333343
3900 3900 0.33333333333333337
3902 3900 -0.083333333333333343
3901 3901 0.33333333333333337
3903 3901 -0.083333333333333343
3902 3902 0.33333333333333337
3903 3902 -0.083333333333333343
3903 3903 0.33333333333333337
3905 3903 -0.083333333333333343
3904 3904 0.33333333333333337
3906 3904 -0.083333333333333343
3905 3905 0.33333333333333337
3906 3905 -0.083333333333333343
3906 3906 0.33333333333333337
3908 3906 -0.083333333333333343
3907 3907 0.33333333333333337
3909 3907 -0.083333333333333343
3908 3908 0.33333333333333337
3909 3908 -0.083333333333333343
3909 3909 0.33333333333333337
3911 3909 -0.083333333333333343
3910 3910 0.33333333333333337
3912 3910 -0.083333333333333343
3911 3911 0.33333333333333337
3912 3911 -0.083333333333333343
3912 3912 0.33333333333333337
3914 3912 -0.083333333333333343
3913 3913 0.33333333333333337
3915 3913 -0.083333333333333343
3914 3914 0.33333333333333337
3915 3914 -0.083333333333333343
3915 3915 0.33333333333333337
3917 3915 -0.083333333333333343
3916 3916 0.33333333333333337
3918 3916 -0.083333333333333343
3917 3917 0.33333333333333337
3918 3917 -0.083333333333333343
3918 3918 0.33333333333333337
3920 3918 -0.083333333333333343
3919 3919 0.33333333333333337
3921 3919 -0.083333333333333343
3920 3920 0.33333333333333337
3921 3920 -0.083333333333333343
3921 3921 0.33333333333333337
3923 3921 -0.083333333333333343
3922 3922 0.33333333333333337
3924 3922 -0.083333333333333343
3923 3923 0.33333333333333337
3924 3923 -0.083333333333333343
3924 3924 0.33333333333333337
3926 3924 -0.083333333333333343
3925 3925 0.33333333333333337
3927 3925 -0.083333333333333343
3926 3926 0.33333333333333337
3927 3926 -0.083333333333333343
3927 3927 0.33333333333333337
3929 3927 -0.083333333333333343
3928 3928 0.33333333333333337
3930 3928 -0.083333333333333343
3929 3929 0.33333333333333337
3930 3929 -0.083333333333333343
3930 3930 0.33333333333333337
3932 3930 -0.083333333333333343
3931 3931 0.33333333333333337
3933 3931 -0.083333333333333343
3932 3932 0.33333333333333337
3933 3932 -0.083333333333333343
3933 3933 0.33333333333333337
3935 3933 -0.083333333333333343
3934 3934 0.33333333333333337
3936 3934 -0.083333333333333343
3935 3935 0.33333333333333337
3936 3935 -0.083333333333333343
3936 3936 0.33333333333333337
3938 3936 -0.083333333333333343
3937 3937 0.33333333333333337
3939 3937 -0.083333333333333343
3938 3938 0.33333333333333337
3939 3938 -0.083333333333333343
3939 3939 0.33333333333333337
3941 3939 -0.083333333333333343
3940 3940 0.33333333333333337
3942 3940 -0.083333333333333343
3941 3941 0.33333333333333337
3942 3941 -0.083333333333333343
3942 3942 0.33333333333333337
3944 3942 -0.083333333333333343
3943 3943 0.33333333333333337
3945 3943 -0.083333333333333343
3944 3944 0.33333333333333337
3945 3944 -0.083333333333333343
3945 3945 0.33333333333333337
3947 3945 -0.083333333333333343
3946 3946 0.33333333333333337
3948 3946 -0.083333333333333343
3947 3947 0.33333333333333337
3948 3947 -0.083333333333333343
3948 3948 0.33333333333333337
3950 3948 -0.083333333333333343
3949 3949 0.33333333333333337
3951 3949 -0.083333333333333343
3950 3950 0.33333333333333337
3951 3950 -0.083333333333333343
3951 3951 0.33333333333333337
3953 3951 -0.083333333333333343
3952 3952 0.33333333333333337
3954 3952 -0.083333333333333343
3953 3953 0.33333333333333337
3954 3953 -0.083333333333333343
3954 3954 0.33333333333333337
3956 3954 -0.083333333333333343
3955 3955 0.33333333333333337
3957 3955 -0.083333333333333343
3956 3956 0.33333333333333337
3957 3956 -0.083333333333333343
3957 3957 0.33333333333333337
3959 3957 -0.083333333333333343
3958 3958 0.33333333333333337
3960 3958 -0.083333333333333343
3959 3959 0.33333333333333337
3960 3959 -0.083333333333333343
3960 3960 0.33333333333333337
3962 3960 -0.083333333333333343
3961 3961 0.33333333333333337
3963 3961 -0.083333333333333343
3962 3962 0.33333333333333337
3963 3962 -0.083333333333333343
3963 3963 0.33333333333333337
3965 3963 -0.083333333333333343
3964 3964 0.33333333333333337
3966 3964 -0.083333333333333343
3965 3965 0.33333333333333337
3966 3965 -0.083333333333333343
3966 3966 0.33333333333333337
3968 3966 -0.083333333333333343
3967 3967 0.33333333333333337
3969 3967 -0.083333333333333343
3968 3968 0.33333333333333337
3969 3968 -0.083333333333333343
3969 3969 0.33333333333333337
