%%MatrixMarket matrix coordinate real symmetric
% square_p1_n16 mass M[int,int], mesh=unit_square_16 p=1, interior-restricted
% lower triangle only (row >= col); mirror for the full matrix
225 225 841
1 1 0.0019531249999999998
2 1 0.00032552083333333332
16 1 0.00032552083333333332
17 1 0.00032552083333333332
2 2 0.0019531249999999998
3 2 0.00032552083333333332
17 2 0.00032552083333333332
18 2 0.00032552083333333332
3 3 0.0019531249999999998
4 3 0.00032552083333333332
18 3 0.00032552083333333332
19 3 0.00032552083333333332
4 4 0.0019531249999999998
5 4 0.00032552083333333332
19 4 0.00032552083333333332
20 4 0.00032552083333333332
5 5 0.0019531249999999998
6 5 0.00032552083333333332
20 5 0.00032552083333333332
21 5 0.00032552083333333332
6 6 0.0019531249999999998
7 6 0.00032552083333333332
21 6 0.00032552083333333332
22 6 0.00032552083333333332
7 7 0.0019531249999999998
8 7 0.00032552083333333332
22 7 0.00032552083333333332
23 7 0.00032552083333333332
8 8 0.0019531249999999998
9 8 0.00032552083333333332
23 8 0.00032552083333333332
24 8 0.00032552083333333332
9 9 0.0019531249999999998
10 9 0.00032552083333333332
24 9 0.00032552083333333332
25 9 0.00032552083333333332
10 10 0.0019531249999999998
11 10 0.00032552083333333332
25 10 0.00032552083333333332
26 10 0.00032552083333333332
11 11 0.0019531249999999998
12 11 0.00032552083333333332
26 11 0.00032552083333333332
27 11 0.00032552083333333332
12 12 0.0019531249999999998
13 12 0.00032552083333333332
27 12 0.00032552083333333332
28 12 0.00032552083333333332
13 13 0.0019531249999999998
14 13 0.00032552083333333332
28 13 0.00032552083333333332
29 13 0.00032552083333333332
14 14 0.0019531249999999998
15 14 0.00032552083333333332
29 14 0.00032552083333333332
30 14 0.00032552083333333332
15 15 0.0019531249999999998
30 15 0.00032552083333333332
16 16 0.0019531249999999998
17 16 0.00032552083333333332
31 16 0.00032552083333333332
32 16 0.00032552083333333332
17 17 0.0019531249999999998
18 17 0.00032552083333333332
32 17 0.00032552083333333332
33 17 0.00032552083333333332
18 18 0.0019531249999999998
19 18 0.00032552083333333332
33 18 0.00032552083333333332
34 18 0.00032552083333333332
19 19 0.0019531249999999998
20 19 0.00032552083333333332
34 19 0.00032552083333333332
35 19 0.00032552083333333332
20 20 0.0019531249999999998
21 20 0.00032552083333333332
35 20 0.00032552083333333332
36 20 0.00032552083333333332
21 21 0.0019531249999999998
22 21 0.00032552083333333332
36 21 0.00032552083333333332
37 21 0.00032552083333333332
22 22 0.0019531249999999998
23 22 0.00032552083333333332
37 22 0.00032552083333333332
38 22 0.00032552083333333332
23 23 0.0019531249999999998
24 23 0.00032552083333333332
38 23 0.00032552083333333332
39 23 0.00032552083333333332
24 24 0.0019531249999999998
25 24 0.00032552083333333332
39 24 0.00032552083333333332
40 24 0.00032552083333333332
25 25 0.0019531249999999998
26 25 0.00032552083333333332
40 25 0.00032552083333333332
41 25 0.00032552083333333332
26 26 0.0019531249999999998
27 26 0.00032552083333333332
41 26 0.00032552083333333332
42 26 0.00032552083333333332
27 27 0.0019531249999999998
28 27 0.00032552083333333332
42 27 0.00032552083333333332
43 27 0.00032552083333333332
28 28 0.0019531249999999998
29 28 0.00032552083333333332
43 28 0.00032552083333333332
44 28 0.00032552083333333332
29 29 0.0019531249999999998
30 29 0.00032552083333333332
44 29 0.00032552083333333332
45 29 0.00032552083333333332
30 30 0.0019531249999999998
45 30 0.00032552083333333332
31 31 0.0019531249999999998
32 31 0.00032552083333333332
46 31 0.00032552083333333332
47 31 0.00032552083333333332
32 32 0.0019531249999999998
33 32 0.00032552083333333332
47 32 0.00032552083333333332
48 32 0.00032552083333333332
33 33 0.0019531249999999998
34 33 0.00032552083333333332
48 33 0.00032552083333333332
49 33 0.00032552083333333332
34 34 0.0019531249999999998
35 34 0.00032552083333333332
49 34 0.00032552083333333332
50 34 0.00032552083333333332
35 35 0.0019531249999999998
36 35 0.00032552083333333332
50 35 0.00032552083333333332
51 35 0.00032552083333333332
36 36 0.0019531249999999998
37 36 0.00032552083333333332
51 36 0.00032552083333333332
52 36 0.00032552083333333332
37 37 0.0019531249999999998
38 37 0.00032552083333333332
52 37 0.00032552083333333332
53 37 0.00032552083333333332
38 38 0.0019531249999999998
39 38 0.00032552083333333332
53 38 0.00032552083333333332
54 38 0.00032552083333333332
39 39 0.0019531249999999998
40 39 0.00032552083333333332
54 39 0.00032552083333333332
55 39 0.00032552083333333332
40 40 0.0019531249999999998
41 40 0.00032552083333333332
55 40 0.00032552083333333332
56 40 0.00032552083333333332
41 41 0.0019531249999999998
42 41 0.00032552083333333332
56 41 0.00032552083333333332
57 41 0.00032552083333333332
42 42 0.0019531249999999998
43 42 0.00032552083333333332
57 42 0.00032552083333333332
58 42 0.00032552083333333332
43 43 0.0019531249999999998
44 43 0.00032552083333333332
58 43 0.00032552083333333332
59 43 0.00032552083333333332
44 44 0.0019531249999999998
45 44 0.00032552083333333332
59 44 0.00032552083333333332
60 44 0.00032552083333333332
45 45 0.0019531249999999998
60 45 0.00032552083333333332
46 46 0.0019531249999999998
47 46 0.00032552083333333332
61 46 0.00032552083333333332
62 46 0.00032552083333333332
47 47 0.0019531249999999998
48 47 0.00032552083333333332
62 47 0.00032552083333333332
63 47 0.00032552083333333332
48 48 0.0019531249999999998
49 48 0.00032552083333333332
63 48 0.00032552083333333332
64 48 0.00032552083333333332
49 49 0.0019531249999999998
50 49 0.00032552083333333332
64 49 0.00032552083333333332
65 49 0.00032552083333333332
50 50 0.0019531249999999998
51 50 0.00032552083333333332
65 50 0.00032552083333333332
66 50 0.00032552083333333332
51 51 0.0019531249999999998
52 51 0.00032552083333333332
66 51 0.00032552083333333332
67 51 0.00032552083333333332
52 52 0.0019531249999999998
53 52 0.00032552083333333332
67 52 0.00032552083333333332
68 52 0.00032552083333333332
53 53 0.0019531249999999998
54 53 0.00032552083333333332
68 53 0.00032552083333333332
69 53 0.00032552083333333332
54 54 0.0019531249999999998
55 54 0.00032552083333333332
69 54 0.00032552083333333332
70 54 0.00032552083333333332
55 55 0.0019531249999999998
56 55 0.00032552083333333332
70 55 0.00032552083333333332
71 55 0.00032552083333333332
56 56 0.0019531249999999998
57 56 0.00032552083333333332
71 56 0.00032552083333333332
72 56 0.00032552083333333332
57 57 0.0019531249999999998
58 57 0.00032552083333333332
72 57 0.00032552083333333332
73 57 0.00032552083333333332
58 58 0.0019531249999999998
59 58 0.00032552083333333332
73 58 0.00032552083333333332
74 58 0.00032552083333333332
59 59 0.0019531249999999998
60 59 0.00032552083333333332
74 59 0.00032552083333333332
75 59 0.00032552083333333332
60 60 0.0019531249999999998
75 60 0.00032552083333333332
61 61 0.0019531249999999998
62 61 0.00032552083333333332
76 61 0.00032552083333333332
77 61 0.00032552083333333332
62 62 0.0019531249999999998
63 62 0.00032552083333333332
77 62 0.00032552083333333332
78 62 0.00032552083333333332
63 63 0.0019531249999999998
64 63 0.00032552083333333332
78 63 0.00032552083333333332
79 63 0.00032552083333333332
64 64 0.0019531249999999998
65 64 0.00032552083333333332
79 64 0.00032552083333333332
80 64 0.00032552083333333332
65 65 0.0019531249999999998
66 65 0.00032552083333333332
80 65 0.00032552083333333332
81 65 0.00032552083333333332
66 66 0.0019531249999999998
67 66 0.00032552083333333332
81 66 0.00032552083333333332
82 66 0.00032552083333333332
67 67 0.0019531249999999998
68 67 0.00032552083333333332
82 67 0.00032552083333333332
83 67 0.00032552083333333332
68 68 0.0019531249999999998
69 68 0.00032552083333333332
83 68 0.00032552083333333332
84 68 0.00032552083333333332
69 69 0.0019531249999999998
70 69 0.00032552083333333332
84 69 0.00032552083333333332
85 69 0.00032552083333333332
70 70 0.0019531249999999998
71 70 0.00032552083333333332
85 70 0.00032552083333333332
86 70 0.00032552083333333332
71 71 0.0019531249999999998
72 71 0.00032552083333333332
86 71 0.00032552083333333332
87 71 0.00032552083333333332
72 72 0.0019531249999999998
73 72 0.00032552083333333332
87 72 0.00032552083333333332
88 72 0.00032552083333333332
73 73 0.0019531249999999998
74 73 0.00032552083333333332
88 73 0.00032552083333333332
89 73 0.00032552083333333332
74 74 0.0019531249999999998
75 74 0.00032552083333333332
89 74 0.00032552083333333332
90 74 0.00032552083333333332
75 75 0.0019531249999999998
90 75 0.00032552083333333332
76 76 0.0019531249999999998
77 76 0.00032552083333333332
91 76 0.00032552083333333332
92 76 0.00032552083333333332
77 77 0.0019531249999999998
78 77 0.00032552083333333332
92 77 0.00032552083333333332
93 77 0.00032552083333333332
78 78 0.0019531249999999998
79 78 0.00032552083333333332
93 78 0.00032552083333333332
94 78 0.00032552083333333332
79 79 0.0019531249999999998
80 79 0.00032552083333333332
94 79 0.00032552083333333332
95 79 0.00032552083333333332
80 80 0.0019531249999999998
81 80 0.00032552083333333332
95 80 0.00032552083333333332
96 80 0.00032552083333333332
81 81 0.0019531249999999998
82 81 0.00032552083333333332
96 81 0.00032552083333333332
97 81 0.00032552083333333332
82 82 0.0019531249999999998
83 82 0.00032552083333333332
97 82 0.00032552083333333332
98 82 0.00032552083333333332
83 83 0.0019531249999999998
84 83 0.00032552083333333332
98 83 0.00032552083333333332
99 83 0.00032552083333333332
84 84 0.0019531249999999998
85 84 0.00032552083333333332
99 84 0.00032552083333333332
100 84 0.00032552083333333332
85 85 0.0019531249999999998
86 85 0.00032552083333333332
100 85 0.00032552083333333332
101 85 0.00032552083333333332
86 86 0.0019531249999999998
87 86 0.00032552083333333332
101 86 0.00032552083333333332
102 86 0.00032552083333333332
87 87 0.0019531249999999998
88 87 0.00032552083333333332
102 87 0.00032552083333333332
103 87 0.00032552083333333332
88 88 0.0019531249999999998
89 88 0.00032552083333333332
103 88 0.00032552083333333332
104 88 0.00032552083333333332
89 89 0.0019531249999999998
90 89 0.00032552083333333332
104 89 0.00032552083333333332
105 89 0.00032552083333333332
90 90 0.0019531249999999998
105 90 0.00032552083333333332
91 91 0.0019531249999999998
92 91 0.00032552083333333332
106 91 0.00032552083333333332
107 91 0.00032552083333333332
92 92 0.0019531249999999998
93 92 0.00032552083333333332
107 92 0.00032552083333333332
108 92 0.00032552083333333332
93 93 0.0019531249999999998
94 93 0.00032552083333333332
108 93 0.00032552083333333332
109 93 0.00032552083333333332
94 94 0.0019531249999999998
95 94 0.00032552083333333332
109 94 0.00032552083333333332
110 94 0.00032552083333333332
95 95 0.0019531249999999998
96 95 0.00032552083333333332
110 95 0.00032552083333333332
111 95 0.00032552083333333332
96 96 0.0019531249999999998
97 96 0.00032552083333333332
111 96 0.00032552083333333332
112 96 0.00032552083333333332
97 97 0.0019531249999999998
98 97 0.00032552083333333332
112 97 0.00032552083333333332
113 97 0.00032552083333333332
98 98 0.0019531249999999998
99 98 0.00032552083333333332
113 98 0.00032552083333333332
114 98 0.00032552083333333332
99 99 0.0019531249999999998
100 99 0.00032552083333333332
114 99 0.00032552083333333332
115 99 0.00032552083333333332
100 100 0.0019531249999999998
101 100 0.00032552083333333332
115 100 0.00032552083333333332
116 100 0.00032552083333333332
101 101 0.0019531249999999998
102 101 0.00032552083333333332
116 101 0.00032552083333333332
117 101 0.00032552083333333332
102 102 0.0019531249999999998
103 102 0.00032552083333333332
117 102 0.00032552083333333332
118 102 0.00032552083333333332
103 103 0.0019531249999999998
104 103 0.00032552083333333332
118 103 0.00032552083333333332
119 103 0.00032552083333333332
104 104 0.0019531249999999998
105 104 0.00032552083333333332
119 104 0.00032552083333333332
120 104 0.00032552083333333332
105 105 0.0019531249999999998
120 105 0.00032552083333333332
106 106 0.0019531249999999998
107 106 0.00032552083333333332
121 106 0.00032552083333333332
122 106 0.00032552083333333332
107 107 0.0019531249999999998
108 107 0.00032552083333333332
122 107 0.00032552083333333332
123 107 0.00032552083333333332
108 108 0.0019531249999999998
109 108 0.00032552083333333332
123 108 0.00032552083333333332
124 108 0.00032552083333333332
109 109 0.0019531249999999998
110 109 0.00032552083333333332
124 109 0.00032552083333333332
125 109 0.00032552083333333332
110 110 0.0019531249999999998
111 110 0.00032552083333333332
125 110 0.00032552083333333332
126 110 0.00032552083333333332
111 111 0.0019531249999999998
112 111 0.00032552083333333332
126 111 0.00032552083333333332
127 111 0.00032552083333333332
112 112 0.0019531249999999998
113 112 0.00032552083333333332
127 112 0.00032552083333333332
128 112 0.00032552083333333332
113 113 0.0019531249999999998
114 113 0.00032552083333333332
128 113 0.00032552083333333332
129 113 0.00032552083333333332
114 114 0.0019531249999999998
115 114 0.00032552083333333332
129 114 0.00032552083333333332
130 114 0.00032552083333333332
115 115 0.0019531249999999998
116 115 0.00032552083333333332
130 115 0.00032552083333333332
131 115 0.00032552083333333332
116 116 0.0019531249999999998
117 116 0.00032552083333333332
131 116 0.00032552083333333332
132 116 0.00032552083333333332
117 117 0.0019531249999999998
118 117 0.00032552083333333332
132 117 0.00032552083333333332
133 117 0.00032552083333333332
118 118 0.0019531249999999998
119 118 0.00032552083333333332
133 118 0.00032552083333333332
134 118 0.00032552083333333332
119 119 0.0019531249999999998
120 119 0.00032552083333333332
134 119 0.00032552083333333332
135 119 0.00032552083333333332
120 120 0.0019531249999999998
135 120 0.00032552083333333332
121 121 0.0019531249999999998
122 121 0.00032552083333333332
136 121 0.00032552083333333332
137 121 0.00032552083333333332
122 122 0.0019531249999999998
123 122 0.00032552083333333332
137 122 0.00032552083333333332
138 122 0.00032552083333333332
123 123 0.0019531249999999998
124 123 0.00032552083333333332
138 123 0.00032552083333333332
139 123 0.00032552083333333332
124 124 0.0019531249999999998
125 124 0.00032552083333333332
139 124 0.00032552083333333332
140 124 0.00032552083333333332
125 125 0.0019531249999999998
126 125 0.00032552083333333332
140 125 0.00032552083333333332
141 125 0.00032552083333333332
126 126 0.0019531249999999998
127 126 0.00032552083333333332
141 126 0.00032552083333333332
142 126 0.00032552083333333332
127 127 0.0019531249999999998
128 127 0.00032552083333333332
142 127 0.00032552083333333332
143 127 0.00032552083333333332
128 128 0.0019531249999999998
129 128 0.00032552083333333332
143 128 0.00032552083333333332
144 128 0.00032552083333333332
129 129 0.0019531249999999998
130 129 0.00032552083333333332
144 129 0.00032552083333333332
145 129 0.00032552083333333332
130 130 0.0019531249999999998
131 130 0.00032552083333333332
145 130 0.00032552083333333332
146 130 0.00032552083333333332
131 131 0.0019531249999999998
132 131 0.00032552083333333332
146 131 0.00032552083333333332
147 131 0.00032552083333333332
132 132 0.0019531249999999998
133 132 0.00032552083333333332
147 132 0.00032552083333333332
148 132 0.00032552083333333332
133 133 0.0019531249999999998
134 133 0.00032552083333333332
148 133 0.00032552083333333332
149 133 0.00032552083333333332
134 134 0.0019531249999999998
135 134 0.00032552083333333332
149 134 0.00032552083333333332
150 134 0.00032552083333333332
135 135 0.0019531249999999998
150 135 0.00032552083333333332
136 136 0.0019531249999999998
137 136 0.00032552083333333332
151 136 0.00032552083333333332
152 136 0.00032552083333333332
137 137 0.0019531249999999998
138 137 0.00032552083333333332
152 137 0.00032552083333333332
153 137 0.00032552083333333332
138 138 0.0019531249999999998
139 138 0.00032552083333333332
153 138 0.00032552083333333332
154 138 0.00032552083333333332
139 139 0.0019531249999999998
140 139 0.00032552083333333332
154 139 0.00032552083333333332
155 139 0.00032552083333333332
140 140 0.0019531249999999998
141 140 0.00032552083333333332
155 140 0.00032552083333333332
156 140 0.00032552083333333332
141 141 0.0019531249999999998
142 141 0.00032552083333333332
156 141 0.00032552083333333332
157 141 0.00032552083333333332
142 142 0.0019531249999999998
143 142 0.00032552083333333332
157 142 0.00032552083333333332
158 142 0.00032552083333333332
143 143 0.0019531249999999998
144 143 0.00032552083333333332
158 143 0.00032552083333333332
159 143 0.00032552083333333332
144 144 0.0019531249999999998
145 144 0.00032552083333333332
159 144 0.00032552083333333332
160 144 0.00032552083333333332
145 145 0.0019531249999999998
146 145 0.00032552083333333332
160 145 0.00032552083333333332
161 145 0.00032552083333333332
146 146 0.0019531249999999998
147 146 0.00032552083333333332
161 146 0.00032552083333333332
162 146 0.00032552083333333332
147 147 0.0019531249999999998
148 147 0.00032552083333333332
162 147 0.00032552083333333332
163 147 0.00032552083333333332
148 148 0.0019531249999999998
149 148 0.00032552083333333332
163 148 0.00032552083333333332
164 148 0.00032552083333333332
149 149 0.0019531249999999998
150 149 0.00032552083333333332
164 149 0.00032552083333333332
165 149 0.00032552083333333332
150 150 0.0019531249999999998
165 150 0.00032552083333333332
151 151 0.0019531249999999998
152 151 0.00032552083333333332
166 151 0.00032552083333333332
167 151 0.00032552083333333332
152 152 0.0019531249999999998
153 152 0.00032552083333333332
167 152 0.00032552083333333332
168 152 0.00032552083333333332
153 153 0.0019531249999999998
154 153 0.00032552083333333332
168 153 0.00032552083333333332
169 153 0.00032552083333333332
154 154 0.0019531249999999998
155 154 0.00032552083333333332
169 154 0.00032552083333333332
170 154 0.00032552083333333332
155 155 0.0019531249999999998
156 155 0.00032552083333333332
170 155 0.00032552083333333332
171 155 0.00032552083333333332
156 156 0.0019531249999999998
157 156 0.00032552083333333332
171 156 0.00032552083333333332
172 156 0.00032552083333333332
157 157 0.0019531249999999998
158 157 0.00032552083333333332
172 157 0.00032552083333333332
173 157 0.00032552083333333332
158 158 0.0019531249999999998
159 158 0.00032552083333333332
173 158 0.00032552083333333332
174 158 0.00032552083333333332
159 159 0.0019531249999999998
160 159 0.00032552083333333332
174 159 0.00032552083333333332
175 159 0.00032552083333333332
160 160 0.0019531249999999998
161 160 0.00032552083333333332
175 160 0.00032552083333333332
176 160 0.00032552083333333332
161 161 0.0019531249999999998
162 161 0.00032552083333333332
176 161 0.00032552083333333332
177 161 0.00032552083333333332
162 162 0.0019531249999999998
163 162 0.00032552083333333332
177 162 0.00032552083333333332
178 162 0.00032552083333333332
163 163 0.0019531249999999998
164 163 0.00032552083333333332
178 163 0.00032552083333333332
179 163 0.00032552083333333332
164 164 0.0019531249999999998
165 164 0.00032552083333333332
179 164 0.00032552083333333332
180 164 0.00032552083333333332
165 165 0.0019531249999999998
180 165 0.00032552083333333332
166 166 0.0019531249999999998
167 166 0.00032552083333333332
181 166 0.00032552083333333332
182 166 0.00032552083333333332
167 167 0.0019531249999999998
168 167 0.00032552083333333332
182 167 0.00032552083333333332
183 167 0.00032552083333333332
168 168 0.0019531249999999998
169 168 0.00032552083333333332
183 168 0.00032552083333333332
184 168 0.00032552083333333332
169 169 0.0019531249999999998
170 169 0.00032552083333333332
184 169 0.00032552083333333332
185 169 0.00032552083333333332
170 170 0.0019531249999999998
171 170 0.00032552083333333332
185 170 0.00032552083333333332
186 170 0.00032552083333333332
171 171 0.0019531249999999998
172 171 0.00032552083333333332
186 171 0.00032552083333333332
187 171 0.00032552083333333332
172 172 0.0019531249999999998
173 172 0.00032552083333333332
187 172 0.00032552083333333332
188 172 0.00032552083333333332
173 173 0.0019531249999999998
174 173 0.00032552083333333332
188 173 0.00032552083333333332
189 173 0.00032552083333333332
174 174 0.0019531249999999998
175 174 0.00032552083333333332
189 174 0.00032552083333333332
190 174 0.00032552083333333332
175 175 0.0019531249999999998
176 175 0.00032552083333333332
190 175 0.00032552083333333332
191 175 0.00032552083333333332
176 176 0.0019531249999999998
177 176 0.00032552083333333332
191 176 0.00032552083333333332
192 176 0.00032552083333333332
177 177 0.0019531249999999998
178 177 0.00032552083333333332
192 177 0.00032552083333333332
193 177 0.00032552083333333332
178 178 0.0019531249999999998
179 178 0.00032552083333333332
193 178 0.00032552083333333332
194 178 0.00032552083333333332
179 179 0.0019531249999999998
180 179 0.00032552083333333332
194 179 0.00032552083333333332
195 179 0.00032552083333333332
180 180 0.0019531249999999998
195 180 0.00032552083333333332
181 181 0.0019531249999999998
182 181 0.00032552083333333332
196 181 0.00032552083333333332
197 181 0.00032552083333333332
182 182 0.0019531249999999998
183 182 0.00032552083333333332
197 182 0.00032552083333333332
198 182 0.00032552083333333332
183 183 0.0019531249999999998
184 183 0.00032552083333333332
198 183 0.00032552083333333332
199 183 0.00032552083333333332
184 184 0.0019531249999999998
185 184 0.00032552083333333332
199 184 0.00032552083333333332
200 184 0.00032552083333333332
185 185 0.0019531249999999998
186 185 0.00032552083333333332
200 185 0.00032552083333333332
201 185 0.00032552083333333332
186 186 0.0019531249999999998
187 186 0.00032552083333333332
201 186 0.00032552083333333332
202 186 0.00032552083333333332
187 187 0.0019531249999999998
188 187 0.00032552083333333332
202 187 0.00032552083333333332
203 187 0.00032552083333333332
188 188 0.0019531249999999998
189 188 0.00032552083333333332
203 188 0.00032552083333333332
204 188 0.00032552083333333332
189 189 0.0019531249999999998
190 189 0.00032552083333333332
204 189 0.00032552083333333332
205 189 0.00032552083333333332
190 190 0.0019531249999999998
191 190 0.00032552083333333332
205 190 0.00032552083333333332
206 190 0.00032552083333333332
191 191 0.0019531249999999998
192 191 0.00032552083333333332
206 191 0.00032552083333333332
207 191 0.00032552083333333332
192 192 0.0019531249999999998
193 192 0.00032552083333333332
207 192 0.00032552083333333332
208 192 0.00032552083333333332
193 193 0.0019531249999999998
194 193 0.00032552083333333332
208 193 0.00032552083333333332
209 193 0.00032552083333333332
194 194 0.0019531249999999998
195 194 0.00032552083333333332
209 194 0.00032552083333333332
210 194 0.00032552083333333332
195 195 0.0019531249999999998
210 195 0.00032552083333333332
196 196 0.0019531249999999998
197 196 0.00032552083333333332
211 196 0.00032552083333333332
212 196 0.00032552083333333332
197 197 0.0019531249999999998
198 197 0.00032552083333333332
212 197 0.00032552083333333332
213 197 0.00032552083333333332
198 198 0.0019531249999999998
199 198 0.00032552083333333332
213 198 0.00032552083333333332
214 198 0.00032552083333333332
199 199 0.0019531249999999998
200 199 0.00032552083333333332
214 199 0.00032552083333333332
215 199 0.00032552083333333332
200 200 0.0019531249999999998
201 200 0.00032552083333333332
215 200 0.00032552083333333332
216 200 0.00032552083333333332
201 201 0.0019531249999999998
202 201 0.00032552083333333332
216 201 0.00032552083333333332
217 201 0.00032552083333333332
202 202 0.0019531249999999998
203 202 0.00032552083333333332
217 202 0.00032552083333333332
218 202 0.00032552083333333332
203 203 0.0019531249999999998
204 203 0.00032552083333333332
218 203 0.00032552083333333332
219 203 0.00032552083333333332
204 204 0.0019531249999999998
205 204 0.00032552083333333332
219 204 0.00032552083333333332
220 204 0.00032552083333333332
205 205 0.0019531249999999998
206 205 0.00032552083333333332
220 205 0.00032552083333333332
221 205 0.00032552083333333332
206 206 0.0019531249999999998
207 206 0.00032552083333333332
221 206 0.00032552083333333332
222 206 0.00032552083333333332
207 207 0.0019531249999999998
208 207 0.00032552083333333332
222 207 0.00032552083333333332
223 207 0.00032552083333333332
208 208 0.0019531249999999998
209 208 0.00032552083333333332
223 208 0.00032552083333333332
224 208 0.00032552083333333332
209 209 0.0019531249999999998
210 209 0.00032552083333333332
224 209 0.00032552083333333332
225 209 0.00032552083333333332
210 210 0.0019531249999999998
225 210 0.00032552083333333332
211 211 0.0019531249999999998
212 211 0.00032552083333333332
212 212 0.0019531249999999998
213 212 0.00032552083333333332
213 213 0.0019531249999999998
214 213 0.00032552083333333332
214 214 0.0019531249999999998
215 214 0.00032552083333333332
215 215 0.0019531249999999998
216 215 0.00032552083333333332
216 216 0.0019531249999999998
217 216 0.00032552083333333332
217 217 0.0019531249999999998
218 217 0.00032552083333333332
218 218 0.0019531249999999998
219 218 0.00032552083333333332
219 219 0.0019531249999999998
220 219 0.00032552083333333332
220 220 0.0019531249999999998
221 220 0.00032552083333333332
221 221 0.0019531249999999998
222 221 0.00032552083333333332
222 222 0.0019531249999999998
223 222 0.00032552083333333332
223 223 0.0019531249999999998
224 223 0.00032552083333333332
224 224 0.0019531249999999998
225 224 0.00032552083333333332
225 225 0.0019531249999999998
